ITEM: FORMAT_VERSION
2
ITEM: TIMESTEP
200
ITEM: TIME
0.1
ITEM: SOLVER_DT
0.00025
ITEM: CHARACTERISTIC_CELL_SIZE
0.001006729258263952
ITEM: MESH_ID
d5565440872044428698bf7318514570
ITEM: NUMBER OF CELLS
7321
ITEM: BOX BOUNDS
-0.0127 0.0127
-0.0127 0.0127
0 0.1
ITEM: REGIONS
10
1 hot_plate
2 cylinder_1
3 heat_switch
4 cylinder_2
5 ggg
6 cylinder_3
7 cold_stage
8 support_1
9 support_2
10 sample
ITEM: UNITS
x=m y=m z=m T=K qx=W/m^2 qy=W/m^2 qz=W/m^2 qmag=W/m^2
ITEM: FIELDS cell_ID region_ID x y z T qx qy qz qmag
139 1 0.004404475335497139 0.002366465102638707 0.09702172772330488 4 0 0 0 0
140 1 0.001608879040517608 0.004747609223894205 0.0964826399299135 4 0 0 0 0
141 1 -0.003972025634625388 0.008476751603612893 0.09699059181107911 4 0 0 0 0
142 1 0.0007961564439413169 0.001176550420056354 0.09650125721113834 4 0 0 0 0
143 1 0.00491392655454303 -0.001074938492064943 0.09649627099667514 4 0 0 0 0
144 1 0.001328084456470504 0.001185967036064069 0.09850612151382274 4 0 0 0 0
145 1 -0.01061955028569532 0.002022282352182967 0.09750812554682424 4 0 0 0 0
146 1 -0.00457227285920651 0.008002301980584527 0.09699962924391071 4 0 0 0 0
147 1 0.002216896079806696 0.001720212594116514 0.09851970113643639 4 0 0 0 0
148 1 0.000918047896583245 0.001717048906431458 0.09700580061072892 4 0 0 0 0
149 1 -0.004513247120461401 -0.004939557588187564 0.09701927089297326 4 0 0 0 0
150 1 -0.001141567860309122 0.008777146582482843 0.09680871696230459 4 0 0 0 0
151 1 -0.01020255702256345 0.001569576738257014 0.09700007501609195 4 0 0 0 0
152 1 0.004046733558279779 0.002023108832865826 0.09702172772330488 4 0 0 0 0
153 1 -0.006023952406161198 -0.007912265269342748 0.09692796510577502 4 0 0 0 0
154 1 0.004312735522862664 0.003228378494110255 0.09699241074282652 4 0 0 0 0
155 1 -0.004044608619801616 0.008043925291764635 0.09748815349711799 4 0 0 0 0
156 1 -0.002290066482166606 -0.004248045654672961 0.09651103660153955 4 0 0 0 0
157 1 0.002210881277096702 0.004729340797928158 0.09685354979733378 4 0 0 0 0
158 1 -0.01034320181187102 0.00316241470026343 0.09750088393089665 4 0 0 0 0
159 1 0.00458864193884915 -0.001583833365694672 0.09700252249935488 4 0 0 0 0
160 1 -8.409800686577635e-05 -0.00948224470851378 0.09701911732115487 4 0 0 0 0
161 1 0.003649522271854398 0.001447329315696795 0.0985220486263987 4 0 0 0 0
162 1 0.004030046518721879 -0.0002207644966800413 0.09700721179264671 4 0 0 0 0
163 1 0.007189038560065275 -0.002229794574324124 0.09749539017293417 4 0 0 0 0
164 1 0.001312885482841287 0.004255952538243651 0.09698718332950408 4 0 0 0 0
165 1 0.001289982588286838 0.001137888358796049 0.09750612151382274 4 0 0 0 0
166 1 -0.0071558822171444 -0.008340952444490676 0.09747709233856403 4 0 0 0 0
167 1 0.007482708139502735 -0.002761224220507505 0.09699911917625904 4 0 0 0 0
168 1 -0.005013384832580885 -0.00476111457155141 0.09650823429143372 4 0 0 0 0
169 1 0.003704761903028 -0.0007296593703097711 0.09751346329532648 4 0 0 0 0
170 1 0.0101427479292425 -0.002071238037913896 0.09903018313831496 4 0 0 0 0
171 1 0.009432256351951822 -0.005613910685735501 0.09853312852739833 4 0 0 0 0
172 1 0.003590838959112976 -0.0003933985900792084 0.09650032090309382 4 0 0 0 0
173 1 0.01083388815042814 -0.002279798810155452 0.0984986745218821 4 0 0 0 0
174 1 -0.008602806849939321 0.005734918155642509 0.09700780931336511 4 0 0 0 0
175 1 -0.006297265222201662 -0.007385566418284974 0.09644206779758337 4 0 0 0 0
176 1 0.0003992122081386518 -0.009108733669797024 0.09652052280385721 4 0 0 0 0
177 1 0.0009215623163572746 -0.008660806454225697 0.0978042053574795 4 0 0 0 0
178 1 -0.006544399497164483 -0.007474060572227353 0.09742649798458272 4 0 0 0 0
179 1 0.003704783962252899 0.001245741053965009 0.0975220486263987 4 0 0 0 0
180 1 0.003090762414975843 0.001682115792116973 0.0970151577368458 4 0 0 0 0
181 1 -0.001508448029868462 -0.004203213387572508 0.0985310844259018 4 0 0 0 0
182 1 -0.002622482453328824 -0.003397448728393802 0.09752364082182274 4 0 0 0 0
183 1 0.0007791802345812292 0.001660923426683222 0.09900580061072892 4 0 0 0 0
184 1 -0.001276443463103503 -0.004196880727082302 0.0975310844259018 4 0 0 0 0
185 1 0.002634761322637287 -0.006897623620272933 0.09692469599038755 4 0 0 0 0
186 1 0.005009072122619689 0.002342301345629192 0.09751680317924988 4 0 0 0 0
187 1 0.003001932168050934 -0.006531746248094055 0.09646115673766723 4 0 0 0 0
188 1 -4.550744378492425e-05 -0.009922498349544838 0.09649859451729767 4 0 0 0 0
189 1 0.004596068655003827 0.002200533337588097 0.09851680317924986 4 0 0 0 0
190 1 -0.003936519850611152 -0.005437882954367297 0.09651103660153955 4 0 0 0 0
191 1 -0.008679241427403348 0.006368460932034574 0.09751299436391003 4 0 0 0 0
192 1 -0.0008214245260087604 0.00908181155503966 0.09732154484789193 4 0 0 0 0
193 1 0.003559333861875934 -0.008381474977354574 0.09750543102574223 4 0 0 0 0
194 1 0.004621704070442415 0.00195442110382931 0.0965068908895529 4 0 0 0 0
195 1 -0.009174022683964136 0.006447699767100785 0.09699574615821033 4 0 0 0 0
196 1 -0.003422914361887601 0.008528150599111398 0.09648852425320729 4 0 0 0 0
197 1 0.008799327198431475 -0.00525503968867653 0.09903990623395416 4 0 0 0 0
198 1 -0.0081806590059592 0.00712644623726368 0.09851955535783394 4 0 0 0 0
199 1 -0.00342962435345801 0.007432834407802071 0.0974938476779834 4 0 0 0 0
200 1 -0.003169829112461696 -0.003449345037964971 0.09651317313092422 4 0 0 0 0
201 1 0.007175657726388543 -0.0004339089264965991 0.09699770822828044 4 0 0 0 0
202 1 0.001914887719420381 0.004237684112277604 0.09735809319692436 4 0 0 0 0
203 1 0.002516793406709959 0.007214185670736161 0.09647060432127208 4 0 0 0 0
204 1 -0.00713671174852133 -0.008271425774916597 0.09847709233856403 4 0 0 0 0
205 1 -0.002711095948403133 0.007564600346855783 0.09731633875540267 4 0 0 0 0
206 1 0.004917332309985215 0.003204214737100739 0.09748748619877151 4 0 0 0 0
207 1 0.001684810981286585 0.002090187582254394 0.09650454339959059 4 0 0 0 0
208 1 0.004461105210586552 -0.008450295257548306 0.09755351622224369 4 0 0 0 0
209 1 0.006191243393601606 0.001338317206561974 0.09700196634549789 4 0 0 0 0
210 1 -0.003731037020586808 0.005859080925729169 0.09650776173873725 4 0 0 0 0
211 1 0.006627227857735864 -0.003150980476058897 0.09695211862525296 4 0 0 0 0
212 1 0.007532690651074777 7.8220471235284e-05 0.09650143723160531 4 0 0 0 0
213 1 0.007082099803404105 0.00423003614045932 0.09749273295594738 4 0 0 0 0
214 1 -0.004314647680962678 -0.009265786995356693 0.09648589730819168 4 0 0 0 0
215 1 0.0008552567463992238 -0.007717711592285632 0.09779416496172025 4 0 0 0 0
216 1 -0.001875801179156732 -0.003794406492059408 0.09701046769089852 4 0 0 0 0
217 1 -0.001013463898119193 -0.008147662990431612 0.09630714435153982 4 0 0 0 0
218 1 -0.003812835022187613 -0.0092683689638776 0.09698792089773883 4 0 0 0 0
219 1 0.01056128985365067 -0.001451177594511885 0.09950734618651377 4 0 0 0 0
220 1 -0.003036747756338698 -0.003851087891007355 0.09702420973246376 4 0 0 0 0
221 1 0.000933334514743383 -0.009136963430302431 0.09849325566158912 4 0 0 0 0
222 1 0.009732688516929752 -0.00189481473222722 0.09752793693223255 4 0 0 0 0
223 1 0.004504328842369352 0.003062446729059645 0.09848748619877151 4 0 0 0 0
224 1 -0.008137389216190803 0.007073303405339322 0.09751955535783394 4 0 0 0 0
225 1 0.006333558278298404 -0.002619550829875516 0.09744838962192812 4 0 0 0 0
226 1 0.009368145429977172 -0.005503500634520465 0.09753312852739833 4 0 0 0 0
227 1 0.002929146110128527 0.001524791886710173 0.0990151577368458 4 0 0 0 0
228 1 -0.00764728232952695 0.003628136233045499 0.09750114774980342 4 0 0 0 0
229 1 0.002344101253129114 0.006741263527228673 0.09695324425118557 4 0 0 0 0
230 1 0.01131381926400415 -0.001316428422043223 0.09911962239600997 4 0 0 0 0
231 1 0.009520818561368057 -0.00175817436616823 0.09852793693223255 4 0 0 0 0
232 1 0.004743267879111871 -0.001124870525227447 0.09850941338890778 4 0 0 0 0
233 1 -0.00499349014549838 -0.005280530761875108 0.09746133869055662 4 0 0 0 0
234 1 0.006840038693368602 0.001274344856617765 0.09750340357710319 4 0 0 0 0
235 1 -0.007499433392630678 -0.004837665919618542 0.09750705935936273 4 0 0 0 0
236 1 -0.002706656870171325 -0.003300262428620789 0.09852364082182274 4 0 0 0 0
237 1 -0.002899140026774078 -0.002294195201790593 0.09853537020146506 4 0 0 0 0
238 1 -2.043942215563708e-05 0.01109202862572434 0.09737580150830891 4 0 0 0 0
239 1 0.0006282754957222478 -0.008872288992005607 0.09734066610475914 4 0 0 0 0
240 1 0.01158507768025144 0.001236080348649315 0.09871784012623339 4 0 0 0 0
241 1 0.0006279656022389981 0.007055718983632542 0.0983277142158423 4 0 0 0 0
242 1 0.006754348922969461 0.0002417376032740531 0.09850459911783332 4 0 0 0 0
243 1 0.0116425705163785 -0.001802275187649249 0.09858811377957707 4 0 0 0 0
244 1 0.004999568584770008 -0.0100875823425507 0.09702034741436942 4 0 0 0 0
245 1 -0.007151381748202579 0.00397614144782184 0.09699887545730448 4 0 0 0 0
246 1 -0.006525229028541414 -0.007404533902653275 0.09842649798458272 4 0 0 0 0
247 1 -0.009606824038756489 0.003134183788910624 0.09699283340016437 4 0 0 0 0
248 1 0.001342190671299476 -0.008796395122699936 0.09728368255362227 4 0 0 0 0
249 1 0.007749667228172624 -0.002272539185040816 0.09649775379391758 4 0 0 0 0
250 1 -0.008642906687716246 0.006664150432055167 0.09902243325624463 4 0 0 0 0
251 1 0.001920801570758113 0.004578265348418811 0.09835809319692436 4 0 0 0 0
252 1 0.01065880868720259 -0.002272224470194992 0.09749867452188207 4 0 0 0 0
253 1 -0.00147976402078384 -0.00520789485117834 0.09852069427257371 4 0 0 0 0
254 1 -0.006817712313204948 -0.00694736172116958 0.09694060067639106 4 0 0 0 0
255 1 -0.001247759454018882 -0.005201562190688134 0.09752069427257372 4 0 0 0 0
256 1 -0.004086011111439468 0.006333099432153138 0.09700532342477612 4 0 0 0 0
257 1 0.0009011627454192722 0.004621016241555095 0.09747781597232652 4 0 0 0 0
258 1 0.01201723542328049 0.001397946946617056 0.09810556391673739 4 0 0 0 0
259 1 0.002713193177880483 -0.009612063556662753 0.09651439018578291 4 0 0 0 0
260 1 -0.0007039956120548931 0.005862586393978379 0.09831952491505058 4 0 0 0 0
261 1 0.003883997552572393 0.0007438120510621073 0.09900721179264671 4 0 0 0 0
262 1 -0.0004999621402262702 0.006608470334972484 0.09681845184559378 4 0 0 0 0
263 1 0.004378956518570871 -0.008482294325528137 0.09855351622224368 4 0 0 0 0
264 1 -0.004214543624865735 -0.01032039786471215 0.09740110902175533 4 0 0 0 0
265 1 6.272797731189118e-05 0.007757682479276417 0.09831731701459939 4 0 0 0 0
266 1 -0.01057366591184441 0.00411297003925256 0.09700132254385255 4 0 0 0 0
267 1 0.001590990738418362 -0.005303453248561354 0.09698177347267051 4 0 0 0 0
268 1 0.002212209172530819 0.003908878414134958 0.09839029010076286 4 0 0 0 0
269 1 0.003946701849194679 9.48170178387899e-05 0.09700721179264671 4 0 0 0 0
270 1 -0.00305437292421309 -0.009638075138804023 0.09690696795974754 4 0 0 0 0
271 1 0.003477185169860254 -0.008413474045334405 0.09850543102574223 4 0 0 0 0
272 1 0.001259603018844109 0.0003714083750936354 0.09900157811423214 4 0 0 0 0
273 1 0.0005888212468340181 0.01151489581094368 0.09683157649137936 4 0 0 0 0
274 1 -0.003635454840393034 -0.00955796285170368 0.09739286526793919 4 0 0 0 0
275 1 -0.009790802474627519 0.00630620854375603 0.09748782917858095 4 0 0 0 0
276 1 0.0002583222817538967 -0.00984712518041022 0.09752831092616643 4 0 0 0 0
277 1 0.001911539467134311 -0.007082698152701496 0.09696269246197267 4 0 0 0 0
278 1 0.002038167107603414 0.007094828505830125 0.0974625066214341 4 0 0 0 0
279 1 0.01117944577273183 0.001837980908926657 0.09792795219001033 4 0 0 0 0
280 1 0.002269880760866364 -0.004117103032941976 0.09839501650766688 4 0 0 0 0
281 1 0.0002777677240171837 0.008337173723091316 0.09834228296493316 4 0 0 0 0
282 1 0.005448197825788386 -0.009627265139971296 0.09753197186359122 4 0 0 0 0
283 1 0.002348404635112931 -0.007314948378071177 0.09646353925272036 4 0 0 0 0
284 1 -0.0009519910703419227 0.008860126240676745 0.0984892140740482 4 0 0 0 0
285 1 0.002685954012430689 -0.004640509014766386 0.09889615748540492 4 0 0 0 0
286 1 0.007570369204724236 0.003733089763410182 0.09698980750970849 4 0 0 0 0
287 1 0.007464473539838434 0.004742144700709442 0.09699765750000239 4 0 0 0 0
288 1 -0.008834642042483689 0.005977494296496495 0.09851299436391003 4 0 0 0 0
289 1 0.003119709166166937 -0.007031800217982853 0.09745219757762653 4 0 0 0 0
290 1 -0.005110131138764365 -0.005147698210795325 0.09846133869055662 4 0 0 0 0
291 1 -0.001526927297182859 -0.005696628590762543 0.0964890409360309 4 0 0 0 0
292 1 -0.008465066905390492 0.00407625064996464 0.09751008160586405 4 0 0 0 0
293 1 -0.003976420377149599 -0.005985708710066564 0.09702487234183528 4 0 0 0 0
294 1 -0.001358786789566826 0.008245097116599372 0.09712876972576275 4 0 0 0 0
295 1 0.006177624168407691 0.000518861963347891 0.0965068908895529 4 0 0 0 0
296 1 -0.0008833211905605076 -0.003838896985825259 0.09902004782436226 4 0 0 0 0
297 1 0.00602264526530023 -0.006037835268840984 0.09754446477466482 4 0 0 0 0
298 1 -0.01040169827025863 0.001914936492842507 0.09850812554682425 4 0 0 0 0
299 1 0.006678688033735572 0.001730306392683328 0.096495075455945 4 0 0 0 0
300 1 0.009781647276529226 -0.00133978548364845 0.09700509998043133 4 0 0 0 0
301 1 0.003486880011580585 -0.006665922845803973 0.09698865832490619 4 0 0 0 0
302 1 0.007764807254769161 -0.0006749665644801662 0.097495462022198 4 0 0 0 0
303 1 -0.001212921157806935 0.006204649916787763 0.09882889227222816 4 0 0 0 0
304 1 -0.009992675539570265 0.003604953156305436 0.09649056110766541 4 0 0 0 0
305 1 -0.002303297218807611 -0.001664165909391465 0.09849233016487377 4 0 0 0 0
306 1 -0.003565091501893697 0.0008182641935359203 0.09855573403393228 4 0 0 0 0
307 1 0.006073633814720264 -0.006104164838131285 0.09854446477466482 4 0 0 0 0
308 1 0.007172419014392196 -0.001619801854743749 0.0989940247905927 4 0 0 0 0
309 1 -0.00351507698314863 0.007279401797994063 0.0984938476779834 4 0 0 0 0
310 1 -0.007394030879401802 -0.004591202897540942 0.09850705935936273 4 0 0 0 0
311 1 -0.00276988870913301 0.0004463141139449961 0.09849641535174582 4 0 0 0 0
312 1 -0.004180190139553093 0.008342059316572165 0.09848815349711799 4 0 0 0 0
313 1 -0.003092313901293199 -0.002054120705986227 0.09753537020146506 4 0 0 0 0
314 1 0.001698448154709306 -0.004699017829682674 0.09698177347267051 4 0 0 0 0
315 1 0.006833667087433284 0.001278980477333525 0.09850340357710319 4 0 0 0 0
316 1 0.004788197002780418 -0.01070720665636177 0.09751356971552293 4 0 0 0 0
317 1 0.01117226148036062 -0.001169042804312107 0.09681432037889251 4 0 0 0 0
318 1 -0.0002244301414814501 0.008247945395827282 0.09832088252993822 4 0 0 0 0
319 1 0.002546456932135089 -0.009225894089356772 0.09697792943850324 4 0 0 0 0
320 1 0.00282425739371051 0.001114018065480857 0.09650032090309382 4 0 0 0 0
321 1 -0.002191980162764191 -0.0037035528527766 0.09901046769089852 4 0 0 0 0
322 1 0.002516609331068008 0.008094684204365434 0.09647060432127208 4 0 0 0 0
323 1 0.0007416324967583248 -0.009473614141693463 0.09702971640886876 4 0 0 0 0
324 1 -0.009699863826113422 -0.003704485487921827 0.09852454058241733 4 0 0 0 0
325 1 0.007725985609048393 -0.0007893437058936958 0.09849546202219803 4 0 0 0 0
326 1 -0.0038760355985228 -0.008842368563778456 0.09698792089773883 4 0 0 0 0
327 1 -0.007646475920139501 0.003491999455662497 0.09850114774980342 4 0 0 0 0
328 1 0.005221316922102638 0.001806804404709598 0.09900196634549789 4 0 0 0 0
329 1 0.01063765521356277 0.001703190843233398 0.09739784465992399 4 0 0 0 0
330 1 -0.0005976062993263107 0.01054046322950602 0.09704343528550712 4 0 0 0 0
331 1 -0.0007163209384136931 0.008535807946833106 0.09780940678314551 4 0 0 0 0
332 1 0.001035249099033863 0.007468123442113221 0.09650926237024854 4 0 0 0 0
333 1 -0.003347346389109604 -0.009433823952676917 0.09839286526793919 4 0 0 0 0
334 1 0.0002494033518996907 0.006542561630093062 0.09881845184559378 4 0 0 0 0
335 1 0.008315667824301116 0.00374419671410842 0.09849258219261472 4 0 0 0 0
336 1 0.006216564023466428 -0.006944366130656372 0.09755619531861372 4 0 0 0 0
337 1 -0.01109900671071593 0.003812774946914692 0.09750937307458485 4 0 0 0 0
338 1 0.006212445460206011 -0.00275340042068566 0.09844838962192809 4 0 0 0 0
339 1 -0.002653757175833365 -0.002609854794825669 0.09701260422028321 4 0 0 0 0
340 1 -0.004162430764293575 0.005505394089279029 0.09701029541761276 4 0 0 0 0
341 1 0.006126071962820122 -9.244975147661039e-05 0.09900316188622803 4 0 0 0 0
342 1 0.0005743181956172962 0.005670741170532412 0.09830386248307614 4 0 0 0 0
343 1 0.0002858552071025747 -0.008507408520109167 0.09683147249974758 4 0 0 0 0
344 1 -0.003639139906722078 0.005118006768592195 0.09752460083157687 4 0 0 0 0
345 1 0.001336806325066726 -0.005731872382550789 0.09748092668192282 4 0 0 0 0
346 1 0.004771404468400946 -0.009053359610536747 0.09702601463500471 4 0 0 0 0
347 1 0.008500667723677144 -0.004909969572305544 0.09754127161629561 4 0 0 0 0
348 1 0.005407219728080658 -0.009660598630410354 0.09853197186359122 4 0 0 0 0
349 1 -0.001963258786500842 -0.005387892566802317 0.09700007753757044 4 0 0 0 0
350 1 -0.003555888514347611 0.009181551902961884 0.09699604451046399 4 0 0 0 0
351 1 -0.00428793088062935 -0.01031355194967717 0.09840110902175536 4 0 0 0 0
352 1 0.002279047277662807 -0.009630328874088925 0.0974871230435148 4 0 0 0 0
353 1 -0.004104999787085398 0.009130152907463378 0.09749811206833582 4 0 0 0 0
354 1 0.001976416411680685 0.007024139665725944 0.0984625066214341 4 0 0 0 0
355 1 0.005056655702694552 0.003161567582388301 0.09897264936501954 4 0 0 0 0
356 1 -0.001921708325789983 0.006889052145765098 0.09831567643744897 4 0 0 0 0
357 1 -0.005300076171603549 -0.0008345618930378831 0.09856040969841549 4 0 0 0 0
358 1 -0.0003286592822709356 0.006230547204709252 0.09633058991034021 4 0 0 0 0
359 1 0.002197896154658667 -0.006665373394903253 0.09742384919963989 4 0 0 0 0
360 1 -0.006120118075916038 -0.0004209545271373936 0.0985314225846891 4 0 0 0 0
361 1 0.002545723308801065 -0.004501487798003904 0.09689615748540492 4 0 0 0 0
362 1 0.002058353607201188 0.002504743078577748 0.09901938023334257 4 0 0 0 0
363 1 0.01147740244089415 -0.001702805258993381 0.09728281176245962 4 0 0 0 0
364 1 0.002405686300104762 -0.006801243600639213 0.0984238491996399 4 0 0 0 0
365 1 0.007327483333502568 0.001666334042739119 0.0969965126875503 4 0 0 0 0
366 1 -0.0007771761364008777 0.01115101079155188 0.09756615679412116 4 0 0 0 0
367 1 0.005618214013533525 -0.007170565538258527 0.09703912603646078 4 0 0 0 0
368 1 -0.001677108547146747 0.009039586733726623 0.09648852425320729 4 0 0 0 0
369 1 -0.008774410736169636 -8.076027486248711e-05 0.09748702909878593 4 0 0 0 0
370 1 -0.008913310443345522 0.0005517317607292483 0.09699158159104847 4 0 0 0 0
371 1 0.004322775227382569 -0.009513676813116144 0.09651439018578291 4 0 0 0 0
372 1 0.0007106987969548331 0.000846364765712789 0.09950125721113834 4 0 0 0 0
373 1 -0.004669436091722704 -0.004587993984453053 0.09901927089297326 4 0 0 0 0
374 1 0.003163621390846522 0.0008212746220754849 0.09950032090309383 4 0 0 0 0
375 1 0.007057267316359893 0.004502711032873816 0.0984927329559474 4 0 0 0 0
376 1 0.007421798460148783 -0.0002493086803078739 0.09899770822828044 4 0 0 0 0
377 1 -0.0005759048826122008 -0.009678176011273576 0.09680573886883748 4 0 0 0 0
378 1 -0.002496471093326732 -0.0014240914135871 0.09749233016487378 4 0 0 0 0
379 1 0.01104020045641127 0.001175206065897511 0.09689506997701777 4 0 0 0 0
380 1 -0.007907643065132492 -0.007925181274779796 0.09699119503037236 4 0 0 0 0
381 1 0.01028040970406289 -0.004553596916881205 0.0970461311236232 4 0 0 0 0
382 1 -0.009603284245687271 -0.003384876593642317 0.0990119179019895 4 0 0 0 0
383 1 -0.0004379682942782616 -0.007386923000392494 0.09631094969589038 4 0 0 0 0
384 1 0.0008080429779089041 -0.0001195334921577916 0.0985173804280029 4 0 0 0 0
385 1 0.006267552572886461 -0.007010695699946673 0.09855619531861372 4 0 0 0 0
386 1 -0.001720926012586044 -0.006374867121712109 0.09683006075078621 4 0 0 0 0
387 1 -0.004517404855146236 0.005979412595703001 0.09750785710365165 4 0 0 0 0
388 1 -0.01050860362083274 -0.004096836133449947 0.09854800376261552 4 0 0 0 0
389 1 -0.009701785844057774 0.006282167501277022 0.09848782917858095 4 0 0 0 0
390 1 0.005328280260411742 -0.00585924822761495 0.09702739549251189 4 0 0 0 0
391 1 -0.002977236870224791 0.0002564059005440945 0.0974964153517458 4 0 0 0 0
392 1 -0.01087608421428717 0.004158357150115486 0.09850937307458485 4 0 0 0 0
393 1 0.004506470401632125 -0.01033387174007784 0.09900761248693642 4 0 0 0 0
394 1 0.002635568529796552 -0.004090250816772164 0.0964350007477377 4 0 0 0 0
395 1 -0.008732701253391664 0.001116429992864197 0.09749385388354742 4 0 0 0 0
396 1 0.004564689254839721 -0.005651927892153902 0.09702739549251189 4 0 0 0 0
397 1 -0.002157257501904027 -0.006066131097751883 0.09734109735232574 4 0 0 0 0
398 1 -0.003785373291143207 0.007898434401614085 0.09898608593924617 4 0 0 0 0
399 1 -0.003772439662985478 0.0006283559801350189 0.09755573403393228 4 0 0 0 0
400 1 0.002702423079019654 -0.004000720345941167 0.0994350007477377 4 0 0 0 0
401 1 -0.001890385878707754 0.006385963722239076 0.09833665401096539 4 0 0 0 0
402 1 -0.003213960506966397 -0.006400296763954334 0.09736589215659061 4 0 0 0 0
403 1 0.008163755397129255 0.003586861986275707 0.09749258219261475 4 0 0 0 0
404 1 0.003997111760255506 -0.005610444368284364 0.09748855223017912 4 0 0 0 0
405 1 0.01041837803512584 -0.005230313969161597 0.09853935341706738 4 0 0 0 0
406 1 0.001086849857509669 -0.005103676280328636 0.09652061673500328 4 0 0 0 0
407 1 -0.00722490525586262 -0.004171365531190662 0.09700852648055504 4 0 0 0 0
408 1 -0.004434810471099532 0.007588210815134095 0.09649756168603889 4 0 0 0 0
409 1 0.00135361783287951 0.007765838152034818 0.09650926237024854 4 0 0 0 0
410 1 -0.004343017787042425 -0.004060218294805433 0.09853244402389746 4 0 0 0 0
411 1 0.006134467393207855 0.00143827370127196 0.09900196634549789 4 0 0 0 0
412 1 0.002286349827455328 -0.003477314364116757 0.09893385976999966 4 0 0 0 0
413 1 0.007697449144851888 0.004163099383657392 0.0989898075097085 4 0 0 0 0
414 1 -0.009408333418190999 -0.004147114274383809 0.09901291486954915 4 0 0 0 0
415 1 -0.008361370266288819 -0.005044487240178914 0.09751144774835684 4 0 0 0 0
416 1 -0.0006144954456930528 -0.009237922370242518 0.09732626167269467 4 0 0 0 0
417 1 -0.003859345727313097 -0.009850396469220177 0.09889084167839204 4 0 0 0 0
418 1 0.0009190334938634099 0.00613910832409688 0.0988132298402537 4 0 0 0 0
419 1 0.00929476223838659 0.001406786161982214 0.0985115581010253 4 0 0 0 0
420 1 0.001612495724800324 -0.006544159204238646 0.09649915320925234 4 0 0 0 0
421 1 -0.00127445633747408 0.00967364621125593 0.09753195953871439 4 0 0 0 0
422 1 0.001220479019723013 -0.007845276699054033 0.0984832152658299 4 0 0 0 0
423 1 -0.001253683201971757 0.007970270845341292 0.09761663166101631 4 0 0 0 0
424 1 0.001037620061492276 -0.008542645253757796 0.09898406205657756 4 0 0 0 0
425 1 -0.002098980073522133 -0.006455986479656969 0.09634101981475532 4 0 0 0 0
426 1 -0.0008615729388105931 0.01106380850443441 0.09856615679412116 4 0 0 0 0
427 1 0.01023703397727169 -0.004617316610236804 0.0990461311236232 4 0 0 0 0
428 1 -0.01098453585282267 0.001552908092425073 0.09900585325432529 4 0 0 0 0
429 1 0.007952742941158565 0.004245198323660305 0.09649473205376351 4 0 0 0 0
430 1 0.001130555908295233 0.004677148118725066 0.09847781597232652 4 0 0 0 0
431 1 -0.004913351596449832 -0.0003102420579673551 0.09905221775770126 4 0 0 0 0
432 1 0.01201806189568593 -0.001431415720465729 0.09789508797195581 4 0 0 0 0
433 1 -0.001759039677154841 0.007384965911963429 0.09880791469871172 4 0 0 0 0
434 1 -0.01161903866485009 0.001208629108602745 0.09848212935709377 4 0 0 0 0
435 1 0.008203547719886316 -0.004828312970856545 0.09854127161629563 4 0 0 0 0
436 1 -0.008464260496003044 0.003940113872581638 0.09851008160586405 4 0 0 0 0
437 1 0.007225113571409895 0.00818421872748149 0.09851968892920338 4 0 0 0 0
438 1 0.002432021216867336 -0.00207102522474847 0.09700511052494173 4 0 0 0 0
439 1 0.00369228602058288 0.01040911313845039 0.09747683836550609 4 0 0 0 0
440 1 -0.00894391795270612 0.0008520612913397533 0.09849385388354742 4 0 0 0 0
441 1 0.004648277678677538 -0.009118692168955635 0.09902601463500471 4 0 0 0 0
442 1 -0.001558191274153567 0.008533933542236043 0.09897638618846086 4 0 0 0 0
443 1 0.007685187798926346 -0.002090813459631108 0.09949775379391758 4 0 0 0 0
444 1 -0.007844334594917188 -0.004121118843654644 0.09650029218912133 4 0 0 0 0
445 1 0.006514499519120739 0.009345257126792435 0.09754045592911803 4 0 0 0 0
446 1 -0.0002043716450577967 0.009135588668474241 0.09683302059468465 4 0 0 0 0
447 1 -0.002732752871612581 -0.001236198614136595 0.0989928990755148 4 0 0 0 0
448 1 -0.004494733292637644 -0.005971170386464466 0.09746694013941865 4 0 0 0 0
449 1 0.0001900767909103356 0.01183816492336028 0.0973542979999934 4 0 0 0 0
450 1 -0.003716633062379317 0.006823313187501521 0.09700532342477612 4 0 0 0 0
451 1 -0.0087886268911336 -5.270854979172457e-06 0.09848702909878591 4 0 0 0 0
452 1 0.00191252118236025 0.003490429361441665 0.09901938023334257 4 0 0 0 0
453 1 0.009904970558025606 0.001417573340214493 0.09901012086941999 4 0 0 0 0
454 1 0.005281670773783634 0.002503406878419728 0.09949507545594501 4 0 0 0 0
455 1 0.001488168705054151 -0.009043114394128473 0.09897273285773192 4 0 0 0 0
456 1 -0.005884086250598703 -0.007607140869717885 0.09892796510577503 4 0 0 0 0
457 1 -0.005092248829221878 -0.01012164376360244 0.09699616465155497 4 0 0 0 0
458 1 0.003757549411288199 0.0004756253401843685 0.09700721179264672 4 0 0 0 0
459 1 -0.000231540508746186 0.002273239104986777 0.09759756802573619 4 0 0 0 0
460 1 -0.009537683428746333 -0.003119177483557097 0.0970119179019895 4 0 0 0 0
461 1 0.0006746572745162366 0.007753096623708279 0.09682945507934582 4 0 0 0 0
462 1 0.003567854308127661 0.01026363493056336 0.09847683836550609 4 0 0 0 0
463 1 0.001949758129564194 0.008881795360357892 0.09650558029483053 4 0 0 0 0
464 1 -0.008521328202321965 -0.004470337865220907 0.09701291486954915 4 0 0 0 0
465 1 -0.0009708342202439722 0.005129109666815101 0.09883166297979704 4 0 0 0 0
466 1 -0.008255967753059944 -0.004798024218101314 0.09851144774835684 4 0 0 0 0
467 1 0.001359346440125447 0.006722954517740543 0.09732249221050222 4 0 0 0 0
468 1 -9.531194634642301e-05 0.006074194476528594 0.09830908448841622 4 0 0 0 0
469 1 -0.0002900492087685543 0.01110064114539568 0.09903554939420139 4 0 0 0 0
470 1 0.005592735843698602 0.009286954292775668 0.09752571909422289 4 0 0 0 0
471 1 0.007903355440755398 0.003125218457569392 0.09899785013885123 4 0 0 0 0
472 1 0.003797392983559661 -0.00488377567500606 0.09739605139067783 4 0 0 0 0
473 1 0.003688211584690397 -0.00479314050003934 0.09839605139067784 4 0 0 0 0
474 1 0.001678671872407946 0.008594307879459712 0.09701484266507904 4 0 0 0 0
475 1 0.002851537775337352 0.00420630751846476 0.09888574670117227 4 0 0 0 0
476 1 0.005364270089282712 -0.005920358757443494 0.0990273954925119 4 0 0 0 0
477 1 -0.008254905654245328 -0.007485517273019125 0.09900371792935263 4 0 0 0 0
478 1 0.001422605606774604 -0.004314633064620745 0.09848063249493247 4 0 0 0 0
479 1 -0.004155966878596483 0.004553310766062614 0.09701683909283962 4 0 0 0 0
480 1 0.008393019967595785 -0.004666483693145326 0.09650136538234147 4 0 0 0 0
481 1 0.008096466870550881 -0.005295149980200245 0.0970184346644944 4 0 0 0 0
482 1 0.001297595744202717 0.006652265677636361 0.09832249221050222 4 0 0 0 0
483 1 -0.0018598834057834 0.007982230755065755 0.09829643895191902 4 0 0 0 0
484 1 -0.00263297017436817 0.0004798743455236249 0.09697364937056396 4 0 0 0 0
485 1 -0.005292877694515327 -0.0006421807363601889 0.09756040969841549 4 0 0 0 0
486 1 -0.006416134030428959 -0.00526390990841653 0.09695030208901707 4 0 0 0 0
487 1 0.001831909597572301 0.006308220619618524 0.0964826399299135 4 0 0 0 0
488 1 -0.007086241513380047 -0.003018725679272705 0.09851671842126927 4 0 0 0 0
489 1 0.000993026008361884 0.008050811333629875 0.09682945507934583 4 0 0 0 0
490 1 0.005114230911003864 -0.01048676498523744 0.09851356971552293 4 0 0 0 0
491 1 0.000668312813195607 -0.006380385418013683 0.09649915320925234 4 0 0 0 0
492 1 -0.009597952784480314 -0.003642140739281397 0.09752454058241732 4 0 0 0 0
493 1 -0.006659605504949091 0.009124936507832922 0.09699475125855814 4 0 0 0 0
494 1 -0.01040669257919964 -0.004034491384809517 0.09754800376261552 4 0 0 0 0
495 1 0.0003808851761525427 0.01136327762670993 0.09786712588558075 4 0 0 0 0
496 1 -0.006879664598043064 -0.00679043298659311 0.09894060067639106 4 0 0 0 0
497 1 0.002206295321193087 0.003568297177993751 0.09739029010076286 4 0 0 0 0
498 1 0.006792317994898142 0.008697263319341496 0.09901670055077977 4 0 0 0 0
499 1 0.00189885241232468 -0.006126834446440403 0.09696030994691954 4 0 0 0 0
500 1 0.001520044609306082 -0.007768349318294946 0.09677448894861071 4 0 0 0 0
501 1 0.0002739394157222253 0.001967487143649492 0.09700580061072892 4 0 0 0 0
502 1 4.38409731079487e-05 -0.006812292635786709 0.09631094969589038 4 0 0 0 0
503 1 -0.004325719212173704 0.003982374231413659 0.09758721914766712 4 0 0 0 0
504 1 -0.007212154646578543 0.004078935057063029 0.09899887545730449 4 0 0 0 0
505 1 -0.0004601002734096797 0.008572263689670921 0.09900068982084093 4 0 0 0 0
506 1 0.003416513334654532 -0.007786616944213599 0.09699104083995931 4 0 0 0 0
507 1 -0.003650828713873378 -0.008013797933219536 0.09701585932984291 4 0 0 0 0
508 1 -0.005192832642805187 -0.001099631504787613 0.0970309579218961 4 0 0 0 0
509 1 -0.002312868782896334 0.007142350691139294 0.0988278145021954 4 0 0 0 0
510 1 0.004976356203071381 -0.002006913859047665 0.09745327574226639 4 0 0 0 0
511 1 0.007291938747484419 -0.008199129262390274 0.09852110791123841 4 0 0 0 0
512 1 0.005358342323128895 -0.0007103328420103375 0.09900316188622803 4 0 0 0 0
513 1 -0.008187075527865387 -0.005349762963151998 0.09901115555923552 4 0 0 0 0
514 1 -0.0007820280297372548 -0.005339166317985634 0.09900965767103417 4 0 0 0 0
515 1 -0.004911020447311541 -0.000339014955716539 0.09705221775770126 4 0 0 0 0
516 1 0.006044404072276944 -0.003510568402802503 0.09645075324291152 4 0 0 0 0
517 1 -0.002413712511524892 0.007739615534241621 0.09831633875540267 4 0 0 0 0
518 1 0.008797220820722047 -0.004281303285250625 0.09702420233414269 4 0 0 0 0
519 1 -4.486571804017536e-05 0.006837562780501474 0.09681845184559378 4 0 0 0 0
520 1 0.01040262648626853 -0.001183432766934948 0.09650734618651377 4 0 0 0 0
521 1 -0.0003124999999999972 0.009609329945113643 0.09651282788558735 4 0 0 0 0
522 1 -0.003683382757275182 0.005159633347338372 0.09852460083157687 4 0 0 0 0
523 1 0.003297742600854557 0.0111364905516133 0.09752292575690738 4 0 0 0 0
524 1 0.01008097849068717 0.004359770314335261 0.09849052419260237 4 0 0 0 0
525 1 -0.0005245149793581585 0.008830923695917424 0.09632019270909731 4 0 0 0 0
526 1 -0.0006866474388272749 -0.008559746358968938 0.09630714435153982 4 0 0 0 0
527 1 0.0082729385568123 -0.00750196893039278 0.09902302651073945 4 0 0 0 0
528 1 -0.004189602593709584 0.005841139268654601 0.09850785710365163 4 0 0 0 0
529 1 -0.006195929193284226 0.0002856984182774535 0.09902323064397486 4 0 0 0 0
530 1 -0.001479759765996014 0.005471173189624487 0.09934103033697458 4 0 0 0 0
531 1 0.006623591941003046 0.008609950848398967 0.09701670055077977 4 0 0 0 0
532 1 -0.002352095603672112 0.005093796293833532 0.09836309748967592 4 0 0 0 0
533 1 0.002419977695542411 -0.001511462046077809 0.09750543142803555 4 0 0 0 0
534 1 -0.004538100087051854 -0.005564631110375234 0.0989531043991229 4 0 0 0 0
535 1 0.002372699416538609 -0.003964470732495055 0.09739501650766688 4 0 0 0 0
536 1 -0.002878595402907369 -0.00025049946715207 0.0989928990755148 4 0 0 0 0
537 1 0.007813212430640872 0.002345964568945343 0.09849928737045655 4 0 0 0 0
538 1 0.0009816429482664994 0.007024504641999442 0.09683985228058872 4 0 0 0 0
539 1 0.0001520479630802972 0.001426988657274388 0.09650125721113834 4 0 0 0 0
540 1 -0.0001006589298113057 0.002866355169770854 0.09709631081459785 4 0 0 0 0
541 1 0.008235430746457174 0.002597847498940704 0.09650277468290624 4 0 0 0 0
542 1 -0.006652978744490401 -0.009132045314357923 0.09697855945975634 4 0 0 0 0
543 1 -0.00544121875746818 -0.007585126835815392 0.09692796510577502 4 0 0 0 0
544 1 0.00298118625057469 0.006433752663760992 0.09744929493764826 4 0 0 0 0
545 1 0.003173310888399337 0.01099101234372627 0.09852292575690738 4 0 0 0 0
546 1 -0.00084228298041169 0.006260684133948806 0.09715948218256837 4 0 0 0 0
547 1 0.0004430532969393443 -0.006773404092839846 0.09681010290514269 4 0 0 0 0
548 1 -0.006112919598827817 -0.0002285733704596995 0.09753142258468911 4 0 0 0 0
549 1 -0.001979446080872719 -0.006365841320878952 0.09834109735232574 4 0 0 0 0
550 1 0.01035426711315119 -0.00511990391794656 0.09753935341706738 4 0 0 0 0
551 1 0.009419221719519932 0.006184006886351482 0.09900203945068016 4 0 0 0 0
552 1 -0.01085359691776498 -0.003495966532579841 0.09903538108218769 4 0 0 0 0
553 1 0.004137582377969673 0.01060423506482403 0.09697125807067559 4 0 0 0 0
554 1 -0.001139968253016969 0.006899950675948291 0.09680791469871172 4 0 0 0 0
555 1 0.00728513676130617 0.003544121127118364 0.09949507545594501 4 0 0 0 0
556 1 -0.007349624323065154 -0.003598320333018621 0.09900852648055504 4 0 0 0 0
557 1 0.001512303333900601 0.005356668348646335 0.0964826399299135 4 0 0 0 0
558 1 0.006189740032162612 -0.002858581629369157 0.09645075324291152 4 0 0 0 0
559 1 0.0024513805533135 0.006637314874581553 0.09895324425118557 4 0 0 0 0
560 1 0.01053491759484143 0.003723758824269839 0.09899579213883886 4 0 0 0 0
561 1 -0.0005980969624984428 -0.007063402796881149 0.09679999063192127 4 0 0 0 0
562 1 0.004110083082832774 -0.001939978299448796 0.09650625150267977 4 0 0 0 0
563 1 0.008640462404238346 0.006907719348346315 0.09848680021531563 4 0 0 0 0
564 1 -0.001044945511279878 0.002029176830696329 0.09759654090237661 4 0 0 0 0
565 1 0.0004862905909371682 0.00847223927426992 0.09902209025583586 4 0 0 0 0
566 1 -0.008528972143413714 -0.007867385435954805 0.09749638008091728 4 0 0 0 0
567 1 0.00152542426244685 -0.004162000764173825 0.09748063249493247 4 0 0 0 0
568 1 -0.003838107105111366 0.003624960752410081 0.09708468546879161 4 0 0 0 0
569 1 -0.002755375355270656 -0.006502177443697097 0.09836589215659058 4 0 0 0 0
570 1 0.001341461182485895 0.00629503107230322 0.0968132298402537 4 0 0 0 0
571 1 0.0006229128484230076 -0.005825545907498024 0.0970197699442556 4 0 0 0 0
572 1 0.00218459566571383 -0.006304234128958826 0.09896030994691955 4 0 0 0 0
573 1 0.006478786168506634 -0.004966933504117418 0.09900125928761438 4 0 0 0 0
574 1 -0.0007269412483844633 0.01003208829724733 0.09704343528550712 4 0 0 0 0
575 1 -0.001066300477221323 0.008246070991230221 0.09948786193525358 4 0 0 0 0
576 1 -0.001809997024311707 0.009597933754334544 0.09701913165312705 4 0 0 0 0
577 1 -0.006009240724878073 0.005985797142770917 0.09751734357061412 4 0 0 0 0
578 1 0.009595289150894706 0.001530537067033378 0.0975115581010253 4 0 0 0 0
579 1 -0.006610227791507477 -0.005807677586054464 0.09844883496782476 4 0 0 0 0
580 1 -0.006683256494348849 0.009122606508231608 0.09899475125855814 4 0 0 0 0
581 1 0.005363534121219716 -0.00648314280970955 0.09652750158723898 4 0 0 0 0
582 1 0.001022654256828644 -0.008189753270010048 0.09631094969589038 4 0 0 0 0
583 1 0.007722409231703765 0.002847602419222724 0.09699785013885123 4 0 0 0 0
584 1 -0.009185919815976763 -0.006454267597910681 0.09899122183978044 4 0 0 0 0
585 1 -0.003102799611152766 0.006817777865298728 0.09650776173873725 4 0 0 0 0
586 1 0.01111226151563293 0.002454067431016398 0.09742060600349656 4 0 0 0 0
587 1 0.001735746863801164 -0.009381435005621894 0.09697273285773192 4 0 0 0 0
588 1 0.006797509971792416 -0.005458974802056153 0.09851832856976732 4 0 0 0 0
589 1 0.002950490014882273 0.005185270995652469 0.09885354979733378 4 0 0 0 0
590 1 0.003245213257887187 -0.006840273421124237 0.09845219757762654 4 0 0 0 0
591 1 0.002409972212028975 -0.01032586013961027 0.09702358379079447 4 0 0 0 0
592 1 -0.003405828474539974 -0.00854731407920304 0.09650202358954717 4 0 0 0 0
593 1 0.006793521499999445 -0.0005834960350585374 0.09949627099667514 4 0 0 0 0
594 1 0.00141475943300978 -0.005773401859333252 0.09848092668192283 4 0 0 0 0
595 1 -0.003668354771534143 0.004195897287059037 0.09651430541396411 4 0 0 0 0
596 1 -0.002406208098595337 -0.004836850265810037 0.09651103660153955 4 0 0 0 0
597 1 0.002840074989789722 -0.0101356665972399 0.09651439018578291 4 0 0 0 0
598 1 0.002740432265754062 0.003784803244385542 0.09688574670117227 4 0 0 0 0
599 1 -0.005739631882829289 0.005767453997251413 0.09851734357061412 4 0 0 0 0
600 1 0.001123238614200837 0.005675360734294362 0.0968132298402537 4 0 0 0 0
601 1 0.0007870752867460291 0.0109076560852022 0.0983444043769667 4 0 0 0 0
602 1 -0.0006709801224563554 0.005882761003685575 0.09667162024731479 4 0 0 0 0
603 1 0.001144545500806971 0.01012254138695967 0.09835866029452536 4 0 0 0 0
604 1 0.0003615691059067878 0.007402020457577178 0.09899712430550209 4 0 0 0 0
605 1 0.004868361406945814 -0.0003180986476821326 0.0995068908895529 4 0 0 0 0
606 1 -0.004160639042339019 -0.006023429205038493 0.09846694013941866 4 0 0 0 0
607 1 -0.009105345175285533 -0.006469476626084396 0.09699122183978044 4 0 0 0 0
608 1 -0.002157224486896833 0.0056524869950758 0.09884879207571182 4 0 0 0 0
609 1 -0.001946212290611731 0.004388316632976152 0.09744710316594596 4 0 0 0 0
610 1 -0.007337719838837421 -0.002963494225797304 0.09700848412983556 4 0 0 0 0
611 1 0.005631719897776638 -0.007319240841615593 0.09903912603646078 4 0 0 0 0
612 1 0.002560130173564646 0.004875694452748613 0.09885354979733378 4 0 0 0 0
613 1 -0.007486219993439258 0.002807373602286255 0.09898389954410372 4 0 0 0 0
614 1 -0.004121035837856203 -0.00830885241779495 0.09750175663803456 4 0 0 0 0
615 1 -0.003305271602044082 -0.002820514253267007 0.09651317313092422 4 0 0 0 0
616 1 0.001009506798243674 0.008808911291007714 0.09784786325976369 4 0 0 0 0
617 1 -0.001407594124681526 0.004483905287939097 0.09693279775198185 4 0 0 0 0
618 1 0.007280381071213243 -0.00813870672765781 0.09752110791123841 4 0 0 0 0
619 1 -0.006430104851746699 -0.003004578357750029 0.09901642623214796 4 0 0 0 0
620 1 0.008198643137934957 -0.008153819961188257 0.09851544069060313 4 0 0 0 0
621 1 -0.008209323277975406 -0.008121868522731812 0.09849638008091728 4 0 0 0 0
622 1 0.001358796418066137 0.01107901157055912 0.09883157649137936 4 0 0 0 0
623 1 0.007332353478205358 -0.001371575122520075 0.0969940247905927 4 0 0 0 0
624 1 0.002085873286779706 0.003015923365404438 0.09701938023334257 4 0 0 0 0
625 1 -0.001290335528684454 0.006898282247143282 0.09632005276345816 4 0 0 0 0
626 1 -0.009950077448904556 0.002254883615695591 0.09650227229249897 4 0 0 0 0
627 1 0.004224007509708949 -0.006123761101596677 0.09652750158723898 4 0 0 0 0
628 1 -0.003144977474885129 0.005874813780269224 0.09650776173873725 4 0 0 0 0
629 1 0.004497797347055005 -0.002363058792801788 0.09695700474559127 4 0 0 0 0
630 1 -0.006886325190833788 -0.0009439906508723148 0.09849741831590716 4 0 0 0 0
631 1 -0.004194154940615943 0.007020312906013654 0.09649756168603889 4 0 0 0 0
632 1 0.009921829444725484 0.005491915130585864 0.09900203945068016 4 0 0 0 0
633 1 -0.00437554255188833 0.003929905051998218 0.09858721914766712 4 0 0 0 0
634 1 -0.005142348272775577 0.00818244099991354 0.09650206755787183 4 0 0 0 0
635 1 -0.003960857264090048 0.009191555775141637 0.09849811206833582 4 0 0 0 0
636 1 0.004592381666887118 -0.00499126614270824 0.09649989390527293 4 0 0 0 0
637 1 0.001026053582230252 0.009493874089782138 0.09767885300362267 4 0 0 0 0
638 1 0.001658917944367663 -0.001220675767912625 0.09751498223912655 4 0 0 0 0
639 1 -0.006238521820100353 -0.00699303995365772 0.09944206779758337 4 0 0 0 0
640 1 0.00378368418006818 -0.007420739572034719 0.09652750158723898 4 0 0 0 0
641 1 0.002153036825676316 -0.005698415312450969 0.09646115673766723 4 0 0 0 0
642 1 -0.004250033068864211 0.00454246816539335 0.09901683909283963 4 0 0 0 0
643 1 0.002003156518273446 -0.008977000220889741 0.09646353925272036 4 0 0 0 0
644 1 -0.006965483023014474 -0.005366188214582247 0.09900676717024141 4 0 0 0 0
645 1 0.009377735398473227 -0.004702696731242047 0.09952283695180122 4 0 0 0 0
646 1 -0.001566853323456237 -0.003339236451029351 0.09949943108935899 4 0 0 0 0
647 1 0.001433600514382816 -0.008222593070501397 0.09677448894861071 4 0 0 0 0
648 1 0.01084284893822197 0.00375686067808609 0.09752589966892519 4 0 0 0 0
649 1 0.006330524925438813 -0.004929015845977511 0.09700125928761438 4 0 0 0 0
650 1 -0.003453549586941511 -0.003674723206690769 0.09902420973246376 4 0 0 0 0
651 1 0.003113123222782865 0.005624571751860964 0.09834960048379646 4 0 0 0 0
652 1 0.003228547300390445 -0.001256170878545153 0.09900657240577358 4 0 0 0 0
653 1 -0.00159140004562793 0.0009321351874013767 0.09747490658170228 4 0 0 0 0
654 1 -0.006342962971982191 0.005537455807012767 0.09701978188457522 4 0 0 0 0
655 1 -0.007670629559467844 -0.002331014518826544 0.09750393163757301 4 0 0 0 0
656 1 0.003334802373471284 0.005541101854714098 0.09686696055388297 4 0 0 0 0
657 1 0.000195672191949341 0.01145909243349874 0.09852687377147323 4 0 0 0 0
658 1 -0.003718954341331121 -0.002175805968143331 0.09903593911210608 4 0 0 0 0
659 1 0.004255426289603482 -0.004555497866006491 0.09693489465301061 4 0 0 0 0
660 1 0.00483456671151973 -0.007890447653820907 0.09903912603646078 4 0 0 0 0
661 1 -0.003675234497518056 0.001856809686282606 0.0976033481075779 4 0 0 0 0
662 1 -0.002697509721757705 0.007084615401624625 0.09682781450219539 4 0 0 0 0
663 1 0.006580608675601065 0.009287554263480784 0.09854045592911803 4 0 0 0 0
664 1 -0.00682071078839369 -0.005566495711825128 0.09744883496782476 4 0 0 0 0
665 1 0.001981287997938824 -0.01061255304522991 0.09650919360501156 4 0 0 0 0
666 1 0.002493846104068495 -0.001532395577941918 0.09850543142803556 4 0 0 0 0
667 1 -0.01085263537544945 -0.002924098143302899 0.09699354898672875 4 0 0 0 0
668 1 -0.002098069927286224 0.000790195129585557 0.09897364937056395 4 0 0 0 0
669 1 -0.008162636315818329 -0.0001331238858889071 0.09898922637519292 4 0 0 0 0
670 1 0.0008080915833958304 0.005431365312853676 0.09730386248307614 4 0 0 0 0
671 1 0.002424684321622405 0.01081708752854805 0.09736912658076 4 0 0 0 0
672 1 0.001826187192775735 -0.002070490700817043 0.09649885902226199 4 0 0 0 0
673 1 0.001283416235162819 0.008639834986925131 0.09733503537417634 4 0 0 0 0
674 1 -0.004209119829203255 -0.003860787827430726 0.09651317313092422 4 0 0 0 0
675 1 0.006746521422372383 -0.005392645232765853 0.09751832856976732 4 0 0 0 0
676 1 0.001095849602314969 -0.00670403665086469 0.09649915320925234 4 0 0 0 0
677 1 0.001450026553267896 -0.005149791644702357 0.09898177347267051 4 0 0 0 0
678 1 0.01067661487313074 -0.00334420187937283 0.09699132833536833 4 0 0 0 0
679 1 -0.006693487661431806 -0.003584173011495945 0.09950823429143373 4 0 0 0 0
680 1 0.007122496673995126 0.008039203393227312 0.09751968892920337 4 0 0 0 0
681 1 -0.0006866474388272797 -0.009440253641031054 0.09630714435153982 4 0 0 0 0
682 1 -0.001127165756603131 0.007229277874409554 0.09680791469871172 4 0 0 0 0
683 1 -1.699314443251952e-05 0.006888863104037697 0.09948786193525358 4 0 0 0 0
684 1 -0.006460375442288354 0.006619491852741912 0.09751193199332792 4 0 0 0 0
685 1 0.003375414863840378 -0.003241023784133763 0.0964350007477377 4 0 0 0 0
686 1 0.00127695249921847 -0.001710175831971182 0.09701466133603273 4 0 0 0 0
687 1 0.009443599242225166 0.006815645040022891 0.09849111923380871 4 0 0 0 0
688 1 0.0008434367654931899 0.005341094362400923 0.09897327257273594 4 0 0 0 0
689 1 -0.00573426099189605 0.005615894527930416 0.09650253367887553 4 0 0 0 0
690 1 -0.009449205947747268 -0.005946761253342783 0.09850384452020826 4 0 0 0 0
691 1 0.001942782395106243 0.01145672401890354 0.09835487066320131 4 0 0 0 0
692 1 -0.0070518987198783 0.003394309203686787 0.09948162725160478 4 0 0 0 0
693 1 0.003656430015124735 -0.006082277577727139 0.0969886583249062 4 0 0 0 0
694 1 -0.001310790896561053 -0.007250716980594989 0.09835058355464341 4 0 0 0 0
695 1 -0.002791215215509661 0.005032726850628046 0.09902206715270134 4 0 0 0 0
696 1 -0.001717099453117359 -0.007799766473629522 0.09836356620815967 4 0 0 0 0
697 1 0.00294409322667575 0.005657831564403902 0.09734960048379646 4 0 0 0 0
698 1 -0.01018990616640286 -0.003235871062961535 0.09951162571286819 4 0 0 0 0
699 1 0.006481891897850197 -0.003802967249492243 0.09695211862525296 4 0 0 0 0
700 1 0.001194307273800613 -0.004499240861449956 0.09652061673500328 4 0 0 0 0
701 1 -0.007005409154976858 0.008599571421861766 0.09849187336014746 4 0 0 0 0
702 1 0.002377201993728005 -0.009715115891227741 0.0984871230435148 4 0 0 0 0
703 1 -0.008044620000143466 -0.000102494993262999 0.09698922637519292 4 0 0 0 0
704 1 0.004191857308282812 -0.009565614927042814 0.09951439018578291 4 0 0 0 0
705 1 0.0006210511237488727 0.0073094778235945 0.09716004498968603 4 0 0 0 0
706 1 -0.008387398339656803 0.001198385277701964 0.09899605115995441 4 0 0 0 0
707 1 -0.004137078153343104 0.0003047221730603929 0.09905221775770126 4 0 0 0 0
708 1 7.704091361984076e-05 -0.01153044543322918 0.09698994036956328 4 0 0 0 0
709 1 0.002620010231340681 0.003232429431796228 0.09651483683375199 4 0 0 0 0
710 1 -0.001954143895883738 0.008669508455590912 0.09648852425320729 4 0 0 0 0
711 1 -9.618258475877216e-05 -0.008202743547552347 0.09683147249974758 4 0 0 0 0
712 1 -0.002865386518347334 0.007650512140098889 0.09899628599194453 4 0 0 0 0
713 1 -0.006982832763730289 0.00861291341636629 0.09749187336014746 4 0 0 0 0
714 1 -0.001153618729623408 0.004553398354988486 0.09842343039480428 4 0 0 0 0
715 1 0.00110909835175191 -0.007735509517803598 0.09631094969589038 4 0 0 0 0
716 1 -0.002112176982403726 0.0006996359254661712 0.09697364937056396 4 0 0 0 0
717 1 0.002167091353025706 -0.00744337440599571 0.09896269246197267 4 0 0 0 0
718 1 -0.006856119932948638 -0.003345307855367146 0.09751671842126927 4 0 0 0 0
719 1 0.00818708546166378 -0.008093397426455793 0.09751544069060313 4 0 0 0 0
720 1 -0.001358664209912226 0.002541047436861423 0.09709528369123829 4 0 0 0 0
721 1 -0.003611231228887264 0.001293766163356141 0.09703296805275041 4 0 0 0 0
722 1 0.001571166573291581 0.002783371306245125 0.09650454339959059 4 0 0 0 0
723 1 0.005658845000178925 0.009229251429464019 0.09852571909422289 4 0 0 0 0
724 1 0.002995444655791021 -0.0016836282226022 0.09650625150267977 4 0 0 0 0
725 1 -0.001896704799073303 0.003782235722011704 0.09710607282897138 4 0 0 0 0
726 1 0.006331920181827491 -0.003530854538862562 0.09895211862525299 4 0 0 0 0
727 1 -0.005793721141338568 0.007822354669895329 0.09749675134550002 4 0 0 0 0
728 1 0.0005888241251256313 -0.008398674850312145 0.09631094969589038 4 0 0 0 0
729 1 0.002551849785166783 0.003787858465771468 0.09951483683375199 4 0 0 0 0
730 1 0.001366677363527382 0.002167986862402179 0.0995045433995906 4 0 0 0 0
731 1 0.008367944817880911 -0.003081820346219469 0.09852195612806025 4 0 0 0 0
732 1 0.001732786352893747 -0.001241609299776735 0.09851498223912655 4 0 0 0 0
733 1 0.002792743316421249 -0.002830029487895977 0.09744011127267943 4 0 0 0 0
734 1 -0.01112782414745414 -0.003500737156658728 0.09751730435604827 4 0 0 0 0
735 1 0.0006134809973146131 -0.01119820910106867 0.09849913397457484 4 0 0 0 0
736 1 0.002247288511707136 -0.01122182618177556 0.09703248779014273 4 0 0 0 0
737 1 -0.0065249885615623 0.009712108185847463 0.09751839433436829 4 0 0 0 0
738 1 -0.003316955651510355 -0.00537370469615684 0.09651103660153955 4 0 0 0 0
739 1 -0.005400538744791932 0.006064235863688566 0.0970000953649144 4 0 0 0 0
740 1 0.0104575697655081 0.003137319271120111 0.09703288221299256 4 0 0 0 0
741 1 0.007350145509447022 0.001791250973968834 0.0989965126875503 4 0 0 0 0
742 1 0.003661642473207509 0.003894015853022396 0.09637090986742029 4 0 0 0 0
743 1 -0.002539405778993699 0.007983140897750761 0.09680857701666544 4 0 0 0 0
744 1 0.001110685445281031 0.008295133671901135 0.09682945507934582 4 0 0 0 0
745 1 -0.005191991254568922 -0.01073903467226737 0.09651026734336329 4 0 0 0 0
746 1 -0.001189983135101951 0.009693299532542748 0.09853195953871439 4 0 0 0 0
747 1 -0.001441566071976352 0.0007190114785821957 0.09847490658170228 4 0 0 0 0
748 1 0.003443967120191923 0.006699000846029843 0.09696665500773477 4 0 0 0 0
749 1 -0.001234693615481593 0.0004741736035219346 0.09697139030547126 4 0 0 0 0
750 1 -0.009191385351767388 -0.007089054182016647 0.09849640689032536 4 0 0 0 0
751 1 -0.001358086633143098 0.003877824376974649 0.09659176741500727 4 0 0 0 0
752 1 -0.003627903154293724 0.001718550860979581 0.09860334810757791 4 0 0 0 0
753 1 0.002999071381378661 0.0005050092339297262 0.09650032090309382 4 0 0 0 0
754 1 0.002185518993718434 0.009905585061908282 0.09684583240893802 4 0 0 0 0
755 1 0.0109992367089126 -0.003901341239991178 0.09751462250719031 4 0 0 0 0
756 1 0.0001567374791039281 -0.009721957006799099 0.09852831092616643 4 0 0 0 0
757 1 0.003432712011002723 0.00245948357101779 0.09651483683375199 4 0 0 0 0
758 1 0.001362329196264691 -0.007399056508553419 0.09727364215786305 4 0 0 0 0
759 1 -0.006411146847442701 0.004768366146494948 0.09701978188457522 4 0 0 0 0
760 1 0.0004346403027906668 0.004010499814002874 0.09699517604241303 4 0 0 0 0
761 1 1.980346568266901e-05 -0.007301008953997377 0.09781966664503081 4 0 0 0 0
762 1 -0.006183765611272299 -0.009283725708892094 0.09900907935161771 4 0 0 0 0
763 1 0.004030345695866796 0.01030133434295094 0.0989712580706756 4 0 0 0 0
764 1 -0.00356695896883442 -0.01080986390741537 0.09691521171356368 4 0 0 0 0
765 1 0.003381926023950562 -0.0006579409483951352 0.09950032090309383 4 0 0 0 0
766 1 0.004954198068712329 -0.007776102851774309 0.09703912603646078 4 0 0 0 0
767 1 -0.009181820281853648 -0.007102998830650017 0.09749640689032536 4 0 0 0 0
768 1 -0.001558560038835191 -0.001813130744585039 0.09896956418369192 4 0 0 0 0
769 1 0.00940884827319464 0.006133350812806267 0.09700203945068016 4 0 0 0 0
770 1 -0.0006113680385523392 -0.003786111317842204 0.09702004782436226 4 0 0 0 0
771 1 0.001299963019149398 0.009324797785699555 0.09716602511803532 4 0 0 0 0
772 1 -0.000752906266004789 0.002859015247554772 0.09659176741500727 4 0 0 0 0
773 1 -0.0005099476312762922 0.006008989221601101 0.09765011482539079 4 0 0 0 0
774 1 -0.0003386447733209576 0.005631066091337872 0.09716225289013725 4 0 0 0 0
775 1 0.002915120711451019 0.009192645122185095 0.09650558029483053 4 0 0 0 0
776 1 0.004775119253252398 -0.002036166626498437 0.09845327574226639 4 0 0 0 0
777 1 0.008472470284356742 0.002109191904561695 0.09900421191451156 4 0 0 0 0
778 1 -0.001256629321096743 0.001522768388010918 0.09700477348736934 4 0 0 0 0
779 1 0.006090089666226907 -0.004114925933781661 0.09845201253052591 4 0 0 0 0
780 1 0.002300252609167185 0.01067160932066101 0.09836912658076 4 0 0 0 0
781 1 0.0001188532582502389 0.007220249496330466 0.09713864455469107 4 0 0 0 0
782 1 -0.004915079949200037 0.007878403120284167 0.09699962924391071 4 0 0 0 0
783 1 0.003412774928567288 -0.006031511351186649 0.09898865832490621 4 0 0 0 0
784 1 0.001218029665163659 0.008943976842186317 0.09852767055066639 4 0 0 0 0
785 1 0.009948930091695739 0.002102945849267581 0.09950277468290625 4 0 0 0 0
786 1 -0.001988015691640161 -0.001385163449330169 0.09947013309433295 4 0 0 0 0
787 1 -0.00567630390173021 -0.01023467170033877 0.09751934669498102 4 0 0 0 0
788 1 0.003493576441587048 0.005237578892235644 0.09886696055388297 4 0 0 0 0
789 1 0.001188152063739304 0.005809461515965392 0.09948263992991351 4 0 0 0 0
790 1 -0.0002998731974026208 -0.006697591180361019 0.09679999063192127 4 0 0 0 0
791 1 0.009958263065667678 0.004327368089421599 0.09749052419260237 4 0 0 0 0
792 1 0.004168223762923289 -0.004336977387977717 0.09893489465301061 4 0 0 0 0
793 1 -0.0073273146967448 -0.0005198946238614106 0.09898922637519292 4 0 0 0 0
794 1 0.0004048209946571056 0.002560603208433569 0.09650454339959059 4 0 0 0 0
795 1 0.004447490149061061 0.004802854892483088 0.09647757390907455 4 0 0 0 0
796 1 -0.01007123445146097 -0.002934889115729387 0.09651162571286818 4 0 0 0 0
797 1 -0.002708365138407838 0.005638562893069099 0.09684879207571181 4 0 0 0 0
798 1 -0.008179393901373268 0.005918989601625493 0.09651724820569971 4 0 0 0 0
799 1 0.002194032946498685 0.007631706171410197 0.09897986669152059 4 0 0 0 0
800 1 -0.0009086684045534367 -0.005800726460749035 0.0964890409360309 4 0 0 0 0
801 1 0.00555131975501597 -0.0002970699486662445 0.09700316188622803 4 0 0 0 0
802 1 0.0006573678934547925 0.004163852128578241 0.09899517604241304 4 0 0 0 0
803 1 0.009602199768233271 0.0008859639429883098 0.09700878341811905 4 0 0 0 0
804 1 -0.0005132230225499717 -0.00855974635896894 0.09682766715539702 4 0 0 0 0
805 1 -0.005214931257951805 0.007749614688065285 0.09699962924391071 4 0 0 0 0
806 1 0.002151540933901547 -0.007779387965037597 0.09646353925272036 4 0 0 0 0
807 1 -0.002836785361488239 0.008389061414064614 0.09648852425320729 4 0 0 0 0
808 1 -0.008183519707319353 0.0005299970423287365 0.09649377886745547 4 0 0 0 0
809 1 0.00686479032745334 -0.007251884525297259 0.09702869373137474 4 0 0 0 0
810 1 -0.009378196376969778 -0.005948025632883129 0.09750384452020826 4 0 0 0 0
811 1 -0.00560693685703676 -0.004839617586674711 0.09650823429143372 4 0 0 0 0
812 1 0.001049363464947035 0.009724754447749555 0.09901840818041785 4 0 0 0 0
813 1 -0.005557706672761285 8.966499290690005e-05 0.0995294517765194 4 0 0 0 0
814 1 0.008228748767085861 -0.00375979750943803 0.09702420233414269 4 0 0 0 0
815 1 0.01021848148660338 0.0008867284769306156 0.09650734618651377 4 0 0 0 0
816 1 0.005684724784176933 0.001853251538756468 0.09700196634549789 4 0 0 0 0
817 1 -0.002596344098734382 0.005591417551870315 0.09950776173873725 4 0 0 0 0
818 1 0.0008463630402126812 0.00364543611069143 0.09650454339959059 4 0 0 0 0
819 1 -0.006831529929745751 -0.009387322450614922 0.09850174150318236 4 0 0 0 0
820 1 -0.006526063159715489 0.009723120180750673 0.09851839433436829 4 0 0 0 0
821 1 0.004306702605924485 0.0004944856258241149 0.0965068908895529 4 0 0 0 0
822 1 -0.006518661053577588 -0.009719562607365513 0.09750174150318236 4 0 0 0 0
823 1 0.005385023824317864 -0.003700285798639617 0.09645075324291152 4 0 0 0 0
824 1 0.002675972725797287 -0.01093513327615591 0.09754687797592564 4 0 0 0 0
825 1 -0.003873734733176097 0.003493421860327746 0.09908468546879161 4 0 0 0 0
826 1 0.005992816972579119 -0.004143337844932054 0.09745201253052591 4 0 0 0 0
827 1 0.0002720216892425631 0.009244322338271261 0.09683302059468465 4 0 0 0 0
828 1 -0.001955965472604175 0.008179683811020484 0.09680857701666544 4 0 0 0 0
829 1 0.0005705596212641912 -0.0112457920052156 0.09749913397457484 4 0 0 0 0
830 1 -0.007796853506701742 0.008240033900495302 0.09898980580227563 4 0 0 0 0
831 1 0.002313685410366847 0.01026139715575882 0.09634025211410752 4 0 0 0 0
832 1 -0.003804592967430196 0.006372560247287905 0.09900532342477612 4 0 0 0 0
833 1 -0.00716028010235902 0.002133179891231523 0.09847767841155919 4 0 0 0 0
834 1 0.005241023995886602 0.006135645544144969 0.0975237330681655 4 0 0 0 0
835 1 -0.006029460580338152 -0.005515616428558575 0.09895030208901708 4 0 0 0 0
836 1 -0.005122242496020502 -0.001563708229267576 0.0990309579218961 4 0 0 0 0
837 1 0.008495707855755749 -0.003271112473971341 0.09652283695180122 4 0 0 0 0
838 1 -0.00637078218114482 0.00420868686827788 0.09750140913618 4 0 0 0 0
839 1 0.008626602858979256 0.006825322657128919 0.09748680021531564 4 0 0 0 0
840 1 0.002983401134466096 -0.001124065043931538 0.09700657240577357 4 0 0 0 0
841 1 0.00674320394982474 -0.001130517484536508 0.09649627099667514 4 0 0 0 0
842 1 -0.002886118114511238 0.006343296964490402 0.09650776173873725 4 0 0 0 0
843 1 0.00257788094117914 0.005259671298788487 0.09948263992991351 4 0 0 0 0
844 1 -0.003748225250151979 0.004105984973722877 0.09951430541396411 4 0 0 0 0
845 1 9.933912642877478e-05 -0.006658702637414157 0.09729914384117361 4 0 0 0 0
846 1 -0.006659491651044528 -0.004637725164833005 0.09650823429143372 4 0 0 0 0
847 1 -0.005125296629414341 0.003655859538754671 0.09755454098530779 4 0 0 0 0
848 1 0.003465953977667134 -0.002808831650167251 0.09694125225041744 4 0 0 0 0
849 1 0.01046514617370132 0.005276544299686408 0.0984950569066128 4 0 0 0 0
850 1 0.008208950402402182 -0.007376671509612502 0.09702302651073945 4 0 0 0 0
851 1 -0.005003437592589306 -0.007313659075867368 0.09744180084607078 4 0 0 0 0
852 1 -0.0007040182696016411 -0.004582570764116276 0.09952061673500329 4 0 0 0 0
853 1 0.0001650834022251959 -0.002067312226895056 0.09751409242539172 4 0 0 0 0
854 1 0.003150216246681806 0.006400492851218055 0.09844929493764826 4 0 0 0 0
855 1 0.001329702941836801 -0.001752323916568307 0.09901466133603273 4 0 0 0 0
856 1 -0.004803127641306497 0.005707619391120664 0.0990000953649144 4 0 0 0 0
857 1 0.003319759269256747 0.003625372419137021 0.09688574670117227 4 0 0 0 0
858 1 -0.006046743663385245 0.008732565341634586 0.09650206755787183 4 0 0 0 0
859 1 0.004255333920595298 -0.003183450391558649 0.09839200549332897 4 0 0 0 0
860 1 0.0006069875175254663 -0.007674114457930377 0.09901967601310954 4 0 0 0 0
861 1 0.01115192117072271 -0.003473832102334433 0.09851462250719031 4 0 0 0 0
862 1 -0.007465212339541049 -0.007191846992353585 0.09649853287880771 4 0 0 0 0
863 1 -0.006061870764640659 0.00729608705391833 0.0969946837876282 4 0 0 0 0
864 1 0.01058755925774836 -0.003790304815909637 0.0990461311236232 4 0 0 0 0
865 1 -1.260325029363882e-05 0.00225414237822929 0.09859756802573619 4 0 0 0 0
866 1 -5.125007857262396e-05 -0.002641862392832811 0.09699829011162098 4 0 0 0 0
867 1 -0.001872948426862557 0.006640544881366749 0.09765670677442354 4 0 0 0 0
868 1 -0.001857415392150729 0.004336771176555603 0.09844710316594596 4 0 0 0 0
869 1 -0.0007578412776844759 -3.285213407560938e-05 0.09848719261924203 4 0 0 0 0
870 1 -0.006369970922166443 0.008220542250167953 0.09699918965946117 4 0 0 0 0
871 1 -0.001482289093202388 0.006552164474924611 0.0971489450356863 4 0 0 0 0
872 1 0.005098179157757309 0.001499716124850491 0.0965068908895529 4 0 0 0 0
873 1 0.005415884793391222 -0.003971568917349077 0.09895064714818444 4 0 0 0 0
874 1 -0.00757124760459051 0.006684749903835405 0.09901437030728902 4 0 0 0 0
875 1 -0.002938872879534378 -0.004078013630846582 0.09951103660153955 4 0 0 0 0
876 1 -0.002017451932234493 -0.005693935450419591 0.09900007753757044 4 0 0 0 0
877 1 -0.00560428515696336 0.001607548410436211 0.09901107902812417 4 0 0 0 0
878 1 0.006927336553144549 -0.007378636629320023 0.09902869373137474 4 0 0 0 0
879 1 0.005567971572151514 -0.000867205091882975 0.09649627099667514 4 0 0 0 0
880 1 -0.008188883105038148 -0.008578831295464485 0.09649266215156467 4 0 0 0 0
881 1 -0.001020032574479104 -0.006708677304067698 0.0964890409360309 4 0 0 0 0
882 1 -0.00491303075825261 -0.001605731343376126 0.0970309579218961 4 0 0 0 0
883 1 0.00910900179207798 -0.006337407760870818 0.09701029157559711 4 0 0 0 0
884 1 -0.004097405040010193 -0.005004926884032961 0.09951103660153955 4 0 0 0 0
885 1 0.00857075930515927 -0.008148530905569181 0.09950595722858653 4 0 0 0 0
886 1 0.001968107415234928 -0.009236784318112515 0.09897273285773192 4 0 0 0 0
887 1 0.01002908629908255 0.005046763446262049 0.09698774950969612 4 0 0 0 0
888 1 -0.00245943957761658 0.001283125533747736 0.09650351627623102 4 0 0 0 0
889 1 -0.009710150142064361 -0.006744280792530397 0.09649268896097274 4 0 0 0 0
890 1 -0.00440986305170157 -0.006548827997002828 0.09651383574029576 4 0 0 0 0
891 1 0.005585188007581436 -0.01041763418838173 0.09650595722858651 4 0 0 0 0
892 1 0.005556752944364193 0.006472273667727546 0.09702768238170284 4 0 0 0 0
893 1 1.59158162951804e-05 -0.003370378809688437 0.09851890684662423 4 0 0 0 0
894 1 0.008305591821457287 0.007724147303302108 0.09899206816155214 4 0 0 0 0
895 1 0.0001638933343003626 0.009718063614910663 0.09651282788558735 4 0 0 0 0
896 1 -0.002614566832654622 -0.007443506088853739 0.0983568791445982 4 0 0 0 0
897 1 0.002770603637523018 0.002309322371171407 0.09951483683375199 4 0 0 0 0
898 1 -0.001210725754605568 -0.003383637082819309 0.09649943108935899 4 0 0 0 0
899 1 -0.002771133826538021 0.005235442717842209 0.09736309748967592 4 0 0 0 0
900 1 -0.009790724782755588 -0.006729071764356683 0.09949268896097274 4 0 0 0 0
901 1 0.006266440317520436 -0.007478083932899414 0.09651162444922182 4 0 0 0 0
902 1 -0.004225079911041384 -0.007635588574999157 0.09651383574029576 4 0 0 0 0
903 1 0.001946000718634773 -0.006946364934315323 0.09949915320925234 4 0 0 0 0
904 1 0.0008705900860587062 -0.007097055325690854 0.09681010290514269 4 0 0 0 0
905 1 8.650331004044038e-05 -0.005947382217672619 0.0975088108802865 4 0 0 0 0
906 1 -0.005133068199903084 -0.008202110819522596 0.09648589730819168 4 0 0 0 0
907 1 -0.002206776621060583 9.338154848849081e-05 0.09947013309433295 4 0 0 0 0
908 1 -0.006879126713745565 -0.0007516094941946206 0.09749741831590715 4 0 0 0 0
909 1 -0.007918641085282601 0.008027114783977983 0.09649712210158934 4 0 0 0 0
910 1 -0.0004261846736097869 -0.0113134963896584 0.0990217765607237 4 0 0 0 0
911 1 0.002154727298926582 -0.005197870268142993 0.09946115673766723 4 0 0 0 0
912 1 0.01100542958271242 0.003351732861326732 0.09852589966892519 4 0 0 0 0
913 1 0.000979777326487688 0.008371997946098157 0.09632019270909731 4 0 0 0 0
914 1 0.003507802145535282 0.006084470040906999 0.09649605068646269 4 0 0 0 0
915 1 -0.0009239153049428693 -0.01136290907228224 0.09702177656072369 4 0 0 0 0
916 1 -0.006169586517981746 0.001310732385928473 0.09850485789557964 4 0 0 0 0
917 1 -0.0004995686089611097 -0.00544413153382095 0.09700965767103417 4 0 0 0 0
918 1 0.00638211240839763 0.004057726849620667 0.09699800090218388 4 0 0 0 0
919 1 0.0006832849645696089 -0.001984646717434681 0.09701466133603273 4 0 0 0 0
920 1 -0.001128474894481073 0.01025598601702344 0.09653060739991977 4 0 0 0 0
921 1 0.003669357359504547 -0.009624483959212374 0.09651439018578291 4 0 0 0 0
922 1 0.006026864033017857 0.0006095727746077841 0.0995068908895529 4 0 0 0 0
923 1 0.009590841117933775 -0.004308527346400189 0.09652283695180122 4 0 0 0 0
924 1 0.002553799414777624 -0.002226070612304935 0.09900511052494174 4 0 0 0 0
925 1 -0.005221611347017544 0.01029260353695037 0.09903116333306687 4 0 0 0 0
926 1 -0.008536145694150983 -0.008139167293703812 0.09950518505054493 4 0 0 0 0
927 1 -0.008633025484704399 -0.002641995493134038 0.09650029218912133 4 0 0 0 0
928 1 -0.009100225066646489 -0.003624347156202198 0.09650029218912133 4 0 0 0 0
929 1 -0.004695287035024209 -0.007930643059574572 0.09699973304848741 4 0 0 0 0
930 1 0.002840653105805454 -0.002964141343588331 0.09844011127267943 4 0 0 0 0
931 1 -0.004025904595743344 0.009530814052198511 0.09650752025725672 4 0 0 0 0
932 1 -0.005261332780622458 5.243212513601631e-05 0.09652945177651939 4 0 0 0 0
933 1 -0.007237910460494455 -0.001950487684536463 0.09700363944845171 4 0 0 0 0
934 1 -0.003687598429486417 -0.008920980672012885 0.09898792089773883 4 0 0 0 0
935 1 -0.003350121988790221 -0.001593394870775364 0.09952276598118187 4 0 0 0 0
936 1 -0.007177519509192986 -0.00948911946586525 0.09649266215156466 4 0 0 0 0
937 1 0.006650945815221594 0.001950544197907269 0.09949507545594501 4 0 0 0 0
938 1 -0.006031103877712199 0.002041736289499029 0.09948162725160478 4 0 0 0 0
939 1 0.003648690826735166 -0.003180060311063924 0.09894125225041746 4 0 0 0 0
940 1 0.01023931614507507 0.005636381126587657 0.09749505690661278 4 0 0 0 0
941 1 -0.005466600119113058 0.009876207593492437 0.0985332308909387 4 0 0 0 0
942 1 0.003978145681211799 0.004543978639879904 0.09684848377649481 4 0 0 0 0
943 1 -0.006384715811845148 -0.005074127057086358 0.09950823429143373 4 0 0 0 0
944 1 0.009308373410265917 0.0006225693945080396 0.09900878341811906 4 0 0 0 0
945 1 -0.005483080881253896 0.007223347072088286 0.09649756168603889 4 0 0 0 0
946 1 -0.002685201910789135 -0.01091635297184597 0.09889784238793572 4 0 0 0 0
947 1 1.808240563269637e-05 0.003674164359854994 0.09758694345742031 4 0 0 0 0
948 1 0.004357285770042368 0.005255906289464742 0.09697362459553721 4 0 0 0 0
949 1 0.005809345476358098 0.006099674902852034 0.0965029254462389 4 0 0 0 0
950 1 -0.005212384717741604 0.01068419116816764 0.09649291815890398 4 0 0 0 0
951 1 0.002486142837655328 0.004261424900364826 0.09637090986742029 4 0 0 0 0
952 1 -0.006432361488908234 0.004447617254902071 0.09850140913618 4 0 0 0 0
953 1 0.009429739696966076 0.006733248348805495 0.09749111923380871 4 0 0 0 0
954 1 0.005296633227554363 -0.004127866131561524 0.09695064714818444 4 0 0 0 0
955 1 0.002244049885259118 0.01122110469371579 0.09686354628592947 4 0 0 0 0
956 1 0.005103887871626396 -0.008526845497248404 0.09951162444922182 4 0 0 0 0
957 1 0.003866010449458956 -0.0107341016384426 0.09700761248693641 4 0 0 0 0
958 1 -0.0008781477303444722 -0.0006377846761839189 0.09898593540810371 4 0 0 0 0
959 1 -0.00464188060889172 -0.002024004073617495 0.09854413105282032 4 0 0 0 0
960 1 0.00587714789147321 -0.005316004084154238 0.09949989390527293 4 0 0 0 0
961 1 -0.009208313279970029 -0.00246839276252276 0.0970119179019895 4 0 0 0 0
962 1 0.001513180378708092 0.01160114586564254 0.09949132437727186 4 0 0 0 0
963 1 0.009782498302344744 0.006749713109599572 0.09950730739691666 4 0 0 0 0
964 1 0.009272792253915536 -0.001895853796210034 0.09649775379391758 4 0 0 0 0
965 1 -0.006918730894688885 -5.082210378271632e-05 0.09949377886745547 4 0 0 0 0
966 1 -0.009146838871209798 0.003637057028248015 0.09899283340016438 4 0 0 0 0
967 1 -0.0003886852718717144 0.004058310566722385 0.09708240005782971 4 0 0 0 0
968 1 -0.002611067001837103 0.009441285402496578 0.09648852425320729 4 0 0 0 0
969 1 0.003877685374201753 0.004726766886926042 0.0983445344629575 4 0 0 0 0
970 1 0.000466951483771789 -0.002559196883372436 0.09649885902226199 4 0 0 0 0
971 1 -0.01129334470761234 -0.003140955636460385 0.09851730435604829 4 0 0 0 0
972 1 0.002445302579116711 0.01016341094682459 0.09684583240893802 4 0 0 0 0
973 1 0.005680239081603824 -0.002399017287821087 0.09645075324291152 4 0 0 0 0
974 1 0.003459868734359102 -0.007627089215334814 0.09899104083995931 4 0 0 0 0
975 1 0.004078021710431319 0.00395697658739195 0.09684848377649481 4 0 0 0 0
976 1 0.01153968038050125 0.003995517660777639 0.09702312498601895 4 0 0 0 0
977 1 -0.008188701864571194 0.0005275687330577893 0.09949377886745547 4 0 0 0 0
978 1 0.005362041284913768 -0.00662659907360486 0.09952750158723898 4 0 0 0 0
979 1 -0.001027650383515805 -0.009258688466959986 0.09832626167269469 4 0 0 0 0
980 1 -0.009615088325572486 0.001208857965209184 0.09700007501609195 4 0 0 0 0
981 1 -0.006180211071910587 0.007162811978559867 0.09899468378762821 4 0 0 0 0
982 1 -0.002980232769581024 0.001063363953805189 0.09650351627623102 4 0 0 0 0
983 1 -0.005775953838641406 -0.005339823296239395 0.09695030208901707 4 0 0 0 0
984 1 -0.001861000756039444 -0.001580126942783769 0.09696956418369193 4 0 0 0 0
985 1 -0.00573742435788411 0.006759552400683752 0.09949756168603889 4 0 0 0 0
986 1 -0.004735517920866785 -0.001039388394197048 0.09952276598118187 4 0 0 0 0
987 1 -0.001570348019729091 0.002034638994176012 0.09650351627623102 4 0 0 0 0
988 1 -0.007180561125268166 0.009485504741567259 0.09649268370068631 4 0 0 0 0
989 1 0.0001860011979092501 -0.002744384444445214 0.09899829011162098 4 0 0 0 0
990 1 -0.000882793040977371 0.004583146019067849 0.09742343039480428 4 0 0 0 0
991 1 -0.0009123596570701937 -0.0007155820087015537 0.09698593540810371 4 0 0 0 0
992 1 0.005657715308991806 -0.003387497522429978 0.09945075324291153 4 0 0 0 0
993 1 0.00171626663212708 0.01029389687231659 0.09884583240893802 4 0 0 0 0
994 1 -0.00061727546619037 0.002115691480831051 0.0990930246261456 4 0 0 0 0
995 1 -0.006596405238730585 0.001744920264991292 0.09897540611906025 4 0 0 0 0
996 1 0.004431387456919849 -0.00262942836545688 0.09895700474559127 4 0 0 0 0
997 1 2.229304347871189e-05 -0.01174856790112986 0.09851312241298932 4 0 0 0 0
998 1 -0.0009991399454229199 0.01076436094928213 0.09653060739991977 4 0 0 0 0
999 1 -0.00481371582516853 -0.002150259946938754 0.09754413105282032 4 0 0 0 0
1000 1 0.003965353702602441 -0.006067775835594431 0.09952750158723898 4 0 0 0 0
1001 1 0.009152077961787452 -0.007017494141111405 0.09751624880418364 4 0 0 0 0
1002 1 -0.004679257736167979 0.00494069808674945 0.09650253367887553 4 0 0 0 0
1003 1 0.00574388536895445 -0.005283305465476088 0.09649989390527293 4 0 0 0 0
1004 1 0.007840504848255977 0.001416579122457099 0.09650143723160531 4 0 0 0 0
1005 1 0.004205736676834035 0.007021482126428041 0.09749141194319869 4 0 0 0 0
1006 1 0.002934737964027869 -0.009265482703537185 0.09897792943850324 4 0 0 0 0
1007 1 -0.005115892591202378 -0.007315025093768598 0.09844180084607078 4 0 0 0 0
1008 1 -0.001930915059890678 -0.002217781606562768 0.09649943108935899 4 0 0 0 0
1009 1 0.000527958031300315 -0.005332414819304238 0.09652061673500328 4 0 0 0 0
1010 1 -0.006038934690890826 -0.008743473784054349 0.09648589730819168 4 0 0 0 0
1011 1 -0.001385430060696353 0.007439787044932257 0.09948786193525358 4 0 0 0 0
1012 1 0.003273041441582511 0.008717655041412769 0.09845339139652327 4 0 0 0 0
1013 1 -0.00736274828525799 0.00239848136060903 0.09698389954410372 4 0 0 0 0
1014 1 -0.0008706339884306755 0.006762559473282614 0.09948786193525358 4 0 0 0 0
1015 1 0.003073572847067993 0.007119615092954158 0.09647060432127208 4 0 0 0 0
1016 1 -0.005087912313225575 -0.003515181139773294 0.09702140742235793 4 0 0 0 0
1017 1 0.003171482171595084 -0.005948100980017221 0.09646115673766723 4 0 0 0 0
1018 1 0.004490180419657862 -0.004767526625217711 0.09949989390527293 4 0 0 0 0
1019 1 0.003736138506480557 0.003688333153506575 0.09736332061024681 4 0 0 0 0
1020 1 -0.003568885816007986 -0.0001148461015616917 0.09952276598118187 4 0 0 0 0
1021 1 0.00566909780109455 0.003937866700489452 0.09847557481125843 4 0 0 0 0
1022 1 -0.003964872612623383 -0.01124820736609293 0.09651026734336329 4 0 0 0 0
1023 1 5.586440153839079e-05 -0.003323925802195589 0.09751890684662423 4 0 0 0 0
1024 1 -0.0006827863617250648 -0.0001035787725901489 0.09748719261924203 4 0 0 0 0
1025 1 0.002438124973644946 0.005412758389516157 0.09685354979733378 4 0 0 0 0
1026 1 0.0026689970881315 0.007244881380265807 0.09947060432127208 4 0 0 0 0
1027 1 -0.007204212114667923 0.009483174741965947 0.09949268370068631 4 0 0 0 0
1028 1 -0.0005259881960949395 -0.001740466790613164 0.09701523340312976 4 0 0 0 0
1029 1 0.005034022626349489 0.006628125117571035 0.09702080762192661 4 0 0 0 0
1030 1 -0.006708306375974884 -0.00964079986039942 0.09952318204342603 4 0 0 0 0
1031 1 -0.008395016169875348 0.008195412604638434 0.09849499085282055 4 0 0 0 0
1032 1 -0.004575015868481131 0.009479415056700007 0.09700958781512854 4 0 0 0 0
1033 1 0.001324800606246991 -0.009837239881673064 0.09650919360501156 4 0 0 0 0
1034 1 0.001759693869712615 -0.01165298924220995 0.09752383364240835 4 0 0 0 0
1035 1 0.005373816425591846 -0.0110372585021928 0.09699917952974002 4 0 0 0 0
1036 1 0.007680946412639948 0.005802644342055211 0.09850064587842598 4 0 0 0 0
1037 1 0.005464904062762564 -0.002117899737380718 0.09894702423958665 4 0 0 0 0
1038 1 -0.008255327485979718 0.008618388390976856 0.09949268370068631 4 0 0 0 0
1039 1 0.009918581729904931 0.0006333565727403185 0.09950734618651377 4 0 0 0 0
1040 1 0.006955404879287013 -0.004977289435150955 0.09650136538234147 4 0 0 0 0
1041 1 0.001439416806018483 -0.01037282665575974 0.09650919360501156 4 0 0 0 0
1042 1 0.003887941302193105 0.004997030036861558 0.0973445344629575 4 0 0 0 0
1043 1 0.0005856481243810682 -0.003801420844687915 0.09901947575726525 4 0 0 0 0
1044 1 3.604845602925321e-05 -0.005836084341347097 0.0985088108802865 4 0 0 0 0
1045 1 -0.002223613653622554 0.003782852035635116 0.09910607282897138 4 0 0 0 0
1046 1 -0.002229356967249821 0.009854584035725644 0.09701913165312705 4 0 0 0 0
1047 1 0.002097166355748197 0.01197885831398696 0.09901461854909381 4 0 0 0 0
1048 1 0.005092089824443553 -0.01066392358590888 0.09949322230115351 4 0 0 0 0
1049 1 -0.007697893538997552 0.001787485946432411 0.09899605115995441 4 0 0 0 0
1050 1 -0.005034758423370192 -0.003639003874004702 0.09902140742235793 4 0 0 0 0
1051 1 -0.01022668949834041 -0.0006961523400715887 0.09700942843646118 4 0 0 0 0
1052 1 -0.003135682826341911 0.00826954474371891 0.0994885242532073 4 0 0 0 0
1053 1 0.002463178245030705 0.008286542400668014 0.09848544698635112 4 0 0 0 0
1054 1 -0.001582930736828635 -0.01114629380438384 0.09842672093092408 4 0 0 0 0
1055 1 -0.005014972703524244 -0.009356626782073064 0.09648589730819168 4 0 0 0 0
1056 1 -0.0009789552730717823 -0.007199502101032184 0.09714101044667656 4 0 0 0 0
1057 1 -0.0002416139912481819 -0.01091989861761017 0.09649859451729767 4 0 0 0 0
1058 1 -0.004934580634579864 0.008099864385223813 0.09899962924391072 4 0 0 0 0
1059 1 -0.00952265574245871 -0.001194028362849837 0.09850487594419864 4 0 0 0 0
1060 1 0.007929785643378384 -0.001619508842444412 0.09649775379391758 4 0 0 0 0
1061 1 0.003547862855332022 0.01163051887948738 0.09901734546207687 4 0 0 0 0
1062 1 0.002828834120440481 0.005296028679826353 0.09637090986742029 4 0 0 0 0
1063 1 0.002973489075050492 0.008692951112173723 0.09697618461610258 4 0 0 0 0
1064 1 -0.01213839817024377 0.002181480879443023 0.09698432663350076 4 0 0 0 0
1065 1 0.008725073532828328 0.005942984846691448 0.09949473205376351 4 0 0 0 0
1066 1 0.01054542278470791 0.005632823014478412 0.09950730739691667 4 0 0 0 0
1067 1 0.001168486036040111 -0.01140786774058551 0.09700053945727719 4 0 0 0 0
1068 1 0.008496463886281927 -0.008800381936364659 0.09899837140845021 4 0 0 0 0
1069 1 0.01115440120778738 0.003375976253811659 0.09653010753008631 4 0 0 0 0
1070 1 0.002440058466888103 0.009508109744032038 0.09650558029483053 4 0 0 0 0
1071 1 0.0004576196447388251 -0.01040215147755298 0.09900778812230923 4 0 0 0 0
1072 1 -0.0003215591862386607 -0.01185349599876023 0.09751312241298932 4 0 0 0 0
1073 1 -0.009786625248632474 -0.007377802997096018 0.09699787401151766 4 0 0 0 0
1074 1 0.007638890577270784 0.005604765217249538 0.09750064587842598 4 0 0 0 0
1075 1 0.00934673116182318 0.004137990983412301 0.09899750673666974 4 0 0 0 0
1076 1 -0.002449505778033948 0.006107046077290278 0.09684879207571181 4 0 0 0 0
1077 1 -0.007628129589046477 0.006357244364354998 0.09701437030728902 4 0 0 0 0
1078 1 -0.0117214049071119 0.00172877526551707 0.09647627610276849 4 0 0 0 0
1079 1 -0.009685331315491154 0.00125515340553393 0.09900007501609195 4 0 0 0 0
1080 1 0.001837624040437687 -0.0002470177646606787 0.09650032090309382 4 0 0 0 0
1081 1 0.009554195887391658 -0.007183280803702002 0.09950595722858652 4 0 0 0 0
1082 1 0.001963026341987073 0.005755636581263098 0.0964826399299135 4 0 0 0 0
1083 1 -0.007356070694448337 -0.009744396602122249 0.09901584419499071 4 0 0 0 0
1084 1 -0.005815179001927713 0.004451424041418905 0.09650253367887553 4 0 0 0 0
1085 1 -0.002555964685667696 0.003167886077158213 0.09701782169019513 4 0 0 0 0
1086 1 0.006764486144831959 0.004569835409870789 0.0965029254462389 4 0 0 0 0
1087 1 0.00578725383067394 -0.001954797379119801 0.09694702423958665 4 0 0 0 0
1088 1 -0.01131345052038019 1.396280769328784e-05 0.09949780272359302 4 0 0 0 0
1089 1 -0.009796190318546213 -0.007363858348462649 0.09899787401151769 4 0 0 0 0
1090 1 0.00707958311899105 0.005829384188921974 0.09700591382466249 4 0 0 0 0
1091 1 -0.004418118015027109 0.006239040369753968 0.09949756168603889 4 0 0 0 0
1092 1 -0.008539380139702776 0.007969151493616591 0.09700230715213426 4 0 0 0 0
1093 1 -0.001725557420740167 -0.00962563633624269 0.09771270682858499 4 0 0 0 0
1094 1 0.007481696888163386 0.00521269871792961 0.09899765750000239 4 0 0 0 0
1095 1 2.787262528625602e-05 0.004394646020870264 0.09649063264282245 4 0 0 0 0
1096 1 0.009081341642325224 0.002009890428173583 0.09700421191451156 4 0 0 0 0
1097 1 0.001424165867686148 -0.0006898809546440857 0.09701612321686459 4 0 0 0 0
1098 1 0.001890236595240086 0.00856859879805949 0.09901484266507904 4 0 0 0 0
1099 1 0.008553325020872485 -0.0005020818599437175 0.09899919102552288 4 0 0 0 0
1100 1 0.008246148841512028 0.008348253905441617 0.09848401177686797 4 0 0 0 0
1101 1 -0.001351137046990599 0.001473818241540309 0.09900477348736934 4 0 0 0 0
1102 1 -0.001356032199269674 -0.01104463615293179 0.09742672093092408 4 0 0 0 0
1103 1 -0.003170101272067792 0.003100334431522044 0.09758820174502261 4 0 0 0 0
1104 1 -0.007882634238288048 0.008649916723227456 0.09698980580227563 4 0 0 0 0
1105 1 -0.001904386973484727 -0.009560562054785955 0.0967120887217402 4 0 0 0 0
1106 1 -0.009333737434678427 -0.000606443980987012 0.09899325023133047 4 0 0 0 0
1107 1 -0.01105791527788305 -0.00185274668967882 0.09651162571286818 4 0 0 0 0
1108 1 -0.0008574576538317078 -0.009813764679747809 0.09680573886883746 4 0 0 0 0
1109 1 -0.002329425592884365 -0.009602229147519441 0.09640494437020039 4 0 0 0 0
1110 1 0.008238767243374587 0.006264178401197751 0.09899772043218709 4 0 0 0 0
1111 1 -0.001289287210825312 0.002193350393044902 0.0985965409023766 4 0 0 0 0
1112 1 -0.001943719536995545 0.00313222944851268 0.09760958910520239 4 0 0 0 0
1113 1 -0.0007993434271579029 0.003545785914168975 0.09659176741500727 4 0 0 0 0
1114 1 -0.008033495286347557 0.006222454098626891 0.09951724820569971 4 0 0 0 0
1115 1 -0.007398468661302782 0.006689821529794103 0.09649712210158934 4 0 0 0 0
1116 1 0.00295507002634352 -0.0005924335629274727 0.09650032090309382 4 0 0 0 0
1117 1 -0.003183740975155233 -0.006139848208383354 0.09902487234183528 4 0 0 0 0
1118 1 -0.005776046327077255 -0.0108520626090037 0.09703344938678934 4 0 0 0 0
1119 1 -9.167877651033766e-05 0.0003178419008334206 0.09650125721113834 4 0 0 0 0
1120 1 0.003875862774581248 0.01096101275391158 0.0994940512902549 4 0 0 0 0
1121 1 -0.00322774227614358 -0.01130424678748945 0.09740810973129901 4 0 0 0 0
1122 1 0.001758413254549762 0.01165040729810778 0.09735487066320131 4 0 0 0 0
1123 1 -0.008810212183319368 -0.008521035456639493 0.09699784720210959 4 0 0 0 0
1124 1 -0.0001312214744283877 4.58468653103106e-05 0.09901705952490909 4 0 0 0 0
1125 1 -0.001626298475196998 -0.008223759113292718 0.09902254639340437 4 0 0 0 0
1126 1 -0.001555887226376497 0.01004468489162782 0.09653060739991977 4 0 0 0 0
1127 1 0.001926847424778272 -0.002246750641106523 0.09949885902226199 4 0 0 0 0
1128 1 0.005264497326526723 -0.00837916720476275 0.09651162444922182 4 0 0 0 0
1129 1 -0.005348801716652109 -0.002994302824119845 0.09752959936307218 4 0 0 0 0
1130 1 -0.009838290811310307 -0.001100346899486999 0.09651162571286818 4 0 0 0 0
1131 1 -0.005040411430620213 0.009286877965845836 0.09650206755787183 4 0 0 0 0
1132 1 0.00407803530729044 0.00762300005124544 0.09647060432127208 4 0 0 0 0
1133 1 -4.030397118970911e-05 -0.006521762793601664 0.09898819414528322 4 0 0 0 0
1134 1 -0.002826628919083566 -0.0083945421210961 0.09650202358954717 4 0 0 0 0
1135 1 -0.00849056331788106 -0.008775518543416499 0.09899784720210959 4 0 0 0 0
1136 1 -0.007516899047694699 -0.005672884210003981 0.09949853287880771 4 0 0 0 0
1137 1 -0.001555497045211437 -0.009315141452400592 0.09830776245838463 4 0 0 0 0
1138 1 -0.005886216983107872 0.004078205970410588 0.09898416093048029 4 0 0 0 0
1139 1 -0.01126482808887966 0.003932231929912026 0.09651076143618714 4 0 0 0 0
1140 1 -0.007545753375500067 0.004608327310723967 0.09651724820569971 4 0 0 0 0
1141 1 -0.003083115554578099 -0.01135469643052352 0.09949289801773535 4 0 0 0 0
1142 1 -3.653765978440391e-05 0.008948667876499259 0.09951282788558735 4 0 0 0 0
1143 1 0.008484906210010752 -0.008739959401632193 0.0969983714084502 4 0 0 0 0
1144 1 -0.00147445886408198 -0.009789514604398458 0.09630714435153982 4 0 0 0 0
1145 1 0.007129023039298747 0.0029938301963572 0.096495075455945 4 0 0 0 0
1146 1 0.005237740555814979 0.006079350844348764 0.0985237330681655 4 0 0 0 0
1147 1 0.004521465625311624 0.007358110250010617 0.09699536125673602 4 0 0 0 0
1148 1 0.007239213143623071 -0.005066412083041202 0.09950136538234147 4 0 0 0 0
1149 1 0.002512455441407755 -0.01076390863705866 0.09854687797592564 4 0 0 0 0
1150 1 0.007371401376220583 -0.005440918821939297 0.0970184346644944 4 0 0 0 0
1151 1 0.0007557335059951379 -0.003175426479444692 0.09949885902226199 4 0 0 0 0
1152 1 -0.01156502890664718 -0.001462234711894799 0.09701796651093601 4 0 0 0 0
1153 1 0.00347072975659342 -0.002143637321315976 0.09650625150267977 4 0 0 0 0
1154 1 -0.003112084108149372 0.00966919127744191 0.09699604451046399 4 0 0 0 0
1155 1 0.005502516219672137 0.0003096317034239248 0.0965068908895529 4 0 0 0 0
1156 1 0.007557936946908853 -0.005558453380979937 0.09901843466449441 4 0 0 0 0
1157 1 -0.001882900026084669 0.00335584358633243 0.09959176741500728 4 0 0 0 0
1158 1 0.0004422832639502803 -0.00212338127101461 0.09851409242539172 4 0 0 0 0
1159 1 -0.003906715516171598 -0.008208987769245023 0.09850175663803458 4 0 0 0 0
1160 1 -0.007148104650392079 0.006243657101668821 0.09701437030728902 4 0 0 0 0
1161 1 0.001114209486114292 -0.01073697829068095 0.09650919360501156 4 0 0 0 0
1162 1 0.003822736270651597 0.008219236636426827 0.09894781110169278 4 0 0 0 0
1163 1 -0.01005859047642633 0.005067209279740021 0.09649056110766541 4 0 0 0 0
1164 1 0.003453897650846578 0.009336270282031668 0.0969827870752512 4 0 0 0 0
1165 1 0.0006504111023548752 -0.005755777507954966 0.09901976994425561 4 0 0 0 0
1166 1 0.004515525863375933 0.007819349804033546 0.09699536125673602 4 0 0 0 0
1167 1 0.00355635420078043 -0.003874813328549371 0.0994350007477377 4 0 0 0 0
1168 1 0.008646852009739411 0.008217891065445916 0.09948907978312854 4 0 0 0 0
1169 1 -0.002764542789718776 0.007053247296996562 0.09950776173873725 4 0 0 0 0
1170 1 -0.0003286397718494152 0.0118565648413131 0.09952272150861405 4 0 0 0 0
1171 1 0.0005459311261617083 0.009075246034188677 0.09632019270909731 4 0 0 0 0
1172 1 -0.0002515279270883841 -0.0005590856767979989 0.09951580231377077 4 0 0 0 0
1173 1 0.006987265311107333 0.01001615639460443 0.09701569899365411 4 0 0 0 0
1174 1 -0.001755470552257389 0.0002416743415867291 0.09647013309433294 4 0 0 0 0
1175 1 0.007265083786884735 0.009368162587153495 0.09949194361531585 4 0 0 0 0
1176 1 -0.004349293642384816 -0.0001063400947673867 0.09705221775770126 4 0 0 0 0
1177 1 -6.938477792462774e-05 -0.007275366986510406 0.09850871694914043 4 0 0 0 0
1178 1 0.01172659408736186 -0.0002647116648131628 0.09900734618651377 4 0 0 0 0
1179 1 0.005950491336658325 0.006580516589229857 0.09702768238170284 4 0 0 0 0
1180 1 0.006188830362481433 0.004068064753409609 0.09899800090218389 4 0 0 0 0
1181 1 0.008506771150749153 -0.008023233484788903 0.09650595722858653 4 0 0 0 0
1182 1 -0.004977707083169948 0.01083388669760998 0.09852408149197088 4 0 0 0 0
1183 1 0.009500587761513146 -0.0005841206553459808 0.09700509998043133 4 0 0 0 0
1184 1 -0.005714531573508644 -0.007058427984757618 0.09644206779758337 4 0 0 0 0
1185 1 0.004398155832133051 -0.003461484892553013 0.09688575399064919 4 0 0 0 0
1186 1 -0.001492815185149211 -0.008806041745209598 0.09832969074494417 4 0 0 0 0
1187 1 -0.006905000739864033 -0.002582967391507223 0.09650819194071425 4 0 0 0 0
1188 1 0.009223833494316063 -0.002450883044788805 0.09702059074571878 4 0 0 0 0
1189 1 0.001455576355030786 -0.009567421020552563 0.09950919360501156 4 0 0 0 0
1190 1 -0.01131099952619195 -0.003393132138463866 0.09648192327386057 4 0 0 0 0
1191 1 -0.003267079264728515 0.002502008827542809 0.09707389633105851 4 0 0 0 0
1192 1 0.004299141408280288 0.008354208057872764 0.0974725680371567 4 0 0 0 0
1193 1 -0.0006661765327295865 0.004125783340048417 0.09908240005782971 4 0 0 0 0
1194 1 0.003548121789446465 -0.01125375690150039 0.09753090667206758 4 0 0 0 0
1195 1 -0.008349210953664024 -0.002183260020321315 0.09699573969685878 4 0 0 0 0
1196 1 0.0002793708007806909 0.007769618263619741 0.09632019270909731 4 0 0 0 0
1197 1 0.01167013943338151 0.0005060758072043091 0.09868773259614705 4 0 0 0 0
1198 1 0.009806875825049978 0.007381351263270981 0.09899638718004522 4 0 0 0 0
1199 1 -0.01131196106850747 -0.003965000527740809 0.09952375536931952 4 0 0 0 0
1200 1 -0.004563532989676095 0.006530099150665271 0.09649756168603889 4 0 0 0 0
1201 1 -0.005774814335629832 0.003891744763201838 0.09698416093048029 4 0 0 0 0
1202 1 -0.005720569692307121 -0.003668717598488924 0.09650823429143372 4 0 0 0 0
1203 1 -0.0001451145638595026 -0.001298888027476713 0.09651580231377077 4 0 0 0 0
1204 1 0.006502298845121842 0.006506769082916083 0.09753067076012642 4 0 0 0 0
1205 1 0.00154133524985348 -0.0005981087599726965 0.09901612321686459 4 0 0 0 0
1206 1 -0.007923691110432304 -0.003450544520901785 0.09650029218912133 4 0 0 0 0
1207 1 -0.002569989339680617 -0.007949648485416887 0.09684304340430247 4 0 0 0 0
1208 1 0.004831082662010477 0.008245342982605475 0.09700196371588463 4 0 0 0 0
1209 1 -0.01103390916128379 -0.0009438205669915359 0.09751576923452902 4 0 0 0 0
1210 1 0.006291503878034726 -0.007687181770988944 0.09951162444922182 4 0 0 0 0
1211 1 -0.008414399045909108 0.005285476297991178 0.09700780931336511 4 0 0 0 0
1212 1 0.007096357732989641 0.009280850116210968 0.09649194361531585 4 0 0 0 0
1213 1 -0.005784248698368077 0.01084583865418982 0.09701656123471417 4 0 0 0 0
1214 1 0.001147925565747104 0.003646520305578694 0.0995045433995906 4 0 0 0 0
1215 1 0.006458615587955353 -0.009697000228644719 0.09701758167780833 4 0 0 0 0
1216 1 0.001621084596267144 0.009896109933106467 0.09950558029483053 4 0 0 0 0
1217 1 0.003626006549269685 0.004005072056059013 0.0983633206102468 4 0 0 0 0
1218 1 0.008620731080244727 0.008476378027972601 0.09748401177686797 4 0 0 0 0
1219 1 -0.007604094500263834 -0.002243848271296053 0.09850393163757303 4 0 0 0 0
1220 1 -0.0003290408274553535 -0.0007495887358511323 0.09651580231377077 4 0 0 0 0
1221 1 0.009088252259663789 0.001365317304128515 0.09650143723160531 4 0 0 0 0
1222 1 0.005285959704982739 0.00840479121533733 0.09700196371588463 4 0 0 0 0
1223 1 0.0002067863332642844 -0.008094009877755326 0.09631094969589038 4 0 0 0 0
1224 1 -0.009795697515526345 0.0006441597330742355 0.09649780272359301 4 0 0 0 0
1225 1 -0.009160494422380469 -0.004147310411926498 0.09701291486954915 4 0 0 0 0
1226 1 0.006563585260063654 -0.009008180308066402 0.09651162444922182 4 0 0 0 0
1227 1 -0.0007218088093832823 -0.006342865687547567 0.0964890409360309 4 0 0 0 0
1228 1 -0.005083997760216899 -0.006129116415212727 0.09944206779758337 4 0 0 0 0
1229 1 -0.01118175909380823 -0.001892679172757876 0.09951162571286819 4 0 0 0 0
1230 1 0.007210913641592705 -0.009169256164439848 0.09900403862908549 4 0 0 0 0
1231 1 0.000506188800161137 0.01008183980121681 0.09685307999969486 4 0 0 0 0
1232 1 -0.005720596088208676 0.007750571481945969 0.09849675134550002 4 0 0 0 0
1233 1 -0.01156724639132242 0.003977619040774952 0.09901881196691943 4 0 0 0 0
1234 1 -0.004706536715504064 -0.006587914509875987 0.0989559035378791 4 0 0 0 0
1235 1 0.004652017841455735 0.001161795724978331 0.0995068908895529 4 0 0 0 0
1236 1 0.004419597565415359 -0.007341405199401697 0.09652750158723898 4 0 0 0 0
1237 1 -0.0116358018245714 -0.001466884357826928 0.09901796651093601 4 0 0 0 0
1238 1 -0.005361176728050472 -0.004166779563652323 0.09950823429143373 4 0 0 0 0
1239 1 0.01065267963906497 0.005187671330154598 0.09649301745593261 4 0 0 0 0
1240 1 0.001280970638821785 -0.01171060854374148 0.09900053945727719 4 0 0 0 0
1241 1 0.003199337234843366 0.003072998606547707 0.09651483683375199 4 0 0 0 0
1242 1 -0.007043201818280173 -0.01007663675887284 0.09701584419499071 4 0 0 0 0
1243 1 0.001961946895429995 -0.008540041569082281 0.09646353925272036 4 0 0 0 0
1244 1 -0.005141138088616735 -0.002608856879646959 0.09902136507163847 4 0 0 0 0
1245 1 0.002910701601302441 -0.008286247200936486 0.09646353925272036 4 0 0 0 0
1246 1 -0.01110468207920801 -0.0009484702129236651 0.09851576923452902 4 0 0 0 0
1247 1 0.006534164838627103 -0.009101936333237923 0.09951162444922182 4 0 0 0 0
1248 1 0.00886808856836965 -0.0007706545515702059 0.09649775379391758 4 0 0 0 0
1249 1 -0.0006523412888019267 0.005204863226906681 0.09683166297979703 4 0 0 0 0
1250 1 -0.004699605975695733 0.0002851069860851685 0.09652945177651939 4 0 0 0 0
1251 1 0.008585446112052492 -0.0002480610751010813 0.09699919102552287 4 0 0 0 0
1252 1 0.004703288214504879 -0.003849254897360029 0.09838564789592213 4 0 0 0 0
1253 1 -0.001249784516441161 -0.01187530851495505 0.09652318204342603 4 0 0 0 0
1254 1 0.000235339587635202 2.393987205505767e-05 0.09701705952490909 4 0 0 0 0
1255 1 -0.0001395214916847225 -0.001789465140729623 0.09901523340312975 4 0 0 0 0
1256 1 0.00381330710761938 0.006846040595436604 0.09896665500773477 4 0 0 0 0
1257 1 -0.006980720827499474 0.004881289829144179 0.09651724820569971 4 0 0 0 0
1258 1 0.004654618726813426 0.00349702192799563 0.09647757390907455 4 0 0 0 0
1259 1 0.005837547359966535 0.004200203689115006 0.09747557481125843 4 0 0 0 0
1260 1 0.00800940336316289 0.001554478309585186 0.09950143723160532 4 0 0 0 0
1261 1 -0.008853490149153324 0.008573767095119988 0.09899786875123123 4 0 0 0 0
1262 1 -0.0004833920233501502 0.004701494651875033 0.09949063264282246 4 0 0 0 0
1263 1 -0.004272810965247687 0.001697858290382345 0.09909983183134689 4 0 0 0 0
1264 1 -0.005567325892233743 -0.003177624075128839 0.09852959936307218 4 0 0 0 0
1265 1 -0.01215015841021348 0.001683573816704951 0.09898432663350076 4 0 0 0 0
1266 1 -0.0009846766379373244 0.005456558139254384 0.09634103033697458 4 0 0 0 0
1267 1 -0.001874970307345595 0.009882286332291901 0.09901913165312705 4 0 0 0 0
1268 1 -0.00301699695420359 -0.007692289041828349 0.0973568791445982 4 0 0 0 0
1269 1 -0.005665063953621573 0.01055027952914191 0.09952364307581016 4 0 0 0 0
1270 1 -0.005272883578815451 0.006625190591829517 0.09649756168603889 4 0 0 0 0
1271 1 0.005121172266430015 -0.00271116147633916 0.09945075324291153 4 0 0 0 0
1272 1 -0.006319422260283121 0.008135417067714069 0.09899918965946117 4 0 0 0 0
1273 1 -0.004928175967189617 -0.006534289673400731 0.0969559035378791 4 0 0 0 0
1274 1 -0.007045944181881374 0.0100726764195818 0.09701632677649646 4 0 0 0 0
1275 1 -0.003061946106196427 -0.004878640530756043 0.09651103660153955 4 0 0 0 0
1276 1 0.004120506860911471 -0.002946333586354331 0.09739200549332896 4 0 0 0 0
1277 1 -0.004539763786169979 0.007656239470265733 0.09949756168603889 4 0 0 0 0
1278 1 -0.002730374073562089 0.01008248991067098 0.09752665191038375 4 0 0 0 0
1279 1 0.003824744363059717 -0.002626038284962154 0.09950625150267978 4 0 0 0 0
1280 1 0.005699850333815292 -0.01081681683106847 0.09899917952974002 4 0 0 0 0
1281 1 0.008249137871972876 3.795316564210422e-05 0.09950143723160532 4 0 0 0 0
1282 1 0.0112708389284371 -4.020182341016575e-05 0.09950734618651377 4 0 0 0 0
1283 1 0.004737677930564224 0.006912617051160752 0.09702080762192661 4 0 0 0 0
1284 1 0.001138251838796534 -0.001108823376764268 0.09951580231377077 4 0 0 0 0
1285 1 0.01086290948505749 0.005777289010480206 0.09700032485284928 4 0 0 0 0
1286 1 -0.002160872257212273 -0.009372928073293044 0.0967120887217402 4 0 0 0 0
1287 1 -0.008531419336599342 -0.006174671283796247 0.09949853287880771 4 0 0 0 0
1288 1 -0.01170534972936828 0.0004733566014108335 0.09897407882636149 4 0 0 0 0
1289 1 -0.01026816889805519 0.0008931250051164965 0.09949780272359302 4 0 0 0 0
1290 1 -0.006526771670455228 -0.005881254540831276 0.09644206779758337 4 0 0 0 0
1291 1 0.007974108320220405 0.008386537734166141 0.09699493199373943 4 0 0 0 0
1292 1 0.01012518436881423 -0.007079755186007846 0.09899917952203069 4 0 0 0 0
1293 1 -0.008924498748929656 -0.002009657289710036 0.09750736540972695 4 0 0 0 0
1294 1 -0.007047018780034562 0.01008368841448501 0.09901632677649647 4 0 0 0 0
1295 1 0.004842529386961555 0.008669681016572152 0.0964772067804207 4 0 0 0 0
1296 1 0.004596532070263996 0.006431775364782929 0.09649605068646269 4 0 0 0 0
1297 1 0.004343746401979392 0.004929348439733021 0.09897362459553721 4 0 0 0 0
1298 1 -0.0002553744586053481 -0.01186498535094164 0.09952318204342603 4 0 0 0 0
1299 1 -0.0008095448787220553 0.01030383795959279 0.09904343528550712 4 0 0 0 0
1300 1 -0.01065403764775164 0.004853812981470016 0.09700132254385255 4 0 0 0 0
1301 1 0.007199355965321529 -0.009108833629707384 0.09700403862908549 4 0 0 0 0
1302 1 -0.005981459095733656 -0.003147839282835475 0.09701642623214796 4 0 0 0 0
1303 1 -0.0008999228909504062 0.001064806804131476 0.09650125721113834 4 0 0 0 0
1304 1 -0.005175119969128969 0.00360339035933923 0.09855454098530779 4 0 0 0 0
1305 1 -0.01151565559818606 0.00202785280052728 0.09950805053073228 4 0 0 0 0
1306 1 0.009514482512051304 -0.0009360190973163165 0.09900509998043133 4 0 0 0 0
1307 1 0.008666314514930896 0.007769874734615695 0.09699206816155213 4 0 0 0 0
1308 1 -0.008503373292708224 0.008591953432866064 0.09749499085282055 4 0 0 0 0
1309 1 -0.002508949947745454 0.003817892350657236 0.09651430541396411 4 0 0 0 0
1310 1 -0.0009483171281859196 -0.001382401301174048 0.09748536649746269 4 0 0 0 0
1311 1 -0.001199076027558979 -0.01129517310052863 0.0990217765607237 4 0 0 0 0
1312 1 0.01135349909421394 -0.003461430774636108 0.09646849138356711 4 0 0 0 0
1313 1 0.00199087175069612 0.009324482884316122 0.09650558029483053 4 0 0 0 0
1314 1 -0.01171844179071339 -0.0004363752509441749 0.09900414352166084 4 0 0 0 0
1315 1 -0.008734481199318946 -0.005076344641571971 0.09651262268042783 4 0 0 0 0
1316 1 -0.004199597767689911 -0.009337553188556145 0.09948589730819168 4 0 0 0 0
1317 1 0.009730387467298115 -0.006605123881808536 0.09649322229344418 4 0 0 0 0
1318 1 0.004505391161536322 0.008073268065799532 0.0984725680371567 4 0 0 0 0
1319 1 0.005032393367966312 0.005269092445894233 0.09747655004177611 4 0 0 0 0
1320 1 -0.0008145396623804605 -0.007271298744637149 0.0990095637398881 4 0 0 0 0
1321 1 0.01108873951368374 0.005417452183578956 0.09900032485284928 4 0 0 0 0
1322 1 -0.005363357738863913 -0.01043960165439854 0.09851934669498102 4 0 0 0 0
1323 1 -0.01144278365906664 -0.002387533007756415 0.09699354898672875 4 0 0 0 0
1324 1 -0.01061634099310344 0.004864504479596637 0.09900132254385255 4 0 0 0 0
1325 1 0.001166981622839853 0.01140504727885449 0.09683157649137936 4 0 0 0 0
1326 1 -0.002468742407635981 0.008814556842969766 0.09648852425320729 4 0 0 0 0
1327 1 0.011300522619009 -2.308778624891354e-06 0.09700734618651377 4 0 0 0 0
1328 1 -0.001319715941187908 -0.005825206917226885 0.09948904093603091 4 0 0 0 0
1329 1 -0.01020545924814545 0.005685630826980793 0.09698264412803603 4 0 0 0 0
1330 1 0.002681829438367336 -0.005862203911284953 0.09946115673766723 4 0 0 0 0
1331 1 0.007094386293213227 -0.009797653550285701 0.097509995857672 4 0 0 0 0
1332 1 0.005329757963287819 0.004590223768559655 0.09898049935531344 4 0 0 0 0
1333 1 0.001605047996426774 -0.01110822084420983 0.09950919360501156 4 0 0 0 0
1334 1 0.01168457678587502 0.0002036377950649995 0.09900734618651377 4 0 0 0 0
1335 1 0.009773463637007587 -0.007285210262049122 0.0969991795220307 4 0 0 0 0
1336 1 -0.002028138699691918 0.009302411585800094 0.0994885242532073 4 0 0 0 0
1337 1 -0.01116466681963514 0.003355791597103869 0.09950805053073228 4 0 0 0 0
1338 1 -0.003034078270639804 -0.007665150331694999 0.09901585932984291 4 0 0 0 0
1339 1 -0.0003958035577257528 -0.002410468314160228 0.09949943108935899 4 0 0 0 0
1340 1 0.01011185142994979 -0.0008275820696780618 0.09950734618651377 4 0 0 0 0
1341 1 -0.009931877191208381 0.005053859735387634 0.09949056110766541 4 0 0 0 0
1342 1 -0.00716940466054553 0.001910531540859348 0.09747767841155919 4 0 0 0 0
1343 1 -0.008974304961002448 0.003434076303813722 0.09699283340016437 4 0 0 0 0
1344 1 -0.007216316058945679 -0.0002213951546744937 0.09698922637519292 4 0 0 0 0
1345 1 -0.01158618829819663 -0.003969771151819694 0.09700567864318009 4 0 0 0 0
1346 1 0.0116670527687104 0.0005799915901457647 0.09739506997701777 4 0 0 0 0
1347 1 0.001042200422536954 -0.001179381018702642 0.09651580231377077 4 0 0 0 0
1348 1 0.009217945305195988 -6.15271788768563e-05 0.09750653721203664 4 0 0 0 0
1349 1 0.002728823637559668 -0.00551882736594295 0.09646115673766723 4 0 0 0 0
1350 1 -0.0006791253023556572 0.001396159329326458 0.09950125721113834 4 0 0 0 0
1351 1 0.006821037969671996 0.00747850929632481 0.09902774531388753 4 0 0 0 0
1352 1 -0.00678175985181805 -0.001383690153357169 0.09700363944845171 4 0 0 0 0
1353 1 -0.003767077863713822 0.01077859814701103 0.09650752025725672 4 0 0 0 0
1354 1 -0.009349118571962078 0.00306842099688217 0.09950227229249897 4 0 0 0 0
1355 1 0.004884262940327796 -0.003250564703066445 0.09645075324291152 4 0 0 0 0
1356 1 0.006417637490247625 -0.009730333719083776 0.09901758167780833 4 0 0 0 0
1357 1 -0.005894687973195468 0.0004696196049334478 0.09702323064397486 4 0 0 0 0
1358 1 0.005068965023235418 0.00461165550984325 0.09647757390907455 4 0 0 0 0
1359 1 0.005854773122881162 0.006303430624630645 0.09902768238170284 4 0 0 0 0
1360 1 0.0007851317195320637 0.007778424644405515 0.09950926237024854 4 0 0 0 0
1361 1 -0.009362608751913597 0.001894164842647762 0.09650227229249897 4 0 0 0 0
1362 1 0.005033804171686706 0.01008615929571931 0.0964772067804207 4 0 0 0 0
1363 1 0.0001116127564294068 0.002944478880418763 0.09909631081459785 4 0 0 0 0
1364 1 0.0056381087291824 0.00356567257905495 0.09697264936501954 4 0 0 0 0
1365 1 -0.01194989728783077 -0.001997021029972394 0.0974998897847966 4 0 0 0 0
1366 1 -0.008535601592952901 0.004779829375023897 0.09900780931336511 4 0 0 0 0
1367 1 0.01222980748858173 0.0005269478535423035 0.09918038640963328 4 0 0 0 0
1368 1 -0.009290030149995729 -0.002700321488039537 0.0990119179019895 4 0 0 0 0
1369 1 0.00812187871665538 0.004873087068713186 0.09949473205376351 4 0 0 0 0
1370 1 -0.003625655919932544 -0.011742590246167 0.09700316536109864 4 0 0 0 0
1371 1 0.01072325947341585 -0.005194836385032686 0.09952329417182199 4 0 0 0 0
1372 1 -0.0005988377473384967 -0.009377842631620127 0.09901911732115487 4 0 0 0 0
1373 1 -0.01164766887278918 -0.0004317256050120458 0.09700414352166084 4 0 0 0 0
1374 1 -0.002854448075781025 0.01097355644089869 0.09754836480049957 4 0 0 0 0
1375 1 -0.004014917553118435 -0.00703314291489405 0.09651383574029576 4 0 0 0 0
1376 1 0.007045320780477985 -0.00358883988106035 0.09950136538234147 4 0 0 0 0
1377 1 -0.01179016888775118 0.003632036837574158 0.09701881196691944 4 0 0 0 0
1378 1 -0.009042525843647524 -0.002038231653782023 0.09850736540972695 4 0 0 0 0
1379 1 -0.001747318009435159 -0.01025182062914368 0.09890353888749803 4 0 0 0 0
1380 1 -0.001681901410767966 -0.01155703559560459 0.09692812641362641 4 0 0 0 0
1381 1 0.004681309342315809 -0.003977140200422082 0.09738564789592213 4 0 0 0 0
1382 1 -9.946753211022482e-05 -0.0001375854997397276 0.09701705952490909 4 0 0 0 0
1383 1 -0.007016434024689653 -0.001732661016853564 0.09900363944845171 4 0 0 0 0
1384 1 -0.002299965897543655 0.006517197762433329 0.09716884483916996 4 0 0 0 0
1385 1 -0.0102737757342282 -0.001111836191090606 0.0990094284364612 4 0 0 0 0
1386 1 0.005241098561689481 -0.004805748243761556 0.09649989390527293 4 0 0 0 0
1387 1 -0.0085745232632858 -0.005650494016529978 0.09701115555923552 4 0 0 0 0
1388 1 0.000424128559294729 -0.008371483012634139 0.09952052280385722 4 0 0 0 0
1389 1 0.0003702487506527498 0.004827798372254099 0.09949063264282246 4 0 0 0 0
1390 1 0.004835014672033075 0.006628442141827626 0.09902080762192661 4 0 0 0 0
1391 1 -0.001426281580064313 0.01134560645811487 0.09653060739991977 4 0 0 0 0
1392 1 -0.0008751397837828203 -0.01023838954144564 0.09649859451729767 4 0 0 0 0
1393 1 0.001992895290788684 -0.0001071668927212696 0.09950032090309383 4 0 0 0 0
1394 1 0.006172169424310899 0.002245240724877822 0.096495075455945 4 0 0 0 0
1395 1 0.0116928400169504 -0.001644850184476843 0.09630697419237874 4 0 0 0 0
1396 1 0.005034142237728087 -0.002601282965681261 0.09645075324291152 4 0 0 0 0
1397 1 -0.002147490928211081 -0.01161144839428576 0.09842102443136175 4 0 0 0 0
1398 1 0.007094386293213227 -0.009797653550285701 0.09850999585767201 4 0 0 0 0
1399 1 0.002525643385534792 -0.008787151130421958 0.09946353925272036 4 0 0 0 0
1400 1 -0.003421135784537025 0.01132040252800211 0.09701775740057982 4 0 0 0 0
1401 1 0.005706812452809977 0.01016046745443363 0.09900096215875896 4 0 0 0 0
1402 1 0.0005740586751359129 -0.006441455960209532 0.09949915320925234 4 0 0 0 0
1403 1 0.0003291244736441015 0.007411381005331782 0.0976479069249396 4 0 0 0 0
1404 1 -0.004183278365211132 -0.001517458742097596 0.09652276598118187 4 0 0 0 0
1405 1 -0.008192599583229794 0.004857490930293648 0.09700780931336511 4 0 0 0 0
1406 1 0.003461261640564692 -0.01063558289684932 0.09951439018578291 4 0 0 0 0
1407 1 -0.004346135069321293 0.001974162170256674 0.09709983183134689 4 0 0 0 0
1408 1 0.01167612092999581 -0.004018570135254457 0.09699178555538911 4 0 0 0 0
1409 1 0.005501490962231429 0.004908855456981415 0.09698049935531344 4 0 0 0 0
1410 1 0.007555785442192563 -0.007033980961181545 0.09951706928215294 4 0 0 0 0
1411 1 -0.01011644261757571 0.005661589784501785 0.09898264412803603 4 0 0 0 0
1412 1 -0.007536729694292905 -0.007020973609143746 0.09949853287880771 4 0 0 0 0
1413 1 0.004406046668154376 0.007201781688377738 0.09849141194319869 4 0 0 0 0
1414 1 -0.001141158867667894 -0.009933724568888823 0.09680573886883746 4 0 0 0 0
1415 1 -0.006912536952038964 0.005650379489661999 0.09651724820569971 4 0 0 0 0
1416 1 0.008019691754906574 0.007680034440809235 0.0965029883784236 4 0 0 0 0
1417 1 -0.004083963432127052 -0.002061987345660224 0.09703593911210608 4 0 0 0 0
1418 1 0.01090460353127 -0.005807833743957478 0.09901651646526616 4 0 0 0 0
1419 1 -0.0008390502855007873 -0.001375330607170953 0.09848536649746269 4 0 0 0 0
1420 1 0.007128893990434541 0.006214651820411256 0.09900591382466249 4 0 0 0 0
1421 1 -0.008794705468369848 -0.005667164939228348 0.09901115555923552 4 0 0 0 0
1422 1 -0.002007640902300471 0.001545001892543671 0.09950351627623102 4 0 0 0 0
1423 1 -0.008013195880319542 0.002024586832454957 0.09650227229249897 4 0 0 0 0
1424 1 -0.004808241773500395 0.009385077514731787 0.09900958781512854 4 0 0 0 0
1425 1 0.008592614038671224 -0.006153821701074697 0.09951706928215294 4 0 0 0 0
1426 1 -0.005847804652105167 -0.00837043600025838 0.09948589730819168 4 0 0 0 0
1427 1 0.00410263652222188 -0.01100626290544606 0.09900761248693642 4 0 0 0 0
1428 1 0.0001931032584831507 -0.0123000568624131 0.09901452789569165 4 0 0 0 0
1429 1 0.01170299667146611 -0.0006510881041841364 0.09861962239600996 4 0 0 0 0
1430 1 -0.006233578829583913 0.003509781229209625 0.09948162725160478 4 0 0 0 0
1431 1 0.0003097642993874457 0.005456895488586627 0.09682122255316265 4 0 0 0 0
1432 1 0.003716932881867146 -0.004321885494171624 0.0964350007477377 4 0 0 0 0
1433 1 -0.006931348428419958 -0.006183840344239872 0.09694060067639106 4 0 0 0 0
1434 1 0.004844258807786548 0.01069727078179557 0.09697125807067559 4 0 0 0 0
1435 1 -0.003112490662869945 -0.01016823167017402 0.09640494437020039 4 0 0 0 0
1436 1 0.01199798097748393 -0.002178612639158117 0.09677546557594585 4 0 0 0 0
1437 1 0.006182673777613495 0.003423195739560611 0.096495075455945 4 0 0 0 0
1438 1 0.008587409029794152 0.008841997667585425 0.09898102339844439 4 0 0 0 0
1439 1 0.002041678455711426 0.005935794078360482 0.09948263992991351 4 0 0 0 0
1440 1 1.141683342086166e-05 0.003771384797260391 0.09858694345742031 4 0 0 0 0
1441 1 0.009072103309631829 0.003948254030665928 0.09699750673666974 4 0 0 0 0
1442 1 -0.008628514923682154 0.002950297978003383 0.09650227229249897 4 0 0 0 0
1443 1 0.002362426782070237 -0.008194077404408336 0.09646353925272036 4 0 0 0 0
1444 1 -0.003261991317543301 0.009591558155567259 0.098996044510464 4 0 0 0 0
1445 1 -0.002652942678328419 0.002569560473178978 0.09650351627623102 4 0 0 0 0
1446 1 0.008182851862746332 0.005983902585174682 0.09699772043218709 4 0 0 0 0
1447 1 0.01126444347883157 -0.003907533711172915 0.09952329417182199 4 0 0 0 0
1448 1 -0.001803155482816496 -0.009646402432960159 0.09840556247704518 4 0 0 0 0
1449 1 -0.004563253001404881 0.009801473458189726 0.09950752025725672 4 0 0 0 0
1450 1 0.0001570816288684801 0.01221501612941616 0.0990140458858859 4 0 0 0 0
1451 1 -0.0002380211486800166 0.01034067060055406 0.09951282788558735 4 0 0 0 0
1452 1 -0.005997269599655112 0.008658452154083913 0.09950206755787183 4 0 0 0 0
1453 1 0.0006172350640680508 0.01050470691932031 0.09634025211410752 4 0 0 0 0
1454 1 -0.004391818696637208 0.00101514556346862 0.0995294517765194 4 0 0 0 0
1455 1 -0.005557950572237839 -0.009820895819702455 0.09900907935161771 4 0 0 0 0
1456 1 -0.01149585455706759 -0.002422815844903342 0.09899354898672875 4 0 0 0 0
1457 1 0.005640703296329654 0.01021817031774528 0.09700096215875896 4 0 0 0 0
1458 1 0.0009637576906269469 0.00659658119656212 0.09633058991034021 4 0 0 0 0
1459 1 -0.01025173181969134 -0.005238552759426116 0.09951262268042783 4 0 0 0 0
1460 1 -0.007457423530600665 -0.00130856498984266 0.09949544750773746 4 0 0 0 0
1461 1 0.008278117979513203 -0.004029829159628266 0.09902420233414269 4 0 0 0 0
1462 1 0.007623544404466599 0.006208521556847119 0.0965029883784236 4 0 0 0 0
1463 1 -0.008400702989177885 -0.002124668136862811 0.09899573969685878 4 0 0 0 0
1464 1 -0.01080090641947077 0.005472234528710788 0.09849340556422317 4 0 0 0 0
1465 1 -0.005421159689773978 0.01109156268980151 0.09901656123471417 4 0 0 0 0
1466 1 -0.006265507139532755 0.005197314567249846 0.09901978188457522 4 0 0 0 0
1467 1 0.00303278519676285 0.00822190710647672 0.09647060432127208 4 0 0 0 0
1468 1 -8.874224734065195e-05 -0.005000971231651704 0.09652061673500328 4 0 0 0 0
1469 1 0.005451157932429495 0.01082928180382153 0.09849501344901386 4 0 0 0 0
1470 1 -0.01194989728783077 -0.001997021029972394 0.0984998897847966 4 0 0 0 0
1471 1 -0.01115403905644536 9.85095151738401e-05 0.09649780272359301 4 0 0 0 0
1472 1 -0.001670579218410708 -0.0005827346446231799 0.09947013309433295 4 0 0 0 0
1473 1 0.009224645859736749 -0.000201170822305963 0.09850653721203664 4 0 0 0 0
1474 1 -0.001909306563883486 0.006428817355991191 0.09666108310043273 4 0 0 0 0
1475 1 -0.002058846444373779 0.00601866567084814 0.09634103033697458 4 0 0 0 0
1476 1 0.005637250681152734 -0.001496331527295851 0.09949627099667514 4 0 0 0 0
1477 1 -0.005397910897381142 0.008767204073210216 0.09650206755787183 4 0 0 0 0
1478 1 0.003423964163570524 -0.01022528447072775 0.09651439018578291 4 0 0 0 0
1479 1 -0.004286698276069919 0.01106738698396086 0.09700043841616071 4 0 0 0 0
1480 1 0.003864888892679441 -0.003686646499651767 0.0964350007477377 4 0 0 0 0
1481 1 -0.001363463300165502 -0.01040069992528847 0.09949859451729767 4 0 0 0 0
1482 1 0.003983099456684125 0.01126391347578467 0.0964940512902549 4 0 0 0 0
1483 1 -0.007134018675369117 0.00139922632019218 0.09949377886745547 4 0 0 0 0
1484 1 -0.003754930831410836 -0.002943931661559786 0.09951317313092423 4 0 0 0 0
1485 1 -0.01080090641947077 0.005472234528710788 0.09749340556422317 4 0 0 0 0
1486 1 0.002153334454048856 -0.01140092524998119 0.09903248779014273 4 0 0 0 0
1487 1 0.007053374467587657 0.009958453531292783 0.09901569899365412 4 0 0 0 0
1488 1 0.003512266014446051 0.008836576272020296 0.09745339139652327 4 0 0 0 0
1489 1 0.004071749568807044 0.008703101102585859 0.0994772067804207 4 0 0 0 0
1490 1 -0.008707746859363156 -0.0007342970118967467 0.09949544750773746 4 0 0 0 0
1491 1 -0.001312446125984472 0.01186784496885886 0.09705332890853381 4 0 0 0 0
1492 1 0.005176217571768263 0.003892824597843746 0.09647757390907455 4 0 0 0 0
1493 1 -0.004593421711952677 -0.007832144428925875 0.09899973304848741 4 0 0 0 0
1494 1 -8.416124796267375e-05 -0.0105174112823609 0.09949859451729767 4 0 0 0 0
1495 1 0.0002465257809732377 0.01207611962463754 0.09649132437727186 4 0 0 0 0
1496 1 -0.01211034099970149 2.301854277337077e-05 0.09848041962442933 4 0 0 0 0
1497 1 0.003991338992737781 -0.01125481220921267 0.09649322230115351 4 0 0 0 0
1498 1 -0.005063671874700654 0.002857330474953195 0.09905200730643228 4 0 0 0 0
1499 1 0.0009352850675231221 0.003003348695206266 0.09650454339959059 4 0 0 0 0
1500 1 0.006711166036182898 0.007146105455387023 0.09702774531388753 4 0 0 0 0
1501 1 0.001829257096443866 -0.01200331294951284 0.09852383364240835 4 0 0 0 0
1502 1 -0.001400890885052444 -0.006844776608218733 0.09683006075078621 4 0 0 0 0
1503 1 0.0002478511286242795 -0.01208193439451242 0.09649134585226563 4 0 0 0 0
1504 1 -0.0001429345240853221 0.0007200515657542644 0.09950125721113834 4 0 0 0 0
1505 1 0.001736332277526451 0.009721958202192366 0.09684583240893802 4 0 0 0 0
1506 1 0.003959637469364687 0.005440160445042623 0.09949605068646269 4 0 0 0 0
1507 1 0.008562613294471269 0.002888445793185744 0.09950277468290625 4 0 0 0 0
1508 1 0.009414068296304255 0.004825645722580572 0.09949473205376351 4 0 0 0 0
1509 1 0.006489285351015495 -0.001387989900210274 0.09949627099667514 4 0 0 0 0
1510 1 0.00315116410992855 -0.01116863260439933 0.09903768437091408 4 0 0 0 0
1511 1 -0.006056827826884477 0.00103046150458653 0.09702323064397486 4 0 0 0 0
1512 1 0.006053584584060193 -0.001323983485584841 0.09649627099667514 4 0 0 0 0
1513 1 -0.01211034099970148 2.301854277337077e-05 0.09748041962442933 4 0 0 0 0
1514 1 -0.01007881120728074 -0.005177472390326032 0.09651262268042783 4 0 0 0 0
1515 1 -0.006247906484055262 0.001576235518275344 0.09750485789557964 4 0 0 0 0
1516 1 0.01186019067420922 1.856326771310297e-05 0.0965 4 0 0 0 0
1517 1 0.005117108358519373 0.009871033918421609 0.0994772067804207 4 0 0 0 0
1518 1 0.004690370891511978 -0.006628071997040489 0.09652750158723898 4 0 0 0 0
1519 1 0.007824547913959597 -0.004144977917332732 0.09650136538234147 4 0 0 0 0
1520 1 -0.0003402268815939902 0.0009424818285925409 0.09650125721113834 4 0 0 0 0
1521 1 -0.003940756196893122 0.01160919136495194 0.09751067555948383 4 0 0 0 0
1522 1 -0.01067439800500308 -0.004963816259503088 0.09703637804974734 4 0 0 0 0
1523 1 -0.002799931970786196 0.01093938059486508 0.09854836480049957 4 0 0 0 0
1524 1 0.008340525617289398 -0.005927331774061508 0.09651706928215294 4 0 0 0 0
1525 1 -0.005621499975745518 -0.002148561035297041 0.09950819194071425 4 0 0 0 0
1526 1 -0.005714410706499085 0.002845102341102833 0.09948162725160478 4 0 0 0 0
1527 1 -0.002831633728205049 0.009113172039102611 0.0994885242532073 4 0 0 0 0
1528 1 0.01173651835104814 -0.0005112768264134811 0.09731432037889251 4 0 0 0 0
1529 1 -0.003155905560417898 0.003021264718855149 0.09858820174502261 4 0 0 0 0
1530 1 -0.01161671118335767 0.0005532536629592566 0.09697407882636148 4 0 0 0 0
1531 1 0.005849490524674703 0.004720421821479812 0.0995029254462389 4 0 0 0 0
1532 1 0.000919618712818345 -0.002955126618771906 0.09649885902226199 4 0 0 0 0
1533 1 -0.01008485742644791 -0.0005242518092277815 0.09949780272359302 4 0 0 0 0
1534 1 -0.007950334692986588 0.004769596142078405 0.09951724820569971 4 0 0 0 0
1535 1 -0.0009980281401216842 -0.007920250017422782 0.09952052280385722 4 0 0 0 0
1536 1 0.01182880539180591 -0.003591060997597711 0.09899178555538909 4 0 0 0 0
1537 1 0.00486145383813889 0.01053984826780952 0.0989712580706756 4 0 0 0 0
1538 1 -3.932216093523248e-06 0.005030692624155436 0.09649063264282245 4 0 0 0 0
1539 1 -0.008687380839790581 0.00493672976535986 0.09649056110766541 4 0 0 0 0
1540 1 0.004128425841877167 0.005926109634927373 0.09649605068646269 4 0 0 0 0
1541 1 -0.003725766579986318 0.01082339393203943 0.09950752025725672 4 0 0 0 0
1542 1 -0.00488275613672937 0.004965650785082137 0.09950253367887553 4 0 0 0 0
1543 1 -0.006638120545468533 0.007694274634190956 0.09649712210158934 4 0 0 0 0
1544 1 -0.009741864302684665 -0.002284104394695051 0.09651162571286818 4 0 0 0 0
1545 1 -0.001974976472060579 0.01109388180724728 0.09653060739991977 4 0 0 0 0
1546 1 0.01210229717641055 0.0006679424051720505 0.09807545638665105 4 0 0 0 0
1547 1 -0.0007602671687220661 -0.007475996801095276 0.09766153325053378 4 0 0 0 0
1548 1 0.005156344347218273 0.008403700076078477 0.09900196371588463 4 0 0 0 0
1549 1 -0.005039841295835302 0.003047844708939939 0.09705200730643228 4 0 0 0 0
1550 1 -0.00267585796856726 0.01004831406463737 0.09852665191038375 4 0 0 0 0
1551 1 -0.01175170885835484 -0.003609989631621353 0.09900567864318009 4 0 0 0 0
1552 1 -0.00547356594694857 -0.001501163059808082 0.09650819194071425 4 0 0 0 0
1553 1 0.001912797215191716 0.0121725415931912 0.09701461854909382 4 0 0 0 0
1554 1 0.004165492520534577 -0.007495618949874524 0.09952750158723898 4 0 0 0 0
1555 1 0.003288500611099574 -0.00194984591290817 0.09950625150267978 4 0 0 0 0
1556 1 -0.01077630904663619 -0.005026161008143518 0.09903637804974734 4 0 0 0 0
1557 1 -0.003205552209854289 0.00228468028957289 0.09907389633105852 4 0 0 0 0
1558 1 -0.009876652070711322 -0.002551315957358755 0.09951162571286819 4 0 0 0 0
1559 1 -0.004608570619753185 -0.003070236678522822 0.09951317313092423 4 0 0 0 0
1560 1 -0.003366619679542195 0.01128622668196851 0.09901775740057982 4 0 0 0 0
1561 1 -0.003582100189545105 0.01001845342667854 0.09650752025725672 4 0 0 0 0
1562 1 0.005451157932429495 0.01082928180382153 0.09749501344901385 4 0 0 0 0
1563 1 0.002790932893283621 -0.007936836080245219 0.09946353925272036 4 0 0 0 0
1564 1 -0.004377026836013679 0.003209693410189255 0.0965703800548275 4 0 0 0 0
1565 1 0.004929589818446429 0.0007755515327320314 0.0965068908895529 4 0 0 0 0
1566 1 -0.002127226500846426 -0.01109281717198333 0.09640494437020039 4 0 0 0 0
1567 1 0.001913953007595685 -0.01217401925170307 0.09701464003739679 4 0 0 0 0
1568 1 0.009830397857159542 -0.003584351263327597 0.09652283695180122 4 0 0 0 0
1569 1 0.002398433845901072 0.01174323898879922 0.09652329417182196 4 0 0 0 0
1570 1 0.008927300158115492 -0.002537320563692836 0.09902059074571878 4 0 0 0 0
1571 1 0.005345351406977277 -0.004644231990087353 0.09949989390527293 4 0 0 0 0
1572 1 0.0007893159304779388 -0.007430947377463221 0.09631094969589038 4 0 0 0 0
1573 1 0.002846134994908131 1.890953328574567e-05 0.09950032090309383 4 0 0 0 0
1574 1 -0.008023833430077789 0.002461679657487143 0.09950227229249897 4 0 0 0 0
1575 1 0.000685678222612991 -0.005132167293324071 0.09952061673500329 4 0 0 0 0
1576 1 0.008287630569088201 0.0002873383297689799 0.09650143723160531 4 0 0 0 0
1577 1 0.0006249113301924527 0.005700890910027312 0.09633058991034021 4 0 0 0 0
1578 1 -0.00252581955234827 0.007503155952519602 0.09632005276345816 4 0 0 0 0
1579 1 -0.002353160272214725 0.01153819720018172 0.09704084454324287 4 0 0 0 0
1580 1 0.005452047239099258 0.006852521922109507 0.09952475693546395 4 0 0 0 0
1581 1 0.002401547649590207 -0.01174285619126868 0.09652329418513117 4 0 0 0 0
1582 1 -0.005022741733051934 0.002107928027005617 0.09858145908295166 4 0 0 0 0
1583 1 -0.00257294022744661 0.004796126667923614 0.09685533575093869 4 0 0 0 0
1584 1 -0.001975247169314611 0.01030133517301892 0.09653060739991977 4 0 0 0 0
1585 1 -0.007916491854690635 -0.001802733186031233 0.09649544750773746 4 0 0 0 0
1586 1 -0.0001718576678472598 -0.00434763247927879 0.09652061673500328 4 0 0 0 0
1587 1 0.001621091296708067 0.007913762568801675 0.09950926237024854 4 0 0 0 0
1588 1 -0.008540415362103102 -0.003276800286743748 0.09650029218912133 4 0 0 0 0
1589 1 -0.004822775754380088 -0.009182002834317051 0.09948589730819168 4 0 0 0 0
1590 1 -0.002064032811457304 -0.01197107636252543 0.09742102443136175 4 0 0 0 0
1591 1 0.003792538991585739 -0.01153931261299606 0.09853090667206758 4 0 0 0 0
1592 1 0.006159358527719382 0.007219852961700796 0.09652475693546395 4 0 0 0 0
1593 1 -0.002720107007780654 -0.005556564848228286 0.09951103660153955 4 0 0 0 0
1594 1 0.005029109927894688 0.005212797746098027 0.09847655004177611 4 0 0 0 0
1595 1 0.003487837215732606 0.007401299204537682 0.09947060432127208 4 0 0 0 0
1596 1 -0.0003125000000000032 0.008390670054886364 0.09632019270909731 4 0 0 0 0
1597 1 -0.007118949197018163 -0.0008534758138370421 0.09649544750773746 4 0 0 0 0
1598 1 0.004644394437372523 0.004306774462194648 0.09947757390907455 4 0 0 0 0
1599 1 -0.0004930594594673243 0.002806027983020524 0.09959176741500728 4 0 0 0 0
1600 1 -0.008471703448970422 -0.0006750937551988514 0.09649544750773746 4 0 0 0 0
1601 1 0.0008304848999959024 0.002844096855907303 0.0995045433995906 4 0 0 0 0
1602 1 -0.005847789205416864 -0.006242126083045174 0.09944206779758337 4 0 0 0 0
1603 1 -0.0007446854315879907 -0.01075233477288143 0.09649859451729767 4 0 0 0 0
1604 1 -0.000898662418185435 -0.008999999999999994 0.09630714435153982 4 0 0 0 0
1605 1 -0.003901353444836986 -0.0007786840425599312 0.09652276598118187 4 0 0 0 0
1606 1 0.006509553881196169 0.006694157589599695 0.09853067076012642 4 0 0 0 0
1607 1 -0.002543840503157441 0.0022211209600269 0.09950351627623102 4 0 0 0 0
1608 1 0.006422872650192603 0.003417010248639906 0.09949507545594501 4 0 0 0 0
1609 1 -0.004493424621262242 -0.003275462636380013 0.09651317313092422 4 0 0 0 0
1610 1 -0.001768673769780429 0.006916283208389121 0.09632005276345816 4 0 0 0 0
1611 1 0.003088052407636162 0.003111735495198035 0.09951483683375199 4 0 0 0 0
1612 1 -0.003103502014220516 0.006249745027213943 0.09950776173873725 4 0 0 0 0
1613 1 -0.009128811702441838 0.00160147739189614 0.09950227229249897 4 0 0 0 0
1614 1 -0.002953334200568329 0.004321277239670023 0.09651430541396411 4 0 0 0 0
1615 1 0.009303736648617703 -0.003068442166711344 0.09652283695180122 4 0 0 0 0
1616 1 0.00518622179808386 0.0004850419504883454 0.0995068908895529 4 0 0 0 0
1617 1 0.003672294567787241 0.01177599708737442 0.09701734546207685 4 0 0 0 0
1618 1 0.001609160054977638 -0.003048850030552304 0.09949885902226199 4 0 0 0 0
1619 1 -0.008301672061601555 -0.006171945009731245 0.09649853287880771 4 0 0 0 0
1620 1 0.00389919400823337 0.009531392208405307 0.0964772067804207 4 0 0 0 0
1621 1 0.01222672082391062 0.000600863636483759 0.096887723790504 4 0 0 0 0
1622 1 -0.006029816924704012 -0.004332545804662937 0.09650823429143372 4 0 0 0 0
1623 1 0.009800670265977446 0.00350197949334688 0.09950277468290625 4 0 0 0 0
1624 1 0.00367345033272529 -0.01177446747227046 0.09701651648628468 4 0 0 0 0
1625 1 -0.0006900699964781207 -0.009993571576798725 0.09949859451729767 4 0 0 0 0
1626 1 0.006128155159894802 0.002628651491751175 0.09949507545594501 4 0 0 0 0
1627 1 -0.008114981616297146 -0.003485532759299482 0.09950029218912133 4 0 0 0 0
1628 1 -0.001249421072235552 -0.002536802144607542 0.09949943108935899 4 0 0 0 0
1629 1 0.006388242393160241 0.007991553888184818 0.09952475693546395 4 0 0 0 0
1630 1 0.007111998319981125 -0.004310014817599309 0.09650136538234147 4 0 0 0 0
1631 1 -0.001657202339890727 -0.008629921721864275 0.09630714435153982 4 0 0 0 0
1632 1 -0.007578848454756058 -0.006428325615423877 0.09649853287880771 4 0 0 0 0
1633 1 -0.008648207295526088 -0.002786757971120326 0.09950029218912133 4 0 0 0 0
1634 1 -0.007819852255607085 0.001536637012705275 0.09699605115995441 4 0 0 0 0
1635 1 -0.002894584441010536 0.004232288649328756 0.09951430541396411 4 0 0 0 0
1636 1 -0.01024331810090622 -0.005798031459973592 0.09700531164140057 4 0 0 0 0
1637 1 -0.00937364741937745 -0.004753317188277562 0.09651262268042783 4 0 0 0 0
1638 1 0.006929644465957979 0.005624706196285656 0.0995029254462389 4 0 0 0 0
1639 1 -0.009360156461816226 0.003904845671208533 0.09649056110766541 4 0 0 0 0
1640 1 -0.004997482611957673 -0.008388586977454645 0.09948589730819168 4 0 0 0 0
1641 1 -0.002252381339473132 0.002027495401848034 0.09650351627623102 4 0 0 0 0
1642 1 0.008720066970585215 0.004426126851551369 0.09649473205376351 4 0 0 0 0
1643 1 -0.006734929345365164 0.005584600957455127 0.09951724820569971 4 0 0 0 0
1644 1 0.01192539900006466 0.002208274883070221 0.09691783132059034 4 0 0 0 0
1645 1 -0.004793652568099632 0.001137155544961641 0.09652945177651939 4 0 0 0 0
1646 1 0.00896425162795908 -0.004010362862918394 0.09952283695180122 4 0 0 0 0
1647 1 0.01226266472666634 -0.0006302160578461422 0.09911227620949623 4 0 0 0 0
1648 1 -0.001794131908621063 0.01122349325097045 0.09953060739991977 4 0 0 0 0
1649 1 0.0100530674664048 -0.003096525089232297 0.09952283695180122 4 0 0 0 0
1650 1 -0.005367954074124757 0.00496637525741527 0.09650253367887553 4 0 0 0 0
1651 1 -0.004282131800690502 0.001411118647330208 0.09652945177651939 4 0 0 0 0
1652 1 -0.002298644167219895 0.01150402135414811 0.09904084454324287 4 0 0 0 0
1653 1 0.004242275111498078 0.006272701048886493 0.09949605068646269 4 0 0 0 0
1654 1 -0.0001522186749504447 0.01239938873705413 0.0970140458858859 4 0 0 0 0
1655 1 0.008528591045897097 -0.001995203585791408 0.09949775379391758 4 0 0 0 0
1656 1 0.0002846531141919625 -0.001235180651057673 0.09951580231377077 4 0 0 0 0
1657 1 0.005918212720676552 0.008016789760542984 0.09652475693546395 4 0 0 0 0
1658 1 0.01156077899300106 0.001692757538738239 0.096387723790504 4 0 0 0 0
1659 1 -0.002510171539316428 0.005199246843150505 0.09634103033697458 4 0 0 0 0
1660 1 0.00668114425631506 0.005206266582740354 0.0965029254462389 4 0 0 0 0
1661 1 0.0004485328878880936 -0.001453851904166141 0.09651580231377077 4 0 0 0 0
1662 1 -0.01013839684548956 -0.001738527104190967 0.09651162571286818 4 0 0 0 0
1663 1 0.007440808738362413 -0.006842353971110967 0.09651706928215294 4 0 0 0 0
1664 1 0.01210304850074951 -0.0007017293363845371 0.0979265965883887 4 0 0 0 0
1665 1 -0.002541734844060401 -0.007481718350327214 0.09634101981475532 4 0 0 0 0
1666 1 -0.000150748971234222 -0.01240498496004348 0.09701452789569165 4 0 0 0 0
1667 1 0.002174799607766854 0.009230217199967271 0.09950558029483053 4 0 0 0 0
1668 1 -0.006779037243985032 0.007547657564327967 0.09949712210158934 4 0 0 0 0
1669 1 -0.002509357901535764 -0.01150685793890418 0.09689784238793572 4 0 0 0 0
1670 1 -0.003886323681197103 -0.000917273141179 0.09952276598118187 4 0 0 0 0
1671 1 -0.001778944945988533 -0.006925895966163592 0.09634101981475532 4 0 0 0 0
1672 1 -0.001776121406213956 -0.009985186916483788 0.0967120887217402 4 0 0 0 0
1673 1 -0.005719362633732392 0.004827903282758363 0.09950253367887553 4 0 0 0 0
1674 1 -0.001665729050945135 0.007821377555917738 0.09632005276345816 4 0 0 0 0
1675 1 -0.006866847703933619 0.002746486575385372 0.09648162725160478 4 0 0 0 0
1676 1 0.01012156697125245 -0.0004277679386324786 0.09650734618651377 4 0 0 0 0
1677 1 -0.01031432767168371 -0.005796767080433246 0.09900531164140057 4 0 0 0 0
1678 1 0.001099812058711762 -0.007101211116944317 0.09949915320925234 4 0 0 0 0
1679 1 0.0001264371399151591 0.006459639650238243 0.09633058991034021 4 0 0 0 0
1680 1 -0.004299903097337245 0.01114635861502287 0.0990004384161607 4 0 0 0 0
1681 1 -0.005383762503804869 -0.008791962740226464 0.09648589730819168 4 0 0 0 0
1682 1 0.001977941248019347 0.01061188536468664 0.09634025211410752 4 0 0 0 0
1683 1 -0.007286989234026932 0.00746384386113982 0.09649712210158934 4 0 0 0 0
1684 1 -0.0007423216768927593 -0.002315016956550919 0.09649943108935899 4 0 0 0 0
1685 1 -0.004024561631647298 -0.002666311719448035 0.09651317313092422 4 0 0 0 0
1686 1 -0.006462752626047299 -0.002248348353678589 0.09950819194071425 4 0 0 0 0
1687 1 -0.005244713550271207 0.0008879012564247781 0.0995294517765194 4 0 0 0 0
1688 1 -0.005517519226715364 0.001465322583665571 0.09652945177651939 4 0 0 0 0
1689 1 0.0001493253364229827 -0.004455878572846844 0.09952061673500329 4 0 0 0 0
1690 1 -0.005048734493901207 0.002245973081576921 0.09758145908295167 4 0 0 0 0
1691 1 0.01229618640624836 -0.0004904047800754868 0.09680697419237874 4 0 0 0 0
1692 1 0.005962714122145625 0.005402809790356639 0.0965029254462389 4 0 0 0 0
1693 1 0.001321365583481807 0.01192718157393791 0.09649132437727186 4 0 0 0 0
1694 1 -0.003937979836531752 0.002619361311516877 0.0965703800548275 4 0 0 0 0
1695 1 0.003561766443987989 0.00448101790551035 0.09637090986742029 4 0 0 0 0
1696 1 0.00339191208568892 0.007706986174587175 0.09647060432127208 4 0 0 0 0
1697 1 -0.003850460020808253 0.002263987718975653 0.0995703800548275 4 0 0 0 0
1698 1 -0.01083890489862856 -0.005584375329150648 0.09752906701072007 4 0 0 0 0
1699 1 -0.002441637473983092 -0.008177765481662486 0.09950202358954717 4 0 0 0 0
1700 1 0.001322745173923182 -0.01192889775007863 0.09649134585226563 4 0 0 0 0
1701 1 -0.00333042478962966 -0.00697873023646916 0.09951383574029576 4 0 0 0 0
1702 1 -0.007430001656024938 0.0006285179190691919 0.09949377886745547 4 0 0 0 0
1703 1 -0.002227650286873295 -0.0009629935824577655 0.09647013309433294 4 0 0 0 0
1704 1 0.00644131500719448 0.002856245463346281 0.096495075455945 4 0 0 0 0
1705 1 -0.001396842928394188 0.01178064268174139 0.09905332890853381 4 0 0 0 0
1706 1 -0.00152494523905727 -0.01180757254320144 0.09952318204342606 4 0 0 0 0
1707 1 -0.003940756196893122 0.01160919136495194 0.09851067555948383 4 0 0 0 0
1708 1 -0.006009554277594064 -0.001716056239173199 0.09650819194071425 4 0 0 0 0
1709 1 -0.004882992525772314 0.006903686989111774 0.09949756168603889 4 0 0 0 0
1710 1 -0.007805539361461651 -0.001117035493440448 0.09649544750773746 4 0 0 0 0
1711 1 0.01179360085519749 0.002803027400839942 0.09653010753008634 4 0 0 0 0
1712 1 -0.002362986442225014 -0.01009845343994476 0.09940494437020039 4 0 0 0 0
1713 1 2.895875442697791e-06 -0.007285522648287347 0.09631094969589038 4 0 0 0 0
1714 1 -0.006169048246635051 -0.002522269698916443 0.09650819194071425 4 0 0 0 0
1715 1 0.00483196034112317 0.008923767702613591 0.0994772067804207 4 0 0 0 0
1716 1 -0.00570859788388615 0.002011096597354385 0.09701107902812417 4 0 0 0 0
1717 1 -0.001901355186993019 0.01206117078491906 0.09756356605185691 4 0 0 0 0
1718 1 -0.00325631002792278 -0.004880441618541153 0.09951103660153955 4 0 0 0 0
1719 1 0.002552454886515686 -7.48340612641169e-05 0.09650032090309382 4 0 0 0 0
1720 1 -0.00615712700659913 -0.004284994418522376 0.09950823429143373 4 0 0 0 0
1721 1 -0.01035662931251431 0.006365940894049398 0.09949208302037063 4 0 0 0 0
1722 1 -0.001234564912834973 -0.002594606130890802 0.09649943108935899 4 0 0 0 0
1723 1 0.004503415818097814 -0.00674506764007173 0.09952750158723898 4 0 0 0 0
1724 1 0.0002457069058918893 0.009749898534034617 0.09951282788558735 4 0 0 0 0
1725 1 -0.009345699662765055 0.004626258852425662 0.09649056110766541 4 0 0 0 0
1726 1 -0.005657692997584883 -0.01043828672836739 0.09952318204342603 4 0 0 0 0
1727 1 0.008644881876259343 -0.001445493760873628 0.09649775379391758 4 0 0 0 0
1728 1 0.008552747541230117 0.0008311998203184358 0.09950143723160532 4 0 0 0 0
1729 1 -0.002418823915606352 -0.009493035243761246 0.09890696795974754 4 0 0 0 0
1730 1 -0.00969249598596547 -0.004751856671194526 0.09951262268042783 4 0 0 0 0
1731 1 0.00884316167318704 -0.001236930134954071 0.09949775379391758 4 0 0 0 0
1732 1 -0.01083890489862856 -0.005584375329150648 0.09852906701072009 4 0 0 0 0
1733 1 -0.002060955041362318 -0.01216609789511575 0.09901608006116137 4 0 0 0 0
1734 1 0.008672644251133871 0.00569444964834056 0.09649473205376351 4 0 0 0 0
1735 1 0.007563917239993839 -0.004272389854903232 0.09950136538234147 4 0 0 0 0
1736 1 -0.005463100164210958 -0.01105699256306347 0.09903344938678935 4 0 0 0 0
1737 1 -0.007544300775441718 0.00744215281115055 0.09949712210158934 4 0 0 0 0
1738 1 0.0076154601229591 -0.00607310061580056 0.09651706928215294 4 0 0 0 0
1739 1 -0.005181717919409089 0.008767835747842328 0.09950206755787183 4 0 0 0 0
1740 1 0.004706970916853343 0.01119952667877015 0.0994940512902549 4 0 0 0 0
1741 1 0.001201624330354916 -0.01034146452748041 0.09950919360501156 4 0 0 0 0
1742 1 0.00168518688717343 -0.002740891321680013 0.09649885902226199 4 0 0 0 0
1743 1 0.007544404119423387 0.007374901867150079 0.0995029883784236 4 0 0 0 0
1744 1 -0.00164198502316531 -0.0004713659120696817 0.09647013309433294 4 0 0 0 0
1745 1 -0.007818708912437543 -0.006344914204026835 0.09949853287880771 4 0 0 0 0
1746 1 -0.0023153427008818 -0.009293792390259417 0.09721411231128735 4 0 0 0 0
1747 1 -0.001442821409799869 -0.01012939688097415 0.09721068323903784 4 0 0 0 0
1748 1 0.009066396096579023 0.005052352358878677 0.09649473205376351 4 0 0 0 0
1749 1 0.009311532127458656 -0.007871117835735214 0.09650595722858653 4 0 0 0 0
1750 1 -0.006330631252130818 0.000681159133624091 0.09649377886745547 4 0 0 0 0
1751 1 -0.009100591358580417 -0.005030474678087222 0.09951262268042783 4 0 0 0 0
1752 1 -0.002034075928083862 -0.008283148164359159 0.09715018775584228 4 0 0 0 0
1753 1 -0.0004357322138965887 -0.008621686813999803 0.09952052280385722 4 0 0 0 0
1754 1 -0.0082548423126738 -0.001408317876840359 0.09949544750773746 4 0 0 0 0
1755 1 0.006165875056347756 0.005567075579300066 0.0995029254462389 4 0 0 0 0
1756 1 0.003380088942343761 -0.009781225741818098 0.09951439018578291 4 0 0 0 0
1757 1 -0.004386661703229137 0.002940109463535615 0.0995703800548275 4 0 0 0 0
1758 1 -0.002865331875975895 0.01185086744125154 0.0995102371433231 4 0 0 0 0
1759 1 0.006392477255282779 -0.01041860820052896 0.09650595722858651 4 0 0 0 0
1760 1 0.007936522654263842 0.009203846423183119 0.09649194361531585 4 0 0 0 0
1761 1 -0.007942492553129569 -0.00928214994710861 0.09949266215156467 4 0 0 0 0
1762 1 -0.005537570460076621 -0.006460994681226117 0.09644206779758337 4 0 0 0 0
1763 1 0.007686714821169179 0.006676185879553797 0.0995029883784236 4 0 0 0 0
1764 1 0.008807434530585684 0.005141839138332483 0.09949473205376351 4 0 0 0 0
1765 1 0.00785442617178631 -0.006255510060889013 0.09951706928215294 4 0 0 0 0
1766 1 -0.001602724431352752 -0.009364889742700624 0.09630714435153982 4 0 0 0 0
1767 1 -0.001583616163069572 -0.008382049105546401 0.09767071055969948 4 0 0 0 0
1768 1 -0.01177492581906263 0.002806311925950203 0.09950805053073228 4 0 0 0 0
1769 1 0.007936861826243181 -0.009246559917560841 0.09649241417986368 4 0 0 0 0
1770 1 0.006046260356022464 -0.008264252813618984 0.09651162444922182 4 0 0 0 0
1771 1 -0.009218179968159655 0.004476772530690273 0.09949056110766541 4 0 0 0 0
1772 1 -0.01217878861815257 -0.0009501397499153087 0.09650634079806783 4 0 0 0 0
1773 1 0.007948419502514356 -0.009306982452293305 0.09949241417986368 4 0 0 0 0
1774 1 0.0009028686843071222 0.01218571407620304 0.09949132437727186 4 0 0 0 0
1775 1 -0.002542013775210747 -0.01005324999585581 0.09640494437020039 4 0 0 0 0
1776 1 0.0001638933343003574 0.008281936385089339 0.09632019270909731 4 0 0 0 0
1777 1 0.002965593811938492 0.00468899612760426 0.09637090986742029 4 0 0 0 0
1778 1 -0.01051077250109452 8.945222757662216e-05 0.09949780272359302 4 0 0 0 0
1779 1 0.01045520623330539 9.559007177895173e-05 0.09650734618651377 4 0 0 0 0
1780 1 -0.00190135518699302 0.01206117078491906 0.09856356605185691 4 0 0 0 0
1781 1 -0.0007854588556455418 -0.006517694551728407 0.09948904093603091 4 0 0 0 0
1782 1 -0.0103802677561326 -0.00180703395134201 0.09951162571286819 4 0 0 0 0
1783 1 0.009428864782171252 0.00287141255965935 0.09950277468290625 4 0 0 0 0
1784 1 0.005979357269408994 -0.008440354572857269 0.09951162444922182 4 0 0 0 0
1785 1 0.01043222309727425 -8.194661643542932e-05 0.09950734618651377 4 0 0 0 0
1786 1 0.008406182253662214 0.0009532255871334104 0.09650143723160531 4 0 0 0 0
1787 1 0.006371309593932252 0.01042687324660926 0.09652375537833827 4 0 0 0 0
1788 1 0.002792043122569651 -0.01180564921732186 0.09952329418513117 4 0 0 0 0
1789 1 -0.008673565304445232 0.002289686690052456 0.09650227229249897 4 0 0 0 0
1790 1 0.009331139630086192 0.007884772642520816 0.09648907978312854 4 0 0 0 0
1791 1 -0.01132771298324185 -0.004670612573922563 0.09652375536931951 4 0 0 0 0
1792 1 -0.00374521222020636 0.01001979193586589 0.09950752025725672 4 0 0 0 0
1793 1 0.009019572225267889 0.002631809588964918 0.09650277468290624 4 0 0 0 0
1794 1 -0.002919847980970724 0.01188504328728514 0.0965102371433231 4 0 0 0 0
1795 1 -0.009321420187501905 -0.007969063395666526 0.09650518505054492 4 0 0 0 0
1796 1 0.006351499157575052 -0.01045194169096801 0.09950595722858652 4 0 0 0 0
1797 1 -0.009321419045853922 0.007968660129859455 0.09650518505054492 4 0 0 0 0
1798 1 -0.005886591478667673 -0.005957167928654141 0.09644206779758337 4 0 0 0 0
1799 1 -0.001494532050965699 0.01049282475934194 0.09953060739991977 4 0 0 0 0
1800 1 0.009289058415413979 -0.003231203015235812 0.09952283695180122 4 0 0 0 0
1801 1 -0.0113451998247869 0.004673074872129482 0.09651076143618714 4 0 0 0 0
1802 1 -0.001029259567719023 0.00348214771231285 0.09959176741500728 4 0 0 0 0
1803 1 0.009344999175345283 0.007967169333738214 0.09948907978312854 4 0 0 0 0
1804 1 -0.01044564594308406 0.006389981936528405 0.09649208302037063 4 0 0 0 0
1805 1 -0.00688605222296328 0.0005131804977510708 0.09649377886745547 4 0 0 0 0
1806 1 0.00567403242090251 0.007756293478938563 0.09952475693546395 4 0 0 0 0
1807 1 0.002829188536741824 0.01183325015150555 0.09952329417182199 4 0 0 0 0
1808 1 -0.007639963741148687 0.005525564730122727 0.09951724820569971 4 0 0 0 0
1809 1 0.009414898623017056 0.003242956553637159 0.09650277468290624 4 0 0 0 0
1810 1 -0.01044565759704832 -0.00638991699328121 0.09649268896097274 4 0 0 0 0
1811 1 -0.006427200701995308 -0.01048739223616934 0.09652318204342603 4 0 0 0 0
1812 1 -0.006429933747882972 0.0104834398245151 0.09652364307581016 4 0 0 0 0
1813 1 -0.01214783092872106 0.001028198371061463 0.09647627610276849 4 0 0 0 0
1814 1 -0.009330985257415644 -0.007955118747033156 0.09950518505054493 4 0 0 0 0
1815 1 0.01183439780059393 -0.001792235802207959 0.09961227620949623 4 0 0 0 0
1816 1 -0.006375936818772144 -0.01041947885199823 0.09952318204342603 4 0 0 0 0
1817 1 0.00454240640103447 0.009419833071984528 0.0964772067804207 4 0 0 0 0
1818 1 -0.005689359002050792 0.003283729933387106 0.09648162725160478 4 0 0 0 0
1819 1 -0.007984838754573908 0.009338494146077658 0.09949268370068631 4 0 0 0 0
1820 1 0.01185627144487558 -0.002865260745623006 0.09646849138356711 4 0 0 0 0
1821 1 0.01047575660134147 -0.006348736530254064 0.09649322229344418 4 0 0 0 0
1822 1 -0.01223646947473167 0.0009483013095130394 0.09947627610276849 4 0 0 0 0
1823 1 -0.004712199694001743 -0.01137613223205463 0.09651026734336329 4 0 0 0 0
1824 1 0.004688255945033307 -0.01133631475127709 0.09949322230115351 4 0 0 0 0
1825 1 -0.004184065836254362 -0.007105033845033263 0.09951383574029576 4 0 0 0 0
1826 1 0.006437418750412574 0.01036917038329761 0.09952375537833827 4 0 0 0 0
1827 1 -0.008871738212976855 0.002390320603988509 0.09950227229249897 4 0 0 0 0
1828 1 0.009363962605597595 -0.007935992721783029 0.09950595722858653 4 0 0 0 0
1829 1 0.0009385503502021223 -0.01227072807184503 0.09949134585226563 4 0 0 0 0
1830 1 -0.007517355619810574 0.000971938780570324 0.09649377886745547 4 0 0 0 0
1831 1 0.004696047074409656 -0.0113497091957693 0.09649322230115351 4 0 0 0 0
1832 1 0.000545931126161707 0.008586601357646158 0.09632019270909731 4 0 0 0 0
1833 1 0.01127868784792938 0.004706932956005696 0.09649301745593264 4 0 0 0 0
1834 1 -0.01190114780980913 -0.002856567002917382 0.09648192327386057 4 0 0 0 0
1835 1 -0.007961663021752639 -0.009351676616682691 0.09649266215156466 4 0 0 0 0
1836 1 -0.0009448076958007629 -0.01220629003005156 0.09952318204342606 4 0 0 0 0
1837 1 -0.004730150882673948 0.0113250629761524 0.09649291815890398 4 0 0 0 0
1838 1 -0.01199277783449932 0.002913657785290662 0.09650805053073228 4 0 0 0 0
1839 1 0.0074206726406752 0.006960101334994894 0.0965029883784236 4 0 0 0 0
1840 1 -0.00796226236332734 0.00935183614058218 0.09649268370068631 4 0 0 0 0
1841 1 0.01049462548284941 0.006397010686118904 0.09950730739691667 4 0 0 0 0
1842 1 -0.01051666716782581 -0.006388652613740864 0.09949268896097276 4 0 0 0 0
1843 1 0.008039139551678613 0.009348861757437297 0.09949194361531585 4 0 0 0 0
1844 1 -0.01033714488219573 9.850951517385978e-05 0.09649780272359301 4 0 0 0 0
1845 1 0.01049811158178321 0.006428751303791084 0.09650730739691665 4 0 0 0 0
1846 1 0.01140140327294887 0.004739335180919358 0.09949301745593264 4 0 0 0 0
1847 1 0.001324595850399536 0.009836182636987632 0.09634025211410752 4 0 0 0 0
1848 1 0.004689775886501 0.01135694919275621 0.0964940512902549 4 0 0 0 0
1849 1 0.0005594289773593634 0.006262292612244213 0.09633058991034021 4 0 0 0 0
1850 1 0.002955560406959183 -0.01197687385641911 0.09652329418513117 4 0 0 0 0
1851 1 0.002953620249197044 0.01197872835939259 0.09652329417182196 4 0 0 0 0
1852 1 0.01141505324935745 -0.004730303587846324 0.09652329417182198 4 0 0 0 0
1853 1 -0.01130750317013869 0.004683766370256104 0.09951076143618715 4 0 0 0 0
1854 1 -0.00199708101600914 -0.00740313466073216 0.09634101981475532 4 0 0 0 0
1855 1 0.0003208340436933259 -0.007580526157112851 0.09631094969589038 4 0 0 0 0
1856 1 -0.002907271545324727 -0.01194520139758173 0.09649289801773533 4 0 0 0 0
1857 1 -0.01195421870781009 -0.002891849840064309 0.0994819232738606 4 0 0 0 0
1858 1 -0.004743355703941274 0.0114040346072144 0.09949291815890399 4 0 0 0 0
1859 1 -0.0008980048776000121 0.01237008661672517 0.09652272150861405 4 0 0 0 0
1860 1 -0.0008965455107436144 -0.01237568365325721 0.09652318204342603 4 0 0 0 0
1861 1 -0.01224956153607678 -0.0009547893958474378 0.09950634079806783 4 0 0 0 0
1862 1 0.01053986752331612 -0.006459146581469101 0.09949322229344418 4 0 0 0 0
1863 1 -0.009364688835622319 0.008021802961783814 0.09950518505054493 4 0 0 0 0
1864 1 -0.00151161500254274 0.005152549998774887 0.09634103033697458 4 0 0 0 0
1865 1 0.01190474464596653 0.00287231338780329 0.09953010753008634 4 0 0 0 0
1866 1 -0.001987642934031163 0.007423204165726236 0.09632005276345816 4 0 0 0 0
1867 1 0.01203135090810113 -0.002872835085583466 0.09946849138356711 4 0 0 0 0
1868 1 -0.0009824016800097275 0.0122828843296077 0.09952272150861405 4 0 0 0 0
1869 1 0.0113075666005916 -0.004683613229986887 0.09952329417182199 4 0 0 0 0
1870 1 0.01216314905296828 -0.002278082567813985 0.09908076759306333 4 0 0 0 0
1871 1 0.01218763130530018 0.001097543062986493 0.096387723790504 4 0 0 0 0
1872 1 0.0008954230296373182 0.01231806650529417 0.09649132437727186 4 0 0 0 0
1873 1 0.0008956289741517006 -0.01231831097599196 0.09649134585226563 4 0 0 0 0
1874 1 -0.001987464480342763 0.005460081519038833 0.09634103033697458 4 0 0 0 0
1875 1 -0.002793316333286535 -0.01202046306239524 0.09949289801773535 4 0 0 0 0
1876 1 0.001438038404244018 0.01037029770563137 0.09634025211410752 4 0 0 0 0
1877 1 -0.006431008346036161 0.01049445181941831 0.09952364307581016 4 0 0 0 0
1878 1 0.00111271540977388 0.01073415701540723 0.09634025211410752 4 0 0 0 0
1879 1 0.01219071796997129 0.001023627280045038 0.09968038640963328 4 0 0 0 0
1880 1 -0.001380166991153742 -0.008999999999999991 0.09630714435153982 4 0 0 0 0
1881 1 0.0122235752080559 -0.001126895484348872 0.09961227620949623 4 0 0 0 0
1882 1 -0.002759075955983164 -0.008980191963097213 0.09950202358954717 4 0 0 0 0
1883 1 -0.01142962402487496 -0.004732957322562993 0.09952375536931952 4 0 0 0 0
1884 1 -0.004785586949765357 -0.01136928631701966 0.0995102673433633 4 0 0 0 0
1885 1 -0.006134195479052047 0.002693397834714731 0.09648162725160478 4 0 0 0 0
1886 1 -0.002134657285762221 -0.01043620776482016 0.09640494437020039 4 0 0 0 0
1887 1 0.01225709688763793 -0.000987084206578217 0.09630697419237874 4 0 0 0 0
1888 1 0.004571990121713606 -0.001013698222477942 0.09750941338890778 4 0 0 0 0
1889 1 0.004897274737407486 -0.0005048033488482119 0.09700316188622801 4 0 0 0 0
1890 1 -0.004303469809047106 -0.004278949347460161 0.09753244402389748 4 0 0 0 0
1891 1 -0.00480360752116659 -0.004100506330824006 0.09702140742235793 4 0 0 0 0
1892 1 0.002186226952199403 0.008278240729164256 0.09748544698635112 4 0 0 0 0
1893 1 0.002457313209355651 0.008565728210062438 0.09697618461610258 4 0 0 0 0
1894 1 0.006826419468174687 0.0004548896134036815 0.0970083281211582 4 0 0 0 0
1895 1 0.006469386543488453 -5.723978432820156e-05 0.09750459911783334 4 0 0 0 0
1896 1 0.0006308999634125692 0.0003981415625961441 0.09701705952490911 4 0 0 0 0
1897 1 0.001160302380045023 0.0001419624718477961 0.0975173804280029 4 0 0 0 0
1898 1 0.0008576461897060604 -9.91229652861275e-06 0.09651580231377077 4 0 0 0 0
1899 1 0.001387048606338514 -0.0002660913872769608 0.09701612321686458 4 0 0 0 0
1900 1 -0.00285521635931245 -0.006010152962160401 0.09685205641629484 4 0 0 0 0
1901 1 -0.0026861533410762 -0.00648355147222737 0.09634101981475529 4 0 0 0 0
1902 1 0.002056745672990178 0.001511027034618985 0.0970048643026844 4 0 0 0 0
1903 1 0.002323250694255511 0.0020791247612551 0.09751970113643639 4 0 0 0 0
1904 1 -0.003604814350005927 -0.003880467695196711 0.09651317313092422 4 0 0 0 0
1905 1 -0.003471732993882929 -0.004282210548239095 0.09702420973246377 4 0 0 0 0
1906 1 0.01079124756337292 0.002361486820012004 0.09903288221299256 4 0 0 0 0
1907 1 0.01074728802970279 0.001676114310958916 0.09854022839950632 4 0 0 0 0
1908 1 -0.007786861447653197 0.002957009031726128 0.09698389954410375 4 0 0 0 0
1909 1 -0.007290960866328825 0.003305014246502469 0.09648162725160478 4 0 0 0 0
1910 1 0.0001591304149189298 0.01048148106367848 0.09685307999969484 4 0 0 0 0
1911 1 0.0002701766788258437 0.01090434818178198 0.09634025211410749 4 0 0 0 0
1912 1 0.007580694526507031 -0.002834655770021627 0.09899911917625903 4 0 0 0 0
1913 1 0.007067925741972882 -0.002363644165134268 0.09849539017293417 4 0 0 0 0
1914 1 0.002318956779636045 0.007674333850257895 0.09647060432127208 4 0 0 0 0
1915 1 0.001978832349590114 0.007694093340010621 0.09697986669152062 4 0 0 0 0
1916 1 -0.01003098916956612 0.007010559653303642 0.09699726807091555 4 0 0 0 0
1917 1 -0.009414209378902735 0.007152050876648396 0.09650518505054492 4 0 0 0 0
1918 1 0.0077841786487611 0.002225683258431388 0.09749928737045656 4 0 0 0 0
1919 1 0.008297200163514509 0.001975928338149369 0.09700421191451156 4 0 0 0 0
1920 1 -0.0009634467803127163 0.007611964590238546 0.09712810740780903 4 0 0 0 0
1921 1 -0.001068550367907786 0.007886790861496627 0.09664024547255545 4 0 0 0 0
1922 1 -0.0006393164592919263 0.007978586686349039 0.09632019270909731 4 0 0 0 0
1923 1 -0.000857417167932456 -0.007692098608626112 0.09717249231450287 4 0 0 0 0
1924 1 -0.0004229990440506901 -0.007790660179015019 0.09683147249974758 4 0 0 0 0
1925 1 -0.001274457605723656 -0.008049101420042705 0.09716868697015232 4 0 0 0 0
1926 1 -0.0008400394818418896 -0.008147662990431612 0.09682766715539701 4 0 0 0 0
1927 1 0.01160438504780465 0.002115694272065827 0.09953010753008631 4 0 0 0 0
1928 1 0.01210565621684123 0.001753631821490043 0.09921049393971962 4 0 0 0 0
1929 1 0.0001043249908573491 -0.01051468705597141 0.09649859451729764 4 0 0 0 0
1930 1 0.0005162830713383718 -0.01057490255531103 0.0970077881223092 4 0 0 0 0
1931 1 -0.001724917370737946 -0.007950200478855462 0.09664816416629513 4 0 0 0 0
1932 1 -0.001502514226214338 -0.008217838353326951 0.09630714435153981 4 0 0 0 0
1933 1 -0.002861929007929818 -0.0004697149087439011 0.09647013309433294 4 0 0 0 0
1934 1 -0.003206195703786439 -0.0006931833537234316 0.09699289907551481 4 0 0 0 0
1935 1 -0.009368462538101387 0.007181152666093747 0.09950518505054493 4 0 0 0 0
1936 1 -0.009941972538996376 0.006986518610824635 0.09899726807091555 4 0 0 0 0
1937 1 -0.008492961418075956 -0.004713072702010872 0.09951262268042782 4 0 0 0 0
1938 1 -0.008561853643270513 -0.004161333956960186 0.09901291486954915 4 0 0 0 0
1939 1 0.004029418383986383 -0.0002426017429092583 0.09900721179264671 4 0 0 0 0
1940 1 0.003876039660426265 -0.0008408316730592762 0.09851346329532648 4 0 0 0 0
1941 1 0.00368391534906873 0.01010468271516855 0.09647720678042068 4 0 0 0 0
1942 1 0.003238618991681938 0.009909560788794916 0.09698278707525121 4 0 0 0 0
1943 1 -0.003308647255055707 -0.007087261413202334 0.09685485555505105 4 0 0 0 0
1944 1 -0.00291077204159386 -0.007032044648329048 0.09634101981475529 4 0 0 0 0
1945 1 0.003014052704393473 -0.004926335270374565 0.09689615748540491 4 0 0 0 0
1946 1 0.00310389792538896 -0.004515098289142826 0.0964350007477377 4 0 0 0 0
1947 1 0.003220258374269235 -0.009267274701383442 0.09651439018578289 4 0 0 0 0
1948 1 0.003053522128523843 -0.008881105234077461 0.09697792943850325 4 0 0 0 0
1949 1 0.004440509135421395 -0.005556073677725426 0.09902739549251188 4 0 0 0 0
1950 1 0.003887930361386242 -0.005519809193317644 0.0984885522301791 4 0 0 0 0
1951 1 0.003525789443931152 0.009411853393535305 0.09947720678042068 4 0 0 0 0
1952 1 0.003063298056192018 0.009374153981147723 0.09898278707525121 4 0 0 0 0
1953 1 -0.006209054088661698 0.006154740387456694 0.09901480989173858 4 0 0 0 0
1954 1 -0.006651840802688175 0.006557999965332809 0.09851193199332792 4 0 0 0 0
1955 1 0.01076663520020705 -0.005131116691677085 0.09652329417182198 4 0 0 0 0
1956 1 0.01084049260929535 -0.005697423692742442 0.09701651646526618 4 0 0 0 0
1957 1 0.008415804701454109 -0.002653553352048802 0.09702059074571878 4 0 0 0 0
1958 1 0.008148845612784221 -0.003142238387515491 0.09752195612806025 4 0 0 0 0
1959 1 0.00378960009803593 0.003403349388621598 0.09899241074282651 4 0 0 0 0
1960 1 0.004341926958361129 0.003502470241950255 0.09947757390907452 4 0 0 0 0
1961 1 0.0117022610249917 0.00359038984401828 0.09902312498601895 4 0 0 0 0
1962 1 0.01123174903712072 0.003962415806961388 0.09949301745593261 4 0 0 0 0
1963 1 0.002759129457435674 -0.003451415306282957 0.0964350007477377 4 0 0 0 0
1964 1 0.002341258693743368 -0.003190570207977481 0.09693385976999966 4 0 0 0 0
1965 1 -0.003681623875690219 -0.0111906627726627 0.09840810973129901 4 0 0 0 0
1966 1 -0.003253038722373967 -0.01072750729220571 0.0988978423879357 4 0 0 0 0
1967 1 -0.004079537519479182 -0.01162900623134026 0.09900316536109864 4 0 0 0 0
1968 1 -0.00365095236616293 -0.01116585075088327 0.09949289801773534 4 0 0 0 0
1969 1 -0.01032255901619454 0.002939360872098379 0.09901032282323124 4 0 0 0 0
1970 1 -0.01012027931544226 0.003507996903464223 0.09850088393089665 4 0 0 0 0
1971 1 0.009503798693594094 -0.006812039065070128 0.09851624880418364 4 0 0 0 0
1972 1 0.008932810212171525 -0.006915564682764283 0.09902302651073946 4 0 0 0 0
1973 1 -0.009157943737465037 -0.001187188717178358 0.09700707322060564 4 0 0 0 0
1974 1 -0.009546342424495141 -0.0007829941577629485 0.09750487594419863 4 0 0 0 0
1975 1 -0.002018711662467912 0.002757382769253956 0.0990952836912383 4 0 0 0 0
1976 1 -0.002359425290005797 0.003184391218556641 0.09860958910520237 4 0 0 0 0
1977 1 0.009793016279790887 0.007298954572053585 0.0969963871800452 4 0 0 0 0
1978 1 0.00977212485601945 0.006699057036054357 0.09650730739691665 4 0 0 0 0
1979 1 -0.01160727842488038 0.001706536171340817 0.09748212935709377 4 0 0 0 0
1980 1 -0.0111902851617485 0.001253830557414864 0.09697407882636147 4 0 0 0 0
1981 1 0.0005523000270846511 -0.004074640648052643 0.09652061673500326 4 0 0 0 0
1982 1 0.0007284153652965238 -0.003602335536748145 0.09701947575726524 4 0 0 0 0
1983 1 -0.004893661540333396 0.009703548112567052 0.09700958781512853 4 0 0 0 0
1984 1 -0.004768932111137575 0.01042651517597611 0.09700043841616071 4 0 0 0 0
1985 1 -0.005465525520959869 0.009865195598589227 0.09753323089093871 4 0 0 0 0
1986 1 -0.005340796091764048 0.01058816266199828 0.09752408149197089 4 0 0 0 0
1987 1 0.0008882265920224827 0.009439022220494819 0.09666044482320479 4 0 0 0 0
1988 1 0.0006143171551033374 0.009608098524577401 0.09717327270879214 4 0 0 0 0
1989 1 -0.002136245063817283 -0.008807177483072 0.09630714435153981 4 0 0 0 0
1990 1 -0.00229071550748681 -0.008728041800038371 0.09680916794108697 4 0 0 0 0
1991 1 -4.059817550972332e-05 0.007462177581979425 0.09632019270909731 4 0 0 0 0
1992 1 -0.0001475095672728113 0.007356427614803929 0.09680805464435087 4 0 0 0 0
1993 1 -0.00048289210128198 0.007562412334911698 0.09632019270909731 4 0 0 0 0
1994 1 -0.0005898034930450681 0.007456662367736204 0.09680805464435087 4 0 0 0 0
1995 2 -0.006175763982007166 -0.0002739540129311963 0.0921855609574736 3.999933718268253 -0.0227763014108741 0.03034882571337154 -10.87785690022983 10.87792308085537
1996 2 -0.006128502378404631 0.0002993384139545511 0.09250779858837405 3.999939332250137 -0.02355365483169641 -0.01323757675673426 -10.87912681442717 10.87916036523419
1997 2 -0.003861099352501426 0.000364020254537014 0.09233333399836866 3.999936462938978 -0.04355006728232948 -0.08744614895171192 -10.88073817214974 10.88117671064133
1998 2 -0.005846480594365307 0.0008283452421552929 0.09215770151892033 3.999933306675882 -0.09577300886274442 -0.1259014509622899 -10.88040955324054 10.88155943285837
1999 2 -0.00341893738336907 0.0007912450541498926 0.07203395736894734 3.999581713442431 0.01823566523324953 0.01857961815505923 -10.93352042047743 10.93355141418809
2000 2 -0.003896015813180388 0.0003902763339612623 0.07263900090715869 3.999592309699018 0.003899941156229308 -0.003241317446083533 -10.90650427684799 10.90650545576278
2001 2 -0.003869504238584776 -0.0004270976322404303 0.09235503802007677 3.999936788764567 -0.04547325740433943 0.006679687253926028 -10.87792979202539 10.87802688889829
2002 2 -0.006174019454851987 -9.878522056283091e-05 0.07220854501116175 3.999584789713344 -0.001247274851234546 0.003518515663912074 -10.90653255632275 10.90653319518971
2003 2 -0.003413682321285581 -0.0008030649829984093 0.09169183718662736 3.999925228294284 -0.01619716543335451 -0.03404717446857439 -10.92692036014485 10.92698540839172
2004 2 -0.004513824369659343 0.0009194326859277478 0.08764527770484054 3.99985450478959 0.003179845914865739 0.006098171432658782 -10.89844440668873 10.89844657668237
2005 2 -0.004001690309645259 0.000304708130056506 0.08764344602983817 3.999854473434288 0.005968220914051337 0.002775755933401585 -10.89848362691197 10.89848561454986
2006 2 -0.006613333356708521 -0.0002755410235578418 0.08116287432936925 3.999741269714513 0.0005428232337391706 -0.004540001970751986 -10.901654885659 10.90165584451682
2007 2 -0.00677237354158074 7.980769809542353e-05 0.07282327942088528 3.999595532483507 0.0003344890058208757 0.002489451506161735 -10.90852713283233 10.90852742202131
2008 2 -0.003521505699559772 0.000707500452143895 0.08432281659266638 3.999796477027057 0.002475702319541691 -0.0004401875327507709 -10.89974096312929 10.89974125317595
2009 2 -0.006749306297063308 0.0005091269742771046 0.09183814366705322 3.999927729342064 0.07994381819948673 -0.05188860182651052 -10.76279081721384 10.76321279247838
2010 2 -0.003895504210901574 -0.000410003637372917 0.07263709461225908 3.999592266081301 0.003979342545678219 -0.01277794616180891 -10.90637362875882 10.90638184005865
2011 2 -0.005954031581539413 -0.0007449769672093772 0.09217734202996974 3.999933601682025 -0.01913161524211057 0.02113368060442919 -10.87822732409884 10.8782646762215
2012 2 -0.00341764756236639 -0.0008095003828972449 0.07203211700979098 3.999581695736751 -0.005655954841157141 0.001302087393702178 -10.88900192315318 10.88900346990901
2013 2 -0.006305152256323616 -0.001005415921076234 0.08114733409191784 3.999740993923345 -0.0001980496818668984 -0.002696309772914448 -10.90166326513851 10.9016636003768
2014 2 -0.004000103916573531 0.0003031527571961205 0.08371896612721544 3.999785929773127 0.002071916957897309 -0.003136783739702682 -10.90386452628003 10.9038651743187
2015 2 -0.006638245926109071 0.0001440746669339781 0.08043281712368902 3.999728517541159 0.0003551226549897975 -0.002591862377824395 -10.90491539588113 10.90491570967828
2016 2 -0.006040216766333202 -2.984932537815743e-05 0.08178142386695328 3.99975207789225 -0.0002829795088252183 -0.006284992128533368 -10.90465362580028 10.90465544067682
2017 2 -0.006040814689423952 -3.2744298749528e-05 0.07981961354169688 3.999717801532317 0.0004802470974195773 -0.002761083212119259 -10.90520077545172 10.90520113556511
2018 2 -0.006130191946019594 -0.001384285925934075 0.07208690980196135 3.99958267155371 -0.008373017999205234 -0.002098312670904496 -10.92108990556431 10.92109331686921
2019 2 -0.006796567900665842 -6.41654526086428e-05 0.09151590603615278 3.99992211536018 0.06887405121694971 -0.07935659743289269 -10.77548975055626 10.77600206332712
2020 2 -0.005849960325211322 -0.00082461737494085 0.07265489725817792 3.999592600413971 -0.00456197416803273 0.01107841188910369 -10.90662929414931 10.90663587467805
2021 2 -0.005729587496923182 -0.0007619449160636288 0.07981401020117654 3.999717698562007 0.001419888667370293 -0.005057779586126071 -10.9052814963387 10.90528276165297
2022 2 -0.005732035665948297 -0.0007597242228965494 0.08176588362950186 3.999751802101083 -0.002120475011598324 -0.001877381617419108 -10.90480406344643 10.90480443121902
2023 2 -0.004448250410115075 0.0009878731679390713 0.09251730657120963 3.999939660528916 -0.09255099086200679 -0.03125922962266695 -10.87774487079711 10.87818350183058
2024 2 -0.004001465948184295 0.0003060554763657256 0.08568381792799318 3.999820251595825 0.003462315575503944 -0.0008090853755877464 -10.90320596484028 10.90320654458939
2025 2 -0.00337615657846648 0.0003068010206943076 0.08506109784266638 3.999809370914877 0.002200674228781586 0.0001291325003924248 -10.90086575238956 10.90086597529122
2026 2 -0.006018837633223395 -0.001315000847898515 0.08041167354571727 3.99972813877968 0.00135515795830682 -0.004604699819345304 -10.90595989527795 10.90596095156793
2027 2 -0.003375501212469307 -0.0004948897690893277 0.08899171400856901 3.999878014305431 0.006335817831663907 -0.003712872152409418 -10.90131566097376 10.90131813443673
2028 2 -0.006467284513023983 0.001038133802477846 0.0914880465975995 3.999921703767808 0.07834006818286114 -0.05850215180262709 -10.76045187880316 10.76089607347301
2029 2 -0.003930522160451094 0.001405868505712283 0.07203395754078383 3.9995817302331 0.03856616053489396 -0.005335796592948355 -10.93354144211258 10.93361076158544
2030 2 -0.004407600590262411 0.001004899785523653 0.07263900107899518 3.999592326489687 0.01431630464262306 -0.0156254121877309 -10.90642354125868 10.90644413048571
2031 2 -0.005455783147480462 0.0007377574311894492 0.06975103510312566 3.999541843426512 -0.01325588692682882 0.02134140126823362 -10.8883441410592 10.88837312494775
2032 2 -0.005329454694919409 -0.001682524752767428 0.08040179539041395 3.999727964408314 -0.002062930728571716 -0.002145480661712087 -10.90598367264929 10.90598407879195
2033 2 -0.005279250597492454 0.001119962246675184 0.09212849140378107 3.99993284589813 0.04088835189272876 -0.03551656825522345 -10.88154592723197 10.88168070889785
2034 2 -0.004379731221067874 -0.001041468981222514 0.09222924740936325 3.999934508071879 -0.1029616169215327 -0.06281756914436636 -10.87836666110413 10.87903526765927
2035 2 -0.004382714658745623 -0.001019625683657878 0.0725942146275769 3.999591518885826 0.01625540781552093 0.001990494277032178 -10.90668040056211 10.90669269578805
2036 2 -0.003373436096197217 -0.0004964857230832351 0.08507795702546309 3.999809659283005 0.003558533994292361 -0.01012761355461326 -10.90086653604505 10.90087182148233
2037 2 -0.006175962380592535 -7.612092663725938e-05 0.07773073896122944 3.999681303278058 0.002295117061253129 0.001020213225040325 -10.90588121569949 10.90588150491946
2038 2 -0.005040204558619196 -0.001129468820932542 0.07980413204587322 3.999717524190641 -0.0031176052439302 -0.002481972156916121 -10.9042126284273 10.90421335657009
2039 2 -0.005857328653381334 -0.000806798593651124 0.07773432296612488 3.999681365046232 0.002847627274800725 -0.0002489661877838777 -10.90587900686694 10.90587938147981
2040 2 -0.00390485801021044 -0.001419122429182205 0.0719892370251088 3.999580948541276 -0.001373752034283904 0.006617220887503035 -10.88899868095417 10.88900077824538
2041 2 -0.003998485291567497 -0.0004965558891875957 0.08960542619519635 3.999888737516188 0.004423905107970201 -0.005661342297874125 -10.89701885963635 10.89702122825332
2042 2 -0.003892800080297945 0.000400198840825561 0.07495668713410494 3.999632818444502 0.001717278861561174 -0.002659127944651862 -10.90677464717949 10.90677510652739
2043 2 -0.005174518663327285 -0.001173269876140904 0.0777442279497511 3.999681530770021 0.008927609180689888 -0.003313760095837363 -10.90585860649511 10.90586276404004
2044 2 -0.003923909303768678 -0.001417436331980493 0.09156604657591383 3.999922947601597 -0.04800309604504421 -0.07211823413703282 -10.92691414761095 10.92725757572252
2045 2 -0.005750646643086764 -0.0008666988778633118 0.07001038813012624 3.999546393572994 -0.005731984873276647 -0.006980463437958687 -10.88516798877701 10.88517173619306
2046 2 -0.005421737733504822 -0.001739022026318619 0.07201311485857213 3.99958137992157 0.003727567304487625 -0.008124554732886875 -10.9210603637871 10.9210640220003
2047 2 -0.003897385775599523 0.0004005403163940701 0.07769079583756799 3.999680602193358 0.0002449531163993996 -0.002789526962881804 -10.90588398419096 10.90588434369701
2048 2 -0.003998745465915032 -0.0004972312674118172 0.08570067711078988 3.999820539963953 0.003827351037385276 -0.009876001996596667 -10.90150985320716 10.90151499854971
2049 2 -0.004413220089510634 -0.001016583222331619 0.07772171260140458 3.99968113136852 0.00263054024988668 -0.004451141510906066 -10.90587701837269 10.90587824396882
2050 2 -0.005141506112696549 -0.001179353475325394 0.0725811023147887 3.99959130878183 0.01439288350472395 0.001562747971293489 -10.90665792122218 10.90666752990277
2051 2 -0.006170191575741231 -8.25709312870089e-05 0.07500811329265991 3.999633720066242 0.0009328408774999785 -0.001671188580981262 -10.90678037334732 10.90678054127329
2052 2 -0.004001690309645522 -0.0004966907328438158 0.08764344602983817 3.999854477093784 0.00595426081238862 0.002914504279332993 -10.89845978554662 10.89846180177431
2053 2 -0.003897713223390014 -0.0004012489606223654 0.07769447403524851 3.999680659983595 0.000244922028154427 -0.007307594734665982 -10.9058819433315 10.90588439434471
2054 2 -0.006746374762608894 -0.0003270987153558892 0.07712098027377561 3.999670647598279 0.0002586967223168382 -0.001026269657588545 -10.90919393244341 10.90919398378329
2055 2 -0.006427741035397692 -0.001057776382369754 0.07712456427867104 3.999670709366452 -2.506307214881949e-05 -0.0003785140836989458 -10.90919734003987 10.90919734663527
2056 2 -0.003405277435202224 0.0007894517666793568 0.09167013316491925 3.999924912260951 0.01901003816906971 -0.004856796761690876 -10.98622450748802 10.98624202805293
2057 2 -0.003892716735419972 -0.0004011002343204637 0.07498504469976895 3.999633314463015 0.001714772433160838 0.003317101226078786 -10.90677636465884 10.90677700387634
2058 2 -0.006074288089092734 -0.0001416817914263969 0.07002750801440842 3.99954668038737 -0.01492520108594109 0.01565505834699256 -10.88835300656607 10.88837449016498
2059 2 -0.005054123300551111 -0.001787028912628795 0.07713839121758789 3.999670941564016 0.00707979594777143 -0.0007154079438721299 -10.90230978055596 10.90231210278468
2060 2 -0.005262615905933476 -0.001118291798187879 0.09216060636217641 3.999933276603532 0.04446479953702825 -0.03701598619497717 -10.88169002885819 10.88184383208028
2061 2 -0.005810647572880767 0.001453864275655618 0.09271233690513395 3.999943009986795 -0.04770914778505655 -0.002270088328603257 -10.79440884183047 10.79451451250455
2062 2 -0.006581013708868195 -0.0007498101412482701 0.0927336764736594 3.99994327543127 -0.02477191969718709 0.02357863438420508 -10.87282191738458 10.87287570273676
2063 2 -0.004292824726734461 -0.00163034225881951 0.07711587586924137 3.999670542162515 0.003416041134940332 -0.001424709830388926 -10.90237721859133 10.90237784685498
2064 2 -0.003520850333563211 -0.000895589200539646 0.08825343275856901 3.999865123175951 0.006974454601350015 0.0001816779512644639 -10.89464154584858 10.89464377979169
2065 2 -0.003270372529392924 0.0004004681295641105 0.0755821123458936 3.999643747866278 0.0009540798294416498 -0.002350227468970351 -10.90775810865985 10.9077584035801
2066 2 -0.005961205345368205 0.0006685146041879056 0.07220479312029578 3.99958472138171 -0.001747264809213951 0.001798447755867512 -10.90650440318141 10.90650469141989
2067 2 -0.006276539640568407 -0.001269258362456718 0.09150920539620176 3.999921909463978 -0.01664230094555305 -0.05701521896106117 -10.94420146975293 10.94436263616644
2068 2 -0.005849858181600182 -0.0008117480558553567 0.0750099151341807 3.999633746578047 0.002546631833512148 -0.00533412522172854 -10.90677361109913 10.90677521277458
2069 2 -0.004000543109171702 -0.0004987712494047513 0.08372202565795281 3.999785984591311 0.001282753322813602 0.004712356634699363 -10.90250041730701 10.90250151117351
2070 2 -0.004033500674286423 0.001322199455122564 0.08432102321932064 3.99979645211875 0.006491991081941076 -0.005120410952181642 -10.89969906688593 10.89970220296089
2071 2 -0.003270372016508757 0.0004004675156234803 0.07705783219015661 3.999669540118389 0.0009675232368614776 -0.00310201501458911 -10.90678629881739 10.9067867828554
2072 2 -0.006559559432096959 0.00084710752284616 0.07281952753001932 3.999595464151873 0.0001545977169320291 0.00184770655302151 -10.90852352182464 10.90852367940417
2073 2 -0.004512098891300181 0.0009178517601747893 0.0837171727538697 3.999785904864821 0.00369978650994501 -0.005074618567169984 -10.90390102133261 10.90390282986749
2074 2 -0.00327028918451495 -0.0004008309455819142 0.07561046991155762 3.999644243884791 0.0009521220096506014 0.002940507061393469 -10.90775945752489 10.90775989542957
2075 2 -0.005910754183211129 0.001294607960723389 0.07025824405021616 3.999550655051067 -0.01804253930284545 0.02958763915344663 -10.87570015375853 10.87575536668964
2076 2 -0.005815540233162738 0.001256289854048649 0.06912589499333785 3.999530907675799 -0.01465605553625879 0.02257800220590696 -10.89500718348766 10.89504043564755
2077 2 -0.005042178531342109 -0.001129408715876813 0.0817562790835972 3.99975163671894 -0.003618157294583447 -0.0008587266026061465 -10.90513755832879 10.90513819236357
2078 2 -0.003270699464299248 -0.0004013217613929552 0.07706151038783712 3.999669597908625 0.0009689671540548028 -0.00700372701850882 -10.90678645595624 10.90678874769838
2079 2 -0.003519224409888681 -0.0008977102982345195 0.08434273530620046 3.999796820213369 0.004586904944250294 -0.003720813528063292 -10.89058959893363 10.89059120050659
2080 2 -0.004034664715969541 0.001321834059966229 0.08825306462673518 3.999865093183734 0.01879691753862134 0.005431087781816369 -10.87479315179448 10.87481075307242
2081 2 -0.003522530655955457 0.0007071095040949875 0.08825123295173282 3.999865061828432 0.008061963657042882 0.01807689845129867 -10.87483509787135 10.87485311052109
2082 2 -0.006745190165943334 -0.0003332066304964994 0.07565674346440611 3.999645055883208 0.0007175174448751026 -0.001909038194326116 -10.90642419857842 10.90642438925769
2083 2 -0.006413634022098038 0.0009089221927148795 0.08043851776866909 3.999728620660496 0.0002167273107837849 -0.003332420917626418 -10.90491253344729 10.90491304477646
2084 2 -0.004408036989552123 -0.001016401260929687 0.07501602115050766 3.999633855737076 -0.003035822158429509 -0.002364710194680454 -10.906796967479 10.90679764632496
2085 2 -0.006316738207792159 -0.001114183343915453 0.06940875191497883 3.999535881635344 -0.01420933873776666 -0.004910177232950901 -10.8979324499071 10.89794281953645
2086 2 -0.004515612615021872 0.0009211461514102926 0.08568939607913986 3.999820351300401 0.00203249326432581 0.0008592756796169764 -10.90323062369984 10.90323084699987
2087 2 -0.004028374166978415 -0.001509449404726676 0.08825935763148046 3.999865226607448 0.002260839464404521 -0.00889012205950628 -10.89461407486065 10.89461793666107
2088 2 -0.004925912183413443 -0.001742624318925411 0.08112785139070985 3.999740654169835 -0.002625697547072855 -0.001919292849265591 -10.90700331802363 10.90700380294016
2089 2 -0.004509214143060727 -0.001110550937030845 0.08764937090274963 3.999854580525282 -0.003205322725495495 -0.00933656904794224 -10.90281817738844 10.90282264621447
2090 2 -0.005841721991968916 0.0006093772564317786 0.06790507270812461 3.999509690708833 -0.03131346949584374 0.0201582947906764 -10.8300107226736 10.83007475244035
2091 2 -0.005168635510759172 -0.00117413865382803 0.07501409779337309 3.999633817690457 -0.003257699755038736 -0.00240359218504762 -10.90679777112791 10.90679852248789
2092 2 -0.00581620278541292 0.0007321032270313734 0.07982531418667695 3.999717904651654 0.0003504476833075924 -0.003258979097719525 -10.90512503179092 10.90512552439225
2093 2 -0.003992428492815872 0.001413304680081414 0.09185410573776022 3.999928109850889 -0.0359121584024173 0.05959974059489684 -10.98384361436191 10.98406401824748
2094 2 -0.006049327451312787 0.0006032072803162918 0.08568680269217585 3.999820326489742 0.003186351199824999 -0.009680300663249349 -10.90141215714107 10.90141692079144
2095 2 -0.005585123964962468 -0.00164257319343522 0.09149246972840842 3.999921584385484 0.003863755527828798 -0.06682903443769247 -10.93755945210965 10.93776429700712
2096 2 -0.00505021404255311 -0.001221619048479624 0.07000128028319876 3.999546241139481 -0.01069051293289577 -0.003721467994799611 -10.88635293212821 10.88635881731111
2097 2 -0.006048056470992035 -0.0001566396324795621 0.06792857660276504 3.999510114521895 -0.0306194214206917 0.0224326626854147 -10.83004945439554 10.83011597158481
2098 2 -0.006424856771802285 -0.001062383755064847 0.0756585453059269 3.999645082395013 0.002215918862983853 -0.005329551315679616 -10.90640752266952 10.90640904995572
2099 2 -0.003377181534861818 0.0003064100726449841 0.08898951420173282 3.999877956617409 0.001687611463939405 0.03196311802816405 -10.90131550419979 10.90136249333326
2100 2 -0.005340140496154159 0.001037682682504705 0.08592992086150342 3.999824565670085 0.01609888893132586 -0.002162739491859332 -10.9056222155805 10.90563431262161
2101 2 -0.005455716096170266 0.001049253830282017 0.08974390397054838 3.999891172155239 -0.0001034609794159855 -0.002834097847212048 -10.89656477379039 10.89656514284315
2102 2 -0.004506295834632994 -0.001110470892411492 0.08960543318790623 3.999888724240793 -0.003841367630423709 -0.01976678406635557 -10.89247944561533 10.8924980585268
2103 2 -0.006640379653798127 -0.0003891662574785378 0.06942587179926102 3.999536168449719 -0.01907015015071747 0.01019757204603714 -10.89797109660164 10.89799255291851
2104 2 -0.004513134303984817 -0.00111236553800357 0.08571145000682928 3.999820727240193 0.007940174412979945 -0.002928757873013114 -10.90373844133985 10.90374172571713
2105 2 -0.006046325616927791 0.0006080188699646812 0.08962831703032442 3.999889164496486 0.02135957092269907 0.01008552178368657 -10.90379607639469 10.90382166144605
2106 2 -0.004000165613960007 0.0003047439525467161 0.08960322638836016 3.999888679828166 0.003014879473895229 0.03097900475597398 -10.90373958657059 10.90378401106608
2107 2 -0.004018810839491135 -0.00150999816873347 0.08436174169549962 3.999797150337524 0.003307260634357523 -0.006178495943606475 -10.89058214155544 10.89058439633756
2108 2 -0.006466158710788202 0.0008006822009784042 0.06862214957770015 3.999522134841893 -0.004941057016422373 0.03494239639811846 -10.87189807595034 10.87195535122193
2109 2 -0.004404981791443457 0.001014932143730118 0.07495485537408023 3.999632793883861 0.005144947750890071 -0.006750941795329073 -10.90676028558114 10.90676358838095
2110 2 -0.004271345396905861 -0.0009753964172854269 0.07981068182340241 3.999717643533983 -0.003763713579540391 -0.002500649098562123 -10.9040301630584 10.90403109935373
2111 2 -0.005954100696726279 0.0006895633581198842 0.0777319766266735 3.999681325346336 0.001209697540692876 -0.002742606981322406 -10.90588290124973 10.90588331319533
2112 2 -0.005953610748963988 0.0006847584985969212 0.07502402507878146 3.999634002456542 -0.0001712527295749536 -0.005556918557935027 -10.90678543361679 10.90678685056359
2113 2 -0.006672493189811319 3.466531206706346e-05 0.06864565347234057 3.999522558654955 -0.01688730997699979 -0.005599028076203415 -10.87203905061834 10.87205360769177
2114 2 -0.004409988487032238 0.001015350733939774 0.07769079383565039 3.999680605103404 0.0002406930528506424 -0.002784420701977788 -10.90588400815222 10.90588436625852
2115 2 -0.004154997409107965 -0.001590340619301376 0.08112769314875774 3.999740654112015 -0.0008755307468725056 -0.001973920850729963 -10.90700184883084 10.90700206258883
2116 2 -0.004271263757036631 -0.0009771250162527783 0.08175612084164509 3.999751636661119 0.0002238990769091636 -0.0003777803783037171 -10.90402756662207 10.90402757546508
2117 2 -0.004500129538774157 -0.001111059119903702 0.08374103204725197 3.999786314715466 -0.007920690417887365 -0.007553702910262015 -10.90681998780964 10.90682547959067
2118 2 -0.006450109218000365 -0.00103000550936902 0.0870447346459598 3.999844030696726 0.007987549531581595 -0.01086279807076117 -10.89955799786508 10.8995663377106
2119 2 -0.006163479790921841 -0.00134504097440851 0.08631512559309279 3.999831286832365 0.00431161522317355 -0.00679414128743153 -10.8901619087309 10.89016488161475
2120 2 -0.006773415359911494 0.0001219428670092191 0.08630775804722536 3.999831181606266 0.009798734870395374 -0.008942449533970109 -10.91182150841672 10.91182957226488
2121 2 -0.00341764756236639 -0.0008095003828972449 0.07055922922441787 3.999555982094667 -0.005389684519513186 -0.001639655606191881 -10.90234874873216 10.9023502042519
2122 2 -0.003417711488393533 0.0008014710497295534 0.07842118349167441 3.999693366831078 0.0004018981005979316 -0.002301976856577039 -10.90521991607752 10.90522016644475
2123 2 -0.006753025013942881 -0.000296593757756543 0.08704100989332163 3.999843985819775 0.01011068197941613 -0.01598886841410953 -10.8995288122831 10.89954522902642
2124 2 -0.004883804947846075 -0.001407326027278214 0.06576143018495341 3.999472744428489 -0.09592739937804147 -0.3811478409433734 -10.23027908897443 10.23782623318616
2125 2 -0.005067112277903485 -0.001780797863891935 0.08704970257072916 3.999844099209418 -0.0007704946767290303 -0.005721869372234963 -10.89754069572833 10.89754222513068
2126 2 -0.00341816267681814 0.0008032189954792629 0.08628859497295044 3.999830809446696 0.004822117488340999 0.003649638059303227 -10.89669518147486 10.89669685962918
2127 2 -0.00429085786248354 -0.001062172600704283 0.06996380079211399 3.999545588367096 0.01320139775379128 0.0006573889416669226 -10.88183367532652 10.88184170287976
2128 2 -0.005475902293437349 -0.001719894476654005 0.08631769297286607 3.999831323349925 0.003527396297080436 -0.006376006003988691 -10.89016938328204 10.89017182107567
2129 2 -0.003912235759037701 -0.001420743183715839 0.07058522992893977 3.99955643278015 -0.003013726461553911 0.001309091687819372 -10.90235064695555 10.90235114209042
2130 2 -0.004292571162296708 -0.001630439450557683 0.08704176160427769 3.999843963414827 -0.001584189222795069 -0.005871082316656982 -10.89752847445203 10.89753017113308
2131 2 -0.003796269665812229 -0.0004509297998856888 0.06993780008759208 3.999545137681613 -0.000707933997872508 -0.01470725952740687 -10.88370048509963 10.88371044515661
2132 2 -0.00341607820378695 0.0007994499014197888 0.08235315581485927 3.999762068845762 0.0009002765185485029 -0.001720007005781112 -10.90385395536459 10.90385412818981
2133 2 -0.006543481091496189 0.0008820252748077318 0.08629579595094641 3.999830978917749 0.01017771887696646 -0.00770257462280963 -10.91182578565692 10.91183325074868
2134 2 -0.006279261719728092 -0.0001568751274822208 0.08569876478845478 3.99982052917826 0.005924164906256426 -0.004058606313649809 -10.90309097396335 10.90309333879777
2135 2 -0.005904826707241898 0.0009405419519595437 0.06590497129408253 3.999475095424336 -0.5239448752936938 -0.07204483905396214 -10.28896531767548 10.30254900495551
2136 2 -0.006771972234493691 8.63519971824931e-05 0.07428946753785103 3.999621159884898 -0.0003590656017849538 -0.0003208048507628117 -10.90924910587542 10.90924911650144
2137 2 -0.003270658490811454 0.0003999538871214207 0.08702506383532681 3.999843669047594 0.004861462894579511 0.003548558106131395 -10.89654228393535 10.8965439462096
2138 2 -0.006146100190603766 -0.001360843828740564 0.07847791593091953 3.999694355424529 0.00340939834818026 -0.004820606427268711 -10.89929498599158 10.89929658528039
2139 2 -0.005283755258667504 -0.001260909350365097 0.08765731186920109 3.999854716319873 0.001272858702429092 -0.007704954909924082 -10.90153201837546 10.90153481552781
2140 2 -0.006775961110315738 9.903445558740115e-05 0.07847993526654445 3.999694396626666 0.001813630892342529 0.001598123180180189 -10.90485383341795 10.90485410133785
2141 2 -0.003270658490811718 -0.0004014449757789011 0.08702506383532681 3.99984367270709 0.004863129577867943 0.002150666846655233 -10.8965422938762 10.89654359132426
2142 2 -0.004292227834961694 -0.001629818207908439 0.07566857327754452 3.999645258027817 -0.003146130421923374 -0.002815267787102095 -10.90626302350105 10.90626384064019
2143 2 -0.006438344554183262 -0.00104984100019342 0.07920072742521815 3.99970698445162 0.004184087113861546 -0.005636263165086456 -10.90126974775591 10.90127200776981
2144 2 -0.006746612701151931 -0.0003548385620265632 0.07139251627439978 3.999570524386225 -0.003376431402734182 0.0001731824498454205 -10.91194295818637 10.91194348193732
2145 2 -0.003268333200191964 -0.0004023655515484335 0.09095355593662736 3.999912313444343 -0.00500857039832285 -0.02653560632286125 -10.94572386307012 10.94575717393562
2146 2 -0.005814445567459258 0.0007330967622482138 0.08178490380725668 3.999752144685389 0.0002696670438723773 -0.003668483943700589 -10.9042855988663 10.90428621928725
2147 2 -0.004890266658880333 -0.001403523789332054 0.094740864794334 3.999978234014183 -0.05685513201539279 0.03794850011048156 -10.79186216984711 10.79207865462786
2148 2 -0.006751122389950676 -0.0003094727156003355 0.08312843545641775 3.999775612987739 -0.0003710745588037291 -0.004651584769541472 -10.9074818872764 10.90748288544153
2149 2 -0.003771729713838809 0.00033393661775352 0.06789377791202234 3.999509339422194 0.07530431574172021 0.1555638632065297 -10.84207589589072 10.84345335157392
2150 2 -0.006749571746684033 -0.0003206403828793194 0.07920633076573849 3.99970708742193 0.001948146989230408 -0.0004917651863538467 -10.90129635623022 10.90129654139671
2151 2 -0.006282090497222407 -0.0001515587464752 0.08765118657156684 3.99985463944779 0.009310160759779383 -0.01724096677163627 -10.90163723519527 10.90165484400531
2152 2 -0.003920613136892964 -0.001415924566796742 0.09021751974339486 3.99989940791447 -0.01033799257540546 -0.01917158042524156 -10.90166500816058 10.90168676736491
2153 2 -0.004346230137931353 -0.001090418738678251 0.06759245859892396 3.999504177132065 0.09917320781997543 -0.06104966928640609 -10.85202430571148 10.85264916594202
2154 2 -0.006774533105185544 0.0001099257675475355 0.08239359574766925 3.999762775310671 -0.000291066958591686 -0.006275214365888596 -10.90466475540443 10.90466656486088
2155 2 -0.003417239837797409 -0.0008030065931814792 0.08235805270291008 3.999762154816805 0.0002589888231085715 0.002260524322536934 -10.90676958293492 10.90676982026667
2156 2 -0.005896074512573298 0.000944696528704916 0.09441261867661069 3.999972415797787 -0.03950203941476578 0.02203673592768152 -10.82640927570272 10.82650376778535
2157 2 -0.006421794609600419 -0.001081047707908705 0.07139868677351237 3.99957063196933 -0.001951510044033575 -0.003108421849337524 -10.91193170956442 10.91193232680974
2158 2 -0.003761011323020536 -0.0003627489131198771 0.08175514078066096 3.999751619094396 0.0009048036058440883 0.0002135217702628 -10.90378937082772 10.90378941045895
2159 2 -0.00327379910141704 0.0003907981393758488 0.07129560718136117 3.999568817017341 -0.003802706537824897 0.03522511488473094 -10.8933659445158 10.89342356059069
2160 2 -0.005979174701279891 -0.0008849704980876766 0.087654911324205 3.999854684324741 0.007119445370617702 -0.01067958552792889 -10.90084111969663 10.90084867599391
2161 2 -0.003760288881608248 0.0004377835748805192 0.08175330342334751 3.999751587941537 0.0008700214975731424 -0.001817634302642331 -10.90396526604191 10.90396545224627
2162 2 -0.003272362880184406 0.0004007722322205938 0.07916030739741142 3.999706281582322 0.0001463926617743494 -0.001695546177598687 -10.90639336242794 10.90639349520821
2163 2 -0.003412914953950345 0.0008008770574850834 0.07421058122579753 3.999619778080815 0.002060690977870733 -0.001547874330202235 -10.90834572978972 10.90834603425212
2164 2 -0.003412802593827467 -0.0008020095635728457 0.09021751275068499 3.999899421189865 0.003526788031462442 -0.002556768477290066 -10.90160435874492 10.90160522904334
2165 2 -0.003417625598899111 -0.0008012217920646903 0.07844461677757236 3.999693769705234 -0.001348986734136358 -0.002421546838258037 -10.91301935096017 10.91301970300088
2166 2 -0.005972241946680955 -0.0008904472172874735 0.08570240758168404 3.999820589527407 0.003221093668744255 0.002847184207096135 -10.90387130207082 10.90387214956347
2167 2 -0.003273020882693174 -0.0004096673263371094 0.07129567311710443 3.999568842929378 -0.003297461256467641 0.003156431531887596 -10.89336601488895 10.89336697126505
2168 2 -0.005252934633388614 -0.001741516209035209 0.09286283085024977 3.999945592767785 -0.01272227318483823 0.1017788640485087 -11.04204793201292 11.04252431857285
2169 2 -0.005284664449196462 -0.001265300719532968 0.08570497496145732 3.999820626044967 0.01338140586354302 -0.001674523857688773 -10.90513298356251 10.90514132211206
2170 2 -0.003248536708023131 0.0003751320690048414 0.06728467236310487 3.999498542832995 0.2007511773998261 0.09139443175001012 -11.02062137050306 11.02282855574607
2171 2 -0.006270511268893404 0.001813140383582588 0.06963310394042833 3.999539719300354 -0.02740843528997132 0.04219153492901662 -10.88211933032629 10.88223563737736
2172 2 -0.003933132465019731 -0.001416556053773944 0.07847185534372841 3.99969424109016 -0.002758130279950254 -0.004117102035760272 -10.91301563259618 10.9130167577577
2173 2 -0.005052826356168744 -0.001787555600806782 0.07566664992040993 3.999645219981197 -0.00296475192220229 -0.002780364239436 -10.90626626751136 10.90626702488231
2174 2 -0.003238115273403237 0.0003656863746352819 0.09319618431174131 3.999951560883629 -0.05393967885209179 -0.08264795520690306 -10.89546877576328 10.89591574935706
2175 2 -0.005283962266291384 -0.001260677133935186 0.08960543851850739 3.999888719936254 0.005788490235608594 -0.01744313046855469 -10.89505971269506 10.89507521371977
2176 2 -0.005463290200549717 -0.001727315111230344 0.07848782091454576 3.999694521148318 0.004436911838863025 -0.005348225554773031 -10.89927699013098 10.8992792054017
2177 2 -0.006156035908267426 -0.001353156193789829 0.08238169823563658 3.999762554424134 -0.001575687768704088 -0.006072939287045618 -10.8991881604441 10.89918996623824
2178 2 -0.003929831032618925 -0.001416600881790354 0.08631622705178657 3.99983128875056 0.004070748089673956 -0.002527601492100252 -10.90940904734332 10.90941009963488
2179 2 -0.003248536708023246 -0.0004262667938953542 0.06728467236310487 3.999498597571776 0.2049500959009652 -0.007666777218954816 -11.02062152090459 11.02252974721811
2180 2 -0.006440806293417463 -0.001042679779419308 0.08313207818183649 3.99977566789237 0.00175522573855282 -0.009675227486113516 -10.90745583007133 10.90746026239846
2181 2 -0.003271451524113736 0.0003996168448596543 0.08309327442217272 3.999774997296359 0.001233878118678683 -0.002536554415468534 -10.90236254214739 10.90236290704827
2182 2 -0.005088224854194163 0.001278789514550912 0.06596688032684586 3.999476228061924 0.2023512160176445 0.3036550794423865 -10.2778456526269 10.28432125524659
2183 2 -0.006130112808984383 -0.001385441266343765 0.07066880741320354 3.999557879470338 -0.007104002479972747 0.002594809110448303 -10.89884282857606 10.89884545270229
2184 2 -0.006279665213788186 -0.0001612451931112313 0.08374354255457167 3.999786362515642 0.0009979197232324855 -0.002508506827884357 -10.9039682923572 10.9039686265681
2185 2 -0.00590297665993264 0.0002635235389975364 0.09502120600654487 3.999982999433508 -0.03750545379108277 0.02748374457473027 -10.82795948211993 10.82805931650316
2186 2 -0.00341544219454914 -0.0008014666111986016 0.08630545415574714 3.999831101474321 0.002177310036863772 -0.004801394259076861 -10.9094140536691 10.90941532752598
2187 2 -0.003927492271813504 -0.001417382696314381 0.08235903276389422 3.999762172383527 -0.001749042588048055 -0.0001510585589314468 -10.90677396861607 10.90677410990298
2188 2 -0.003267565832857052 0.0004001776260354935 0.07347229997579753 3.999606871154423 0.002282811514114691 -0.002104195692426548 -10.90934718408958 10.90934762586064
2189 2 -0.003271949542899493 -0.0004001313325572145 0.07918006248562884 3.999706626666241 0.0001467591600284931 0.00146089761847231 -10.90639430071155 10.90639439954165
2190 2 -0.003771729713838923 -0.0004674622451466755 0.06789377791202234 3.999509394160975 0.09108757544998818 -0.07049642615416786 -10.85109916027554 10.85171044944687
2191 2 -0.005245312859185423 0.001116866749599929 0.07242000145925008 3.999588497554735 -0.01828391661843822 -0.009633179636074586 -10.90621512542234 10.90623470597199
2192 2 -0.005429680208450728 -0.001740361436960078 0.07065969956627607 3.999557727036824 -0.003054084659639773 0.0005725276047965856 -10.89885607390626 10.89885651685278
2193 2 -0.003761922679098997 0.0004398053371309116 0.07979092375589966 3.999717301353845 -0.0006428134628409974 -0.001116916726194798 -10.90501504549469 10.90501512163912
2194 2 -0.005066151625825226 -0.001783836187552114 0.07920075425354105 3.999706975804043 -0.0008724209624389292 -0.004592382469244164 -10.90862219976252 10.90862320131403
2195 2 -0.005476609544879543 -0.001714444852809798 0.09021258927367744 3.999899271862168 -0.02380363441172527 -0.03221863192593483 -10.84869163280047 10.8487655886211
2196 2 -0.005339727464576445 0.001039054696384236 0.08789355617666592 3.99985889563507 0.07857748323453083 -0.0150022147241627 -10.88620413643125 10.88649805894306
2197 2 -0.004241898453179733 -0.001676989160220162 0.06805140993405079 3.999512137524206 0.0753433952251889 0.008155984552833269 -10.94538654179297 10.94564889335258
2198 2 -0.003271890716711907 -0.0004023071617412174 0.08309633395291008 3.999775052114543 0.001221418742194793 0.004669202749592714 -10.90236269114043 10.90236375940964
2199 2 -0.003412320006793557 -0.0008007019889951205 0.07423703249656192 3.999620230481611 0.00478713795784964 -0.007614969454773747 -10.92107144891528 10.92107515296741
2200 2 -0.005466178773661238 -0.001722840686770092 0.08237209368973192 3.999762389041991 -0.00759343982071299 -0.002937339856767175 -10.89914694207926 10.89914998306425
2201 2 -0.003761509341814083 -0.0003610982276468966 0.07981067884411708 3.999717646437765 -0.0005292965953375196 0.001023574798127649 -10.90521808538925 10.90521814627112
2202 2 -0.004281729580330457 -0.001628971135373069 0.08311632040319339 3.99977539980542 -0.005446373265028258 -0.002490124875557011 -10.89937110743239 10.89937275265121
2203 2 -0.00590499320846914 0.0002626882572445348 0.06539484685866125 3.999466729514997 -0.4537702252347352 0.1443475294797571 -10.2266995534383 10.23777941659575
2204 2 -0.005723636523470866 -0.0008840590289291437 0.06798264222961709 3.999511039960019 -0.003506654711487483 -0.05950191250638574 -10.83654223859345 10.83670616299248
2205 2 -0.005049501307872713 -0.001782145426204747 0.08312922308707896 3.999775616406063 -0.007682177416462824 -0.002923163439608078 -10.89932318420464 10.8993262835129
2206 2 -0.004631941150988527 0.0009297072251459748 0.08947182716783939 3.999886393032809 0.03372503141017105 -0.005202147997445478 -10.9035945964778 10.90364799342071
2207 2 -0.004370049948523013 -0.001664693392069843 0.09293147189743661 3.999946824236133 -0.02927871482919492 0.1026426078217027 -11.04576286534578 11.04627856001895
2208 2 -0.006774255597997641 9.260435183715409e-05 0.07638999780825438 3.999657872087362 0.000840646041435551 -0.002224272259301259 -10.90701690162987 10.90701716082415
2209 2 -0.006741439203289095 -0.0003393740366914934 0.07355746887954942 3.999608365935083 -0.0002995064132656788 0.001262205246245325 -10.90650155335013 10.90650163049981
2210 2 -0.005267901266316413 -0.001264233410735379 0.08375393473113754 3.999786531316109 -0.004265016839616694 -0.006160577905959528 -10.9057831485311 10.90578572253617
2211 2 -0.004297292464111892 -0.001629763783904998 0.07920730403107024 3.999707095147386 -0.004933740548536367 -0.00533770664114638 -10.90857132938375 10.9085737510071
2212 2 -0.003415721137602051 0.0008011669470730702 0.07631955094015661 3.99965663880852 0.0009528803726438631 -0.002410229466503738 -10.90789013913875 10.90789044704371
2213 2 -0.005969349117254973 -0.0008944522569302039 0.08374718527999042 3.999786417420273 0.003559589299749163 -0.01002402010382129 -10.90489630575835 10.90490149386949
2214 2 -0.004521091131904422 0.001546097901115484 0.08885994665621441 3.999875701177354 0.03355899062276518 -0.00451334664385785 -10.90560991778344 10.90566248583762
2215 2 -0.006128252906924694 -0.00137107760219753 0.07424879061818548 3.999620452492648 0.001833203843964349 0.004801368376603554 -10.89329602748867 10.89329723987531
2216 2 -0.005079472659525562 0.001282944091296285 0.09441261867661066 3.999972488559073 -0.07925889730960967 0.001959103362040388 -10.82613523325121 10.82642553659942
2217 2 -0.004390835588950009 -0.001722664976500253 0.08899764587419032 3.999878104461534 -0.002162621927574054 -0.01322034462115899 -10.884197379497 10.8842056233009
2218 2 -0.005403120024306334 -0.0009489407905527005 0.06542218785203659 3.999467292134789 -0.2252717806310815 -0.3025660830172265 -10.27444642615896 10.28136873056072
2219 2 -0.003267054230578237 -0.0004001023452986858 0.07347039368089792 3.999606827536706 0.002287940145935547 -0.0139584499969997 -10.90934706545785 10.90935623525102
2220 2 -0.005103595402534567 -0.001249629764334347 0.06763969570030494 3.999505050032061 0.001984864261674242 -0.06295473213794825 -10.83745415841525 10.8376371905382
2221 2 -0.004920619964407624 -0.001823855540392491 0.06940242180006929 3.999535793698448 -0.01109902863953202 -0.003145701345376565 -10.88547752868603 10.88548364159361
2222 2 -0.005408850083253013 -0.0009448355365235686 0.09506476014810317 3.9999838000222 0.0006958400436125866 0.002405386918414924 -10.81167742916683 10.81167771913476
2223 2 -0.004115446142704453 -0.001162454729922692 0.06576340197240799 3.999472781159767 0.3279978770192625 -0.2112208530938608 -10.23662354469429 10.24405478567448
2224 2 -0.006756083874367312 -3.099654465608752e-05 0.093828376872755 3.999962294215202 -0.02849148875867879 0.06641285595744204 -10.85907200606313 10.85931246742776
2225 2 -0.005979454980535912 -0.0008838071529847267 0.08953095826106872 3.999887436610005 0.005620480543583477 -0.01736644882626785 -10.89503370987413 10.89504900046989
2226 2 -0.006279704213028064 -0.0001502285871546967 0.08952782245566523 3.999887406775358 0.006541506340438452 -0.01986689719643784 -10.89475778991325 10.894777867666
2227 2 -0.00617210225912407 -0.001337574871859338 0.09013810901623877 3.999897988535917 0.00159730335431263 -0.04615015575166165 -10.84858330170938 10.84868158083652
2228 2 -0.006537268755145632 0.0008883211066599637 0.09023394949794165 3.999899805732372 0.06471964657590092 0.02758214762845449 -10.96554982180977 10.96577549934855
2229 2 -0.006770647351245907 0.0001300736495405857 0.09013345492328247 3.999898048011244 0.04145128394301239 -0.04720230320898994 -10.96532129547541 10.96550123703314
2230 2 -0.004073034414237988 -0.000471394632248026 0.06542415963949116 3.999467338536044 0.3902476508762768 -0.08173778205502716 -10.2745013155279 10.28223475596693
2231 2 -0.006707943007125996 0.0005401816792810042 0.09345131032484214 3.99995571846827 -0.04931561484946884 -0.01184246837179845 -10.80684175522867 10.80696076593596
2232 2 -0.005686545937404243 0.001558441534216372 0.08531609854281744 3.999813848582544 0.01587479128960063 -0.0008473032872159022 -10.90803072288895 10.90804230732585
2233 2 -0.004114161246255537 -0.001161922464252668 0.09475450570329397 3.999978481952018 0.0139983532129606 0.06604733290407909 -10.79061176610397 10.79082297560561
2234 2 -0.006410919552492921 -0.0001433974119304138 0.09462708024243799 3.999976179867531 -0.01470492190455509 0.06823494185542363 -10.8089722739782 10.80919765115097
2235 2 -0.004402298220030708 0.001536590698717543 0.08506488262046732 3.999809445711147 0.00450666883676977 -0.003742220971639916 -10.89566933231557 10.89567090699071
2236 2 -0.004071017865701493 -0.000470559350495031 0.09507840105706314 3.999984047960035 -0.01418837452228082 0.007821320922359917 -10.80790410122923 10.80791624432759
2237 2 -0.006418053269861146 -0.001067626511503169 0.07351499011836307 3.999607632031028 -0.00463654732222343 0.01108779564516262 -10.90654713266734 10.90655375422858
2238 2 -0.003246520159486587 -0.0004254315121421623 0.09321788833344943 3.999951886709217 -0.0573497032216782 0.0002405456367946733 -10.89546966074121 10.89562059611356
2239 2 -0.006135288476645391 -0.001367250439745058 0.07639538365467062 3.999657960367341 0.0006882930598423104 -0.002195618326528917 -10.91224361752176 10.91224386011564
2240 2 -0.005239594768546081 0.001128651713527908 0.07475146720174811 3.999629243416989 -0.0004418805866849973 -0.005744531728041614 -10.90677359108172 10.90677511283793
2241 2 -0.005241095051131527 0.001131473221968484 0.07795630148936131 3.999685246219269 0.0009528966167133032 -0.002916440613738113 -10.90589429481632 10.90589472640117
2242 2 -0.003927640260925709 -0.001416003015604344 0.07426800894730064 3.999620771755672 0.007523817579895667 -0.004344771111855307 -10.92106477556627 10.92106823149555
2243 2 -0.006749904951548898 -0.0002947111807449184 0.09076357364110697 3.999909018790713 0.0382722270544793 -0.1144133645697538 -10.87522295025903 10.87589211969283
2244 2 -0.006778572346541863 6.578496597529153e-05 0.07067975679837314 3.999558058701608 -0.003525467344699206 0.002153912449629298 -10.91538975633987 10.9153905381836
2245 2 -0.004999263717782946 -0.001836200185876258 0.06809864703543177 3.999513010424202 -0.01314074237470973 0.00190050099917858 -10.92583282503243 10.92584089265309
2246 2 -0.005444480731852859 -0.001730031687514319 0.07639930560996126 3.999658026841115 0.0007829001597235312 -0.002243334394856262 -10.91224353006446 10.91224378874096
2247 2 -0.005243743149195419 0.001766871304167136 0.09149985075609388 3.999921920703246 0.04019231820226016 -0.03637160351872784 -10.88050691013522 10.88064193591009
2248 2 -0.006451609091919214 -0.001028781136314812 0.09076509192865981 3.99990892948074 0.01588893663176493 -0.0596951327311908 -10.87466180701499 10.87483725782274
2249 2 -0.00437722928739402 0.0009586323303756506 0.0676878396808679 3.999505730784531 0.1221113008681565 0.1086195588541409 -10.85049183810623 10.85172255944535
2250 2 -0.004387411363869457 -0.001723907864173938 0.08510773631080168 3.9998101766834 0.008282190063513153 -0.001472828800875878 -10.90186419277948 10.90186743827425
2251 2 -0.004526664550494681 0.0008336106807850555 0.06545675589142458 3.999467871822563 0.1844899615285806 0.3118010732142712 -10.27219259208519 10.27857952754427
2252 2 -0.00522008723230597 0.00106656402971059 0.06795205675244124 3.999510437747509 0.0731087454404276 0.1061030158842494 -10.84320282296277 10.84396837871392
2253 2 -0.003789680758900597 -0.001376168649496278 0.08040818692599103 3.999728083693836 -0.003042132721354742 -0.002724642240995701 -10.90310708628122 10.90310785112036
2254 2 -0.006394593753840344 0.001130006431969441 0.08901678956552245 3.999878534334411 0.01208430612759249 -0.03221615557001287 -10.84289948725459 10.84295408096152
2255 2 -0.004421147847901541 0.001645063201553712 0.09141818244523058 3.999920453868753 0.01619170421487847 -0.03383099541726423 -10.88181762657595 10.88188226207191
2256 2 -0.004524648001958181 0.0008344459625380571 0.09502120600654487 3.999983072194794 -0.004739912293278446 -0.03073758114651321 -10.80278561783508 10.80283038701283
2257 2 -0.005328746153433303 -0.00177252319668016 0.06868537694692838 3.99952326177532 -0.02423461398789233 -0.0008369089196110615 -10.90803067357039 10.90805762693267
2258 2 -0.005447030236083684 -0.001733468200170203 0.07425297327737787 3.999620523605058 0.005841312239820631 0.002782419715112493 -10.89327321469148 10.89327513618852
2259 2 -0.003415965240514567 -0.0008019214050893901 0.07635158670350113 3.999657192617269 0.001068798497284168 -0.002043677549447615 -10.89870239298211 10.89870263699961
2260 2 -0.004269584932554439 -0.00162502541819287 0.07345849014695445 3.999606621615293 0.01585263883255496 0.001206388028115246 -10.90566795553902 10.90567954407247
2261 2 -0.005803984233082819 0.001571241392286776 0.08913237650574637 3.999880541993163 0.03152607635465552 -0.02464185311074958 -10.84296786253865 10.8430416942139
2262 2 -0.003922583636829161 -0.001415607640806691 0.07637871361874933 3.999657665486234 0.001347684280888712 -0.00170982777740883 -10.89870308150686 10.89870329895309
2263 2 -0.00534619363188715 0.001664763513312077 0.08861599937081838 3.999871515236802 0.07872769752174062 -0.01574651118212732 -10.89022322983526 10.89051917947969
2264 2 -0.005740602887686358 0.00149362956988793 0.09325255001433647 3.99995233757766 -0.05609584955020221 0.02027474516262065 -10.7322180807718 10.73238383318791
2265 2 -0.006050399437205559 0.0006066840473409003 0.08764984696547684 3.999854661060105 -0.003211674677190982 -0.05193161715911986 -10.91107076043677 10.91119481757032
2266 2 -0.004374259335662782 0.0009736169893753125 0.06969361599985455 3.999540905942066 -0.08664888456193388 0.0183731495832927 -10.90284203004275 10.90320182028601
2267 2 -0.005028376386505364 -0.001784753209860386 0.07344537783416626 3.999606411511297 0.01497992235322673 0.001042394313338294 -10.90571236875629 10.9057227066666
2268 2 -0.003542081006641888 -0.0002443460733715536 0.06591634713949117 3.999475222999984 0.2999306561046826 -0.1844395640678873 -10.34086327623041 10.34685602726527
2269 2 -0.006080418597384732 -0.0009567292927020216 0.09467063438399628 3.999976980456223 0.01042432986897388 -0.0006860824544075908 -10.80696505435908 10.80697010375714
2270 2 -0.006223164369478579 0.001209526240986622 0.06731390409462842 3.999499293046674 -0.03258063839979215 0.1141400517690499 -10.94714559207724 10.94778909476944
2271 2 -0.006395732892562871 0.001123966132027958 0.08507298037348984 3.999809609402201 0.003849409178296564 -0.005590650088087243 -10.90802924477595 10.90803135667508
2272 2 -0.004161263784338054 -0.00166440909261715 0.06936494230898452 3.999535140926063 0.01189475776249771 -0.00213901591574559 -10.8856847802715 10.88569148911018
2273 2 -0.00605034574421507 0.0006012748309656283 0.08374018338306044 3.999786309880729 -0.0005046574826333721 -0.006729148353015042 -10.90510547090618 10.90510755874075
2274 2 -0.003540064458105392 -0.0002435107916185585 0.09458621355706312 3.999975586503111 -0.07115751352233698 -0.05685180773434934 -10.76617054231859 10.76655579403469
2275 2 -0.006555391407716448 0.0008536814270664231 0.07430537932397259 3.999621442275198 -0.001932417337860843 -0.005935280176824429 -10.90922327107033 10.90922505679711
2276 2 -0.006727288172995913 -0.0003546213264564177 0.06723880963075213 3.999498028641832 -0.07527047920844668 -0.04480566453972096 -10.92206883723769 10.92242010169787
2277 2 -0.004927351964342406 -0.001803233961933317 0.06644448587185503 3.999484103764779 -0.1156519786124244 -0.08938300487440784 -10.94703116789767 10.94800694613592
2278 2 -0.003797743480070087 0.0003505003969617484 0.06993498035968793 3.999545139783927 0.0008025130192134626 -0.06255869644780006 -10.88055340217745 10.88073327364309
2279 2 -0.003930314199826248 0.001416281467275257 0.07842118148975682 3.999693369741125 0.0007487199332579414 -0.002718953395066351 -10.90521992310909 10.90522028776423
2280 2 -0.003419899595348114 0.0007923952796631505 0.07055634356077045 3.999555958284945 0.01789497203466794 -0.01049729049147131 -10.80606902006083 10.80608893584771
2281 2 -0.005168502020608399 -0.001872871218023948 0.08899765120479147 3.999878100156995 0.0002232332057121547 -0.01219246241285025 -10.88419584525734 10.88420267653492
2282 2 -0.006876896432763947 2.04526663348546e-05 0.0843541343642181 3.999797036593328 0.003414144302046306 -0.005658836200202851 -10.90961638792197 10.90961838977074
2283 2 -0.006024431796284183 -0.001417771170819433 0.06868259921491043 3.999523197278703 -0.01134346887977478 -0.01029686220804535 -10.90798440612766 10.90799516428118
2284 2 -0.00643738201129252 0.0009400722554298382 0.06663642401861146 3.999487312127676 -0.1095118122598053 0.05174311377049676 -11.16956554403314 11.17022222828621
2285 2 -0.006402868225474745 -0.001082040722905999 0.06729287525760416 3.999498954079956 -0.07105663648868664 -0.05633355050088427 -10.92246701976136 10.92284341699888
2286 2 -0.003928369668554118 0.001414203336616103 0.08233877148249236 3.999761820819215 0.001755846042154548 -0.002744574158957 -10.90385023320637 10.90385071999233
2287 2 -0.00392790386141311 0.0009981854553751141 0.0658110869178105 3.999473489189357 0.1024833089236029 0.3314671367434555 -10.30483218153116 10.31067115084509
2288 2 -0.006879166185290637 3.291511013530525e-05 0.08825804282549535 3.99986525139077 0.008024337790192862 -0.01555704118848795 -10.8986780300332 10.89869208730368
2289 2 -0.006162950253823546 0.001252252589849431 0.08117205491465272 3.999741439626987 0.0002533505807509949 -0.003260124482280854 -10.90481002298424 10.90481051325403
2290 2 -0.003268333200191957 0.0003990333113518883 0.09095355593662736 3.999912323236599 -0.005109616415165426 0.01124681529849966 -10.94572388978991 10.94573086050227
2291 2 -0.004296781915162433 0.001630306701451785 0.07557734428175865 3.999643676511 0.004644288919581116 -0.004393232056749885 -10.90401365296768 10.90401552704384
2292 2 -0.006581892972506978 -0.0007476959382996145 0.09343298065247271 3.999955465160085 -0.02095176511762484 0.02556121084075801 -10.88340822407189 10.88345840823388
2293 2 -0.006305057441128217 0.001205278133454136 0.07713229346304711 3.99967084850696 0.001141436215318952 -0.002438960045784238 -10.90621432512075 10.90621465756437
2294 2 -0.003925096665095857 0.00141561036038964 0.07420874946577281 3.999619753520174 0.006316380113716599 -0.00661554021411763 -10.90834123939525 10.90834507416781
2295 2 -0.003334898258033833 0.0006997698741892702 0.09382452369760513 3.999962463019841 -0.08067261630822163 0.02946538794361479 -10.71837926013403 10.71872334954961
2296 2 -0.003932309343655717 0.00141830967052383 0.08629417312409712 3.999830909151272 0.006765051500712771 0.001332649658170099 -10.89671611363278 10.89671829510983
2297 2 -0.005012907796551992 -0.001790703978909561 0.07131578398319567 3.999569187903676 -0.003677541539621104 0.0006424259856919101 -10.89989051341844 10.89989115273783
2298 2 -0.004290978283736006 0.001611777611458883 0.07017991895055045 3.999549385452483 -0.08174500639688871 0.02750529911373923 -10.88748572692755 10.88782734256938
2299 2 -0.003542081006641292 0.0004207607475555604 0.06591634713949079 3.999475296483522 0.2969691938754297 0.07102740158810611 -10.27974512476805 10.28427904250366
2300 2 -0.004272580346375415 0.001052537010076834 0.08173891909098059 3.99975133991499 0.001780672938157627 -0.002740508217744984 -10.90378638635917 10.90378687615147
2301 2 -0.006554099426449483 0.0008647187403445448 0.0784811729319885 3.999694418694943 0.0004793300108776257 -0.00297989275654497 -10.90483335921705 10.90483377689963
2302 2 -0.00392685195742124 0.001000550826219021 0.09466517039240868 3.999976920650408 -0.001342415854865756 -0.03160772086456338 -10.80410237497967 10.80414869293921
2303 2 -0.005123041831351276 0.001725835549454199 0.07055893456714911 3.999555918112841 -0.04052701950763345 0.01357746627912385 -10.90451488431908 10.90459864686624
2304 2 -0.004208523940207998 -0.00162650868556393 0.06683040788292331 3.999490865854267 0.0937691850388965 -0.05668173107960706 -10.82757492119735 10.82812930070762
2305 2 -0.004296939217663115 0.001629769118037229 0.08703247366147587 3.999843800107472 0.004858044791028845 0.002477213728155404 -10.89280672663225 10.89280809162411
2306 2 -0.004254819527208535 -0.001630532173440664 0.07127879383694416 3.999568546419387 -0.004124197833425433 0.0005412980052200387 -10.89988059829001 10.89988139196892
2307 2 -0.006291399685510726 0.00122173144385807 0.08702770819095268 3.999843804743572 -0.002581493693533601 -0.0255734080845003 -10.94819033245167 10.94822050467102
2308 2 -0.003344355048109098 0.0007076854794679248 0.06665462838949079 3.999487587820109 0.253961593712924 -0.1037302271471225 -10.67145437914147 10.67497986027153
2309 2 -0.003730177902880914 0.001285110187287479 0.0665493681678105 3.999485780525944 -0.0285185815376507 0.2380445006121728 -10.76855081018994 10.77121929242029
2310 2 -0.005158941509081102 -0.001876843045703337 0.08510126126542972 3.999810075488174 0.01159705112139379 -2.516751274512477e-05 -10.90175401360133 10.90176018197524
2311 2 -0.004225295832387966 0.001602386761770488 0.07140664085281104 3.999570767006938 0.04276977085672534 -0.01333948474422133 -10.92029816839979 10.92039007004366
2312 2 -0.003541029102649423 0.0004231261183994668 0.09458450896931325 3.99997555961564 -0.07250993121056327 0.06296449472083233 -10.79481005311591 10.79523720446067
2313 2 -0.006548761906311601 0.0008728718551739067 0.08239707568797265 3.999762842103809 0.0005149214591348241 -0.003589140886715077 -10.90467640603253 10.90467700885079
2314 2 -0.006412838887121158 -0.0001444675238566671 0.06580637293556579 3.999473320702553 -0.3588895942101254 0.2905274033617846 -10.30088064889151 10.31122446926863
2315 2 -0.00620385051879137 -0.001315351379705876 0.09386371208680944 3.999962978217666 0.00180216074738877 -0.01268411415513592 -10.85171728469722 10.85172484730109
2316 2 -0.004274055186162534 0.001054529607872061 0.07978817702733051 3.999717255119969 0.0004819714240148864 -0.002413355597507096 -10.90522743090243 10.9052277085941
2317 2 -0.004297202402565471 0.001630383202152301 0.07705489388412877 3.999669496233798 0.0004434073480623449 -0.003649499664871042 -10.90480221739815 10.90480283710024
2318 2 -0.006561715590883241 0.0008377626744601915 0.07077658774293172 3.999559720895677 0.009494851387090168 0.04646514380981388 -10.91544906439603 10.91555209044491
2319 2 -0.003720721112805651 0.001277194582008824 0.09390518512070056 3.99996382405461 -0.0234010261354847 -0.04183566726223569 -10.73402059320978 10.73412762764312
2320 2 -0.004972616057837561 -0.001801365761401179 0.09408805146903471 3.999966990776863 -0.06152351588134509 0.05951973987190921 -10.73870608710783 10.73904726536425
2321 2 -0.006735171335786737 0.0001419415768981395 0.06653782566009472 3.999485623909771 -0.07893994315679427 0.1364759910990422 -11.15276090694501 11.15387524846199
2322 2 -0.003729841856202129 -0.001336105602496386 0.06650168322240799 3.999485054386756 0.1767529058422681 0.009100814191342409 -10.90660869397352 10.90804462852997
2323 2 -0.003859811549237016 0.001389360450495399 0.07066737706038383 3.999557891483873 0.003533134372781793 0.00638825840701915 -10.80602161068301 10.806024076571
2324 2 -0.003929948812226049 0.001416272216056188 0.07631661463604637 3.999656592013883 0.002316544942573669 -0.004041722513927142 -10.90789001534702 10.90789101012696
2325 2 -0.005338464581174787 0.001037165636108286 0.08397216427051049 3.999790365561565 0.003348165124244417 -0.00497793206817474 -10.90396797713385 10.90396962745118
2326 2 -0.003279844703808819 -0.0007618704598577482 0.08040818394670569 3.999728086597618 -3.392536647450629e-05 -0.0003686501163776065 -10.90310199223233 10.90310199851742
2327 2 -0.005233521908245688 -0.0002035374468601228 0.06506982861310487 3.99946178498281 -0.1585656165927648 -0.07197619256297687 -10.34750867858044 10.34897383706998
2328 2 -0.006554799960383219 0.0008592969158900362 0.07640007333208185 3.999658050927766 0.0007056099651550942 -0.002695931691938519 -10.9070152392041 10.90701559521043
2329 2 -0.005231505359709188 -0.0002027021651071212 0.09543273208344943 3.999990172616949 0 0 -10.81246635608027 10.81246635608027
2330 2 -0.005226508844991921 0.001653338897742786 0.08482587424948451 3.999805278819593 0.003206362070469384 -0.003347201594447636 -10.89566392431272 10.89566491023315
2331 2 -0.00607459132452979 -0.0009610693769044051 0.06583371392894113 3.999473887307866 -0.1334922909114094 -0.3285022675217609 -10.31879501455882 10.32488568866424
2332 2 -0.003167819685488893 -0.0004410285078114576 0.06929453665623092 3.999533852844916 0.05796812002707873 0.01610955057695245 -10.96885774889957 10.969022752103
2333 2 -0.003344355048109807 -0.0007588202043593848 0.06665462838949117 3.999487569075353 0.2184698273197085 0.0670502286194271 -10.8909486890288 10.89334604911022
2334 2 -0.005122842312580218 0.001749391128493718 0.08728075213330125 3.999848190952951 0.07769412718840898 -0.01073310381832684 -10.89312867098294 10.8934110277501
2335 2 -0.004671795103318964 2.913741408902944e-05 0.06506982861310487 3.999461794652787 0.1446785408044362 0.05363165012616433 -10.35348071951252 10.35463042524368
2336 2 -0.006309153701551669 0.001200815363440312 0.07568273077435513 3.999645517113911 -0.0005560554444858903 -0.003685269321304939 -10.90441208009549 10.90441271701232
2337 2 -0.005058110752840605 0.001717342408603026 0.07129248659881898 3.999568760130477 -0.04151942430560013 0.01172460390059429 -10.93730375183412 10.93738884235246
2338 2 -0.005444579541947074 -0.001785859020902578 0.06689076189031919 3.999491880116421 -0.05548465962272998 -0.09667352733967857 -11.00076049588244 11.00132518409075
2339 2 -0.006361845212421917 0.001411370347638697 0.09497988659316126 3.999982243180839 -0.01623265573959999 -0.02206295524618359 -10.86278134766253 10.86281588172384
2340 2 -0.005582740319705105 0.001654468212074731 0.08678297637828605 3.999839514366435 0.01886799512839075 -0.0112989516389911 -10.94822709860619 10.94824918743647
2341 2 -0.006647576963190831 0.0007829726904117142 0.08435077519270687 3.999796983958414 0.003105319999897602 -0.006211236381384487 -10.90961385795685 10.90961606804721
2342 2 -0.003812024708760519 -0.001453865723248722 0.06860066035446262 3.99952173610294 0.05322291614698715 0.01042239439415001 -10.97068169931057 10.97081575146972
2343 2 -0.004669778554782464 2.997269584203107e-05 0.09543273208344943 3.999990172616949 0 0 -10.81246635608027 10.81246635608027
2344 2 -0.006072503825674199 -0.00140207967259918 0.06661923228032213 3.999487115953208 -0.03241213672483502 -0.1085837369541064 -10.9982131429635 10.99879690296139
2345 2 -0.005102292036450541 0.001170958430990433 0.08200091474548624 3.99975592006901 0.001543649992696928 -0.002712297340221918 -10.90386257559903 10.90386302220279
2346 2 -0.006355876537892263 0.001108953801714058 0.09364142636459094 3.999959020484879 -0.02701610313093057 0.03070698642268702 -10.79286281430958 10.79294030917201
2347 2 -0.006854986630551293 -0.0003986362998474139 0.08508830164128003 3.999809864725632 0.003253472235600652 -0.006843080692548107 -10.90759884928109 10.90760148106233
2348 2 -0.005580581714243582 -0.001810014059584622 0.0882673039285331 3.9998653580975 -0.004740403429550888 -0.01237393439918476 -10.89260294194338 10.89261100179892
2349 2 -0.005592051795533463 0.001647187997302736 0.0773566183257349 3.999674769379892 0.0008760541790281063 -0.002620540232410565 -10.90622375056443 10.90622410058026
2350 2 -0.004286370725740559 -0.001630651903754413 0.0908277723186237 3.99991001947626 -0.04065520371688745 -0.0367626861197239 -10.84179831855835 10.84193687128709
2351 2 -0.005131394892265058 0.001744026271249575 0.07537395610942653 3.999640126044129 -0.000672548266556825 -0.003436297107948714 -10.90402687715359 10.90402743935226
2352 2 -0.003313168806582668 -0.0008417279392616237 0.06855625540623092 3.999520898707276 0.05763146873807208 0.01507059738943712 -10.97069400739336 10.97085573293857
2353 2 -0.006647475125273789 0.0007911579039514055 0.08825670321940535 3.999865273003085 -0.01342563206630614 -0.05339003039776646 -10.89855279536091 10.89869183784051
2354 2 -0.005601529609815631 0.001666713014265433 0.06736088813894506 3.99950004008535 0.008494043081865441 0.136266101644486 -10.93791457495536 10.93876665114702
2355 2 -0.005103313154453625 0.001171903417433341 0.08004985255689923 3.999721829266553 0.001243831957570166 -0.002435480677088174 -10.90545189248261 10.90545223537
2356 2 -0.005110037267264691 0.0019293568769961 0.06539705171374099 3.999465942599818 0.0002529235761534556 1.141601321195928 -11.0032661605008 11.06232886147165
2357 2 -0.003728556959753053 -0.001335573336826171 0.09401622445329397 3.999965711181808 0.01911641645475272 0.0568150630371629 -10.81606982309175 10.8162359352393
2358 2 -0.003920142194395623 0.001385796833108139 0.06834749744717232 3.999517237433146 0.03434788496418829 -0.02593252780091762 -11.10566348445393 11.10574687732136
2359 2 -0.006282828119747234 0.001227100328441621 0.09080869771954965 3.999909874580049 0.05677530075209528 0.01778179463864802 -10.99037291216698 10.99053394405794
2360 2 -0.005129824297849046 0.001745471960748184 0.07684292327365078 3.999665793102368 -0.000324656796220526 -0.003511155132959049 -10.9047895468265 10.90479011692517
2361 2 -0.004246041426219815 -0.001627910457307732 0.09371774215438097 3.999960592601402 0.03191998646084644 0.06697924328156467 -10.80427488329957 10.80452964540633
2362 2 -0.005193415500969195 0.001715247984569341 0.06861742627950301 3.999521977901554 0.02099354314033384 0.03986723376455304 -10.96656005443243 10.9666526138405
2363 2 -0.005614631403616879 -0.001701299595596549 0.09360502452561703 3.999958554546322 -0.1177992823701626 0.06815960871375878 -10.79131799706422 10.79217617151189
2364 2 -0.004211089185788703 0.001566963995856893 0.09346081830767772 3.999956119508335 -0.08500751600042412 -0.003037661297020871 -10.79882249955433 10.79915750797457
2365 2 -0.003134908920000091 -0.0003616663265299446 0.08112671010848828 3.999740639449074 0.0001077618331149994 -0.0001501417344445397 -10.9026966431584 10.90269664472476
2366 2 -0.003279535599681445 0.0008395655929204562 0.08038659150117483 3.999727710360839 -0.0003709184677938439 -0.0005294644065132066 -10.90424741543539 10.90424743459825
2367 2 -0.005064700702068749 -0.001778965948243774 0.09082283651830513 3.999909887728495 -0.01980859936974988 -0.03286936563080737 -10.84165562434529 10.84172354622197
2368 2 -0.00510330162113259 0.001932676171988471 0.09497988659316126 3.999982315942125 -0.08265987838000388 0.01258451910617819 -10.81814156186934 10.81846467287571
2369 2 -0.004291332321084587 0.001629534380502441 0.0734704683876093 3.999606863384451 0.01162389370579849 -0.00988444281071863 -10.8974599241155 10.89747060628373
2370 2 -0.006368580858554018 0.001408051052646326 0.06533514268097766 3.999464867865839 -0.8511122195453461 0.615763752814566 -10.95081618178826 11.00108776698264
2371 2 -0.00423985913635016 0.001577252489446526 0.06697347391027014 3.999493126901167 0.1274568308208422 0.1334867475240623 -10.92791433421443 10.92947279842064
2372 2 -0.005558112712245037 -0.001816107641094546 0.08436816933401323 3.999797265742941 0.002994571004278875 -0.0005486387826776941 -10.91657108062817 10.9165715051415
2373 2 -0.006276001156855968 -0.001434075207307202 0.08826490338353699 3.999865326102368 0.006945358543101127 -0.01726857028294977 -10.89253676503357 10.89255266772361
2374 2 -0.006316941836009527 0.001184438971209073 0.07148559532809239 3.99957211824866 -0.001925314958306394 0.03735197161765916 -10.95706620812903 10.95713004239452
2375 2 -0.003342338499573153 -0.0007579849226061994 0.09384793230706312 3.999962815732902 -0.06870917234936864 -0.06462181301774747 -10.78317883055814 10.78359136006552
2376 2 -0.006547966857504156 -0.001132208389652667 0.08509194443450929 3.999809925074779 0.0002097367265801755 0.003044285229262263 -10.90764991250072 10.90765033934161
2377 2 -0.005597183684612247 0.00164508054444986 0.07590125585323625 3.999649338415582 -0.0002998556288167878 -0.003509960220894797 -10.90442402241467 10.90442459143757
2378 2 -0.005601049349826744 0.001632791116621097 0.07170080366704669 3.999575894421685 -0.02770926069621748 0.02017834741982247 -10.95753211189452 10.95758572642863
2379 2 -0.004351308928894657 0.001608213994071674 0.06884441433733894 3.999526012467706 -0.08123979589972953 0.03036023233096241 -10.96011675218334 10.9604598840393
2380 2 -0.003134186478587805 0.0004388661614704516 0.08112487275117483 3.999740608296214 1.129508423584369e-05 -0.001360043991421515 -10.90269655848318 10.90269664331757
2381 2 -0.006259560563183597 -0.001446326487289371 0.08436141988286608 3.999797151847105 0.003708213445979482 -0.0008406773871829581 -10.91656588478758 10.91656654697316
2382 2 -0.006303098158806746 0.001209891427658726 0.07921326907616261 3.999707212609545 0.0003503715187119529 -0.003155530943685372 -10.90524203672036 10.90524249888963
2383 2 -0.005129044590007598 0.001741501344578717 0.0732514687678642 3.999603034449499 -0.01891321990735472 -0.004402123426106803 -10.8974879239947 10.89750522560958
2384 2 -0.003314642620840412 0.000761101120486009 0.06855343567832677 3.999520846070809 0.03043040411767884 -0.02259280470384071 -11.10568557212373 11.10575024350883
2385 2 -0.004295737963607553 0.001629069283034638 0.08307709671646005 3.999774724361504 0.002981277603784136 -0.003556472207581794 -10.90627878818255 10.9062797755271
2386 2 -0.00631204426702807 0.001195255217943173 0.07356962877480501 3.99960857999375 -0.0001727416161070826 -0.002665504191586775 -10.91517750811459 10.91517783494171
2387 2 -0.004297098098680658 0.001630306920507447 0.07915755866692467 3.999706238258492 0.0005733545622039767 -0.002603359049813094 -10.90489262587565 10.9048929517025
2388 2 -0.005450796722814829 0.00169011425859165 0.08138806585288226 3.999745215010609 0.001362700558657238 -0.002137128759727388 -10.90482130901665 10.90482160357774
2389 2 -0.004999145398581838 0.001735506591300018 0.06674531709569143 3.999489191803941 0.04160370249025609 0.1492457334168163 -10.97797865796862 10.97907193581582
2390 2 -0.006296031721503615 0.001215993396102895 0.08312855622520993 3.999775627145964 -0.0004846383445960845 -0.004941529294676708 -10.90761065700148 10.90761178711079
2391 2 -0.00341448291621997 0.0008006891410617878 0.09021531294384878 3.9998993732941 -0.00368345824811931 0.0073071581573663 -10.93843159469089 10.93843465556919
2392 2 -0.004988590860130026 0.001786584051859066 0.08087906707712091 3.999736320659016 0.001234133043783821 -0.002229376062037561 -10.90464924245237 10.90464954017868
2393 2 -0.003169293499746751 0.0003604016890359796 0.06929171692832677 3.999533854947231 0.06655794214448466 -0.09298343664064436 -10.96885775464875 10.96945378407102
2394 2 -0.005590208527847451 0.001649691618060693 0.07943780744638489 3.999711137224444 0.001270997324804921 -0.002534176994426403 -10.9052577746967 10.90525814321101
2395 2 -0.006107376271681034 0.002040869184643696 0.09267101749175036 3.999942253734126 -0.09368381571277536 0.08951509570833975 -10.77085659301489 10.77163596474456
2396 2 -0.004914095620487366 -0.002003791708639868 0.09530813271088456 3.999988061397235 -0.05927747594863721 0.0140088564663428 -10.76706190387437 10.76723419031448
2397 2 -0.006859663409957466 -0.0003864838189660374 0.08891763459695326 3.999876755000967 0.007513750372884318 -0.01900513224486943 -10.89273461473813 10.89275378582526
2398 2 -0.004905617360916608 -0.002006758664833027 0.06519160157184854 3.999462454638197 -0.1208864586140646 -1.28306663663877 -11.15070042713501 11.22492732919197
2399 2 -0.002938893419712418 -0.0002187787109263662 0.0653465185263863 3.999464610021157 1.916038955479313 -0.183226913193526 -11.46705070494112 11.6274687378777
2400 2 -0.005128204149895434 0.001746428794595112 0.07893003616489858 3.999702264182775 0.0009437167404947497 -0.002672370287617892 -10.90488218979754 10.90488255808048
2401 2 -0.002938893419712423 -0.0002187787109263727 0.0951534814736137 3.999985413886162 -0.0188409156801606 -0.05681270680970253 -10.72973903069133 10.72990597957409
2402 2 -0.005124727212262602 0.001746624329058784 0.08284506751365225 3.999770673168267 0.001517863222735854 -0.003285802261689675 -10.90626688454315 10.90626748513385
2403 2 -0.005597421911121492 0.001641296894263706 0.07378636167369559 3.99961237411835 -0.001680843585351064 -0.003717481205809828 -10.91517509893863 10.91517586140469
2404 2 -0.005584150558463332 0.001651884201245553 0.08336053711265996 3.9997796828268 0.002801785362593658 -0.002743889492523523 -10.90764732584927 10.90764803081019
2405 2 -0.005784420504602362 0.001797193202410512 0.09539141267006582 3.99998941636428 1.082692878763281e-15 -2.165385757526561e-15 -10.85392962184083 10.85392962184083
2406 2 -0.003791668106744982 0.001454289863661605 0.08038384477260568 3.999727664126962 0.001309997242917151 -0.002134900388821393 -10.90425260283699 10.90425289051798
2407 2 -0.005290347867432396 0.001766676564146698 0.09039055071179923 3.999902491104314 -0.01269754001353487 -0.01795205735861611 -10.93361310677017 10.93363521764021
2408 2 -0.005791156150734464 0.001793873907418141 0.06501012443542128 3.999459091240268 -0.41744334424095 1.205191367171861 -11.22398297654284 11.29621790843644
2409 2 -0.00636874735978126 0.0007301973579313171 0.09558847392309544 3.999992826816559 0 0 -10.87902490256705 10.87902490256705
2410 2 -0.004972044687971674 0.001738818368825317 0.09361221624945165 3.999958632468413 -0.09086815810321862 -0.001765774597465561 -10.79564328177188 10.79602584321579
2411 2 -0.005432679044860046 -0.001545103455831383 0.09563202806465373 3.999993627405251 0 0 -10.80879013908108 10.80879013908108
2412 2 -0.005626516752791522 0.00166422082561102 0.0908497119931833 3.999910552293239 0.01997973467048915 -0.006569938931345535 -10.99002796310611 10.99004808832743
2413 2 -0.006559414177465313 -0.001120062384796067 0.08892077040235671 3.999876784835614 0.007012123260309645 -0.01734255935104111 -10.89273864934672 10.89275471206477
2414 2 -0.003652905089066931 -0.000887769008044438 0.09564566897361371 3.999993875343086 0 0 -10.78817768318582 10.78817768318582
2415 2 -0.003652905089066927 -0.0008877690080444315 0.0648543310263863 3.999457119788712 1.085645591144561 -0.4650752300958106 -11.24259934852544 11.30446643723997
2416 2 -0.007059748514099951 -0.0001186653312382233 0.09519434815898856 3.999986007250582 0.0231458205593548 0.06719834138762637 -10.83727520896954 10.83750826071382
2417 2 -0.005424932437376866 -0.001548373428107513 0.06485235923893172 3.999457002344497 -0.4840838728843115 -1.197231569358905 -11.40880850090568 11.48166416670484
2418 2 -0.004548476963565209 0.001484178043230243 0.06488692727831971 3.999457586360456 0.3052879243763668 1.095159014801137 -11.19750918319194 11.25507822683335
2419 2 -0.006924168330613722 0.0005622187220582969 0.09558847392309544 3.999992826816559 0 0 -10.87902490256705 10.87902490256705
2420 2 -0.004036956196156079 0.00175814114559881 0.06488692727831971 3.999456461781416 1.025530381276491 1.492350163758551 -11.5938829966494 11.7344341369402
2421 2 -0.004158610450418509 0.001668343867407916 0.08110774169023875 3.99974031403579 0.00151184844443825 -0.002218466812532316 -10.90466000742908 10.904660337897
2422 2 -0.004548476963565209 0.001484178043230243 0.09558847392309544 3.999992899577845 0 0 -10.76867355732289 10.76867355732289
2423 2 -0.003121951681470827 -0.0006607204491679591 0.0648543310263863 3.999455960178609 1.900364287582027 -0.2304792934911514 -11.51561217051871 11.67363819860989
2424 2 -0.005960920768022362 -0.00176326660747263 0.06485235923893172 3.999455904639984 -0.9779526753772385 -1.470271160295537 -11.70717192174566 11.83959303039527
2425 2 -0.00636874735978126 0.0007301973579313171 0.06482501824555638 3.9994565019565 -0.9372716736780992 0.4986546225380608 -11.05976785047152 11.11060752295667
2426 2 -0.003121951681470831 -0.0006607204491679655 0.09564566897361371 3.999993875343086 0 0 -10.78817768318582 10.78817768318582
2427 2 -0.002938893419711823 0.0004463281100007478 0.06534651852638593 3.999464683504694 1.999844458237958 0.06947924400850322 -11.46705091502685 11.64033770602517
2428 2 -0.002939858064256453 0.0004478581990916525 0.09515177688586382 3.999985386998691 0.02107385462675546 0.06354588835195281 -10.72973895877348 10.72994782422993
2429 2 -0.003508739180786677 0.001467224645152798 0.09523243830895928 3.999986748033459 0.01436310806720085 -0.0070035639675351 -10.77803966514159 10.77805151092474
2430 2 -0.00596866737550554 -0.0017599966351965 0.09563202806465373 3.999993627405251 0 0 -10.80879013908109 10.80879013908109
2431 2 -0.003695316817533392 -0.001578829105719097 0.06519357335930312 3.999462562412436 0.8749173169046955 -0.8062307383286534 -11.08541017093339 11.14907202293891
2432 2 -0.006546189297233357 -0.001373938950251425 0.09523790230054685 3.999986807839274 0.007194900320000182 -0.003611238208528987 -10.80366108181687 10.80366408115304
2433 2 -0.006924168330613722 0.0005622187220582969 0.06482501824555638 3.999455035552359 -2.476045666217757 0.0537935164540646 -11.97872686424904 12.23207231714601
2434 2 -0.003507774536242047 0.001465694556061893 0.06524125830470563 3.999462915227115 0.9597536451517225 1.524426621092652 -11.63960278660375 11.77817288939128
2435 2 -0.004036956196156079 0.00175814114559881 0.09558847392309544 3.999992899577845 0 0 -10.76867355732289 10.76867355732289
2436 2 -0.003696048469620975 -0.001579132121802075 0.09532177361984454 3.999988309335069 0.03059122116457346 0.04952477961303878 -10.76534165729139 10.76549903742605
2437 2 -0.006538345475841915 -0.001377443752700807 0.06526388531583627 3.99946333623463 -1.308068136667489 -1.30458444188145 -11.45352222456041 11.60155826450323
2438 2 -0.007059651300191688 -0.000118900161411475 0.06523654432246093 3.999462404915209 -2.49616588832887 -0.004607418514221646 -11.9328277539789 12.19111330340635
2439 2 -0.00312195168147023 0.0008882698482423396 0.06485433102638592 3.999455678447235 2.270405288608102 0.8853390215167517 -12.15957497570346 12.4013639954367
2440 2 -0.004224498477446833 -0.001871275695255067 0.06483924233291682 3.999456178122089 0.4910481701882261 -1.427681139474083 -11.56238292835535 11.66053603928132
2441 2 -0.00692416833061373 -0.0008000190448812496 0.06491152607690456 3.99945636267851 -2.702803333039207 -0.604540613577789 -12.25759914692887 12.5665966775951
2442 2 -0.00312291632601486 0.0008897999373332442 0.09564396438586384 3.999993848455615 -2.165388149967087e-15 1.082694074983543e-15 -10.78366092583188 10.78366092583188
2443 2 -0.006924265544521994 -0.0007997842147079979 0.09560587423589312 3.999993180434023 0 2.165387789369392e-15 -10.7993431614984 10.7993431614984
2444 2 -0.004225230129534412 -0.001871578711338038 0.09567610464623083 3.999994433991983 0 -1.082694233019651e-15 -10.72542911697768 10.72542911697768
2445 2 -0.003980146506315905 0.001422866117861554 0.09049596687961102 3.999904306336315 0.01901689148551078 -0.01961205146199162 -10.9385342861481 10.93856839828511
2446 2 -0.004466572922250657 0.001647129959010656 0.09011847390909025 3.999897711981885 0.01884972717738793 -0.01955681088336111 -10.93867253685321 10.93870626032042
2447 3 -0.005231762745781208 -0.002764877161664096 0.064375 3.111769059093072 -0.2234447924808899 -3.879945861606231 -2.214239337737326 4.472892052024683
2448 3 -0.005231762745781211 0.002764877161664095 0.064125 2.200222124494946 0.2706389801746763 -3.736733304467334 -3.044788388929326 4.827748707178554
2449 3 -0.003277591031954394 0.002038014802923904 0.064125 2.456934877976303 -3.132826182709076 -3.411282314856 -8.364211638289349 9.560935270820101
2450 3 -0.006722408968045608 -0.002038014802923901 0.06425 2.618193054231266 2.277318332067501 0.310627636331804 -8.364216047196878 8.674259530254416
2451 3 -0.003487770024414778 0.002309365451903678 0.06425 2.864976494457466 1.088061604569602 2.398271323891962 -2.849937976381374 3.880429082918775
2452 3 -0.003112770024414777 0.002036912003901668 0.064375 3.186775238913068 1.758710548024931 2.917733207473336 -1.970224596314299 3.935481523479514
2453 3 -0.006887229975585222 -0.002036912003901669 0.064375 3.064896742307119 -2.223722802374051 -3.175725885270368 -2.46004494718788 4.591513818160541
2454 3 -0.006512229975585222 -0.002309365451903678 0.064125 2.178935975815208 2.29637263327151 3.158425883422537 -2.214239337737326 4.489079769473382
2455 3 -0.00311277002441477 -0.002036912003901662 0.064125 2.182802240868551 -2.186584668702864 3.069919977252324 -2.55209311317124 4.551784313698903
2456 3 -0.00348777002441477 -0.002309365451903674 0.06425 2.443119347089686 -1.806736047620109 2.775702142259826 -3.050353667560358 4.502607580670855
2457 3 -0.004088040156576465 -0.0007822641564568732 0.064375 3.315151615888206 2.658043263988677e-06 -1.138668173302697e-06 -8.364266539009247 8.364266539009746
2458 3 -0.005091708699744782 -0.001197997279164433 0.06425 2.630851708508245 -6.903374465929373e-07 -3.048196367364064e-06 -8.364266539009247 8.364266539009831
2459 3 -0.006887229975585224 0.002036912003901666 0.064125 2.192054789937032 2.172070144830279 -3.129430024475185 -2.550938584258073 4.584594709765125
2460 3 -0.006512229975585225 0.002309365451903678 0.06425 2.466090841313095 1.795584056028104 -2.837816692731546 -3.044788388929327 4.532997023732421
2461 3 -0.005860901681129245 0.0006589988485761569 0.06425 2.630851602571246 -1.516992754762712e-06 2.278017485733495e-06 -8.364268691984018 8.364268691984465
2462 3 -0.00485723313796093 0.001074731971283714 0.06425 2.630851723882704 -1.270087146305212e-06 2.98849464533719e-06 -8.364268691984018 8.364268691984648
2463 3 -0.003277591031954392 -0.002038014802923903 0.064375 2.882993252164288 2.260756154898029 -2.822720586943564 -8.364227490494246 9.112577649414243
2464 3 -0.003834191603142668 0.001622658176020848 0.064125 1.946557308638327 -8.154524022888265e-06 -1.066588477356699e-05 -8.364211638289351 8.364211638300127
2465 3 -0.006163685361035773 -0.001627783637894666 0.06425 2.630853643950959 4.095667947717163e-06 1.206860330666963e-05 -8.36421604719688 8.36421604720659
2466 3 -0.006722408968045603 0.002038014802923908 0.064375 2.893399473767112 -2.276170620560252 2.766472828718595 -8.364230814888101 9.099158297923143
2467 3 -0.003740145010738774 -0.0009971573358219937 0.06425 2.630854089127031 -1.440758166875806e-05 -6.052661733329202e-06 -8.364227490494248 8.364227490508847
2468 3 -0.005185755292148685 -0.00159594872028796 0.064125 1.946553851155137 2.360989902304675e-06 7.49966295235906e-06 -8.364230662987195 8.36423066299089
2469 3 -0.003900161828606221 -0.0004414408980427359 0.064125 1.946555124535327 -8.425836824536791e-06 3.631312420639933e-06 -8.364262885405008 8.36426288541004
2470 3 -0.005465557176701262 -0.001089848881699447 0.064375 3.315151582021616 -1.185208068942753e-06 -2.931245174400348e-06 -8.364264957771546 8.364264957772143
2471 3 -0.003026133341384265 -0.0003281670387039285 0.064375 3.315154227796101 4.652763289508949e-06 -5.642947527245093e-07 -8.364206265339156 8.364206265340469
2472 3 -0.006071124536514287 0.0003721200512916447 0.064375 3.315151648238933 -2.294771941365583e-06 1.220882556002689e-06 -8.364264957771544 8.364264957771947
2473 3 -0.00478765410879339 0.00153175333541069 0.064125 1.946554054023021 -2.931507412906698e-06 -7.785552871859089e-06 -8.364228375424796 8.364228375428933
2474 3 -0.004505729188419248 0.001020528034948354 0.064375 3.315151779220368 7.474524124942901e-07 2.681335166958042e-06 -8.36426288540501 8.364262885405473
2475 3 -0.006626545507346749 0.0002041414154186246 0.064375 3.315150181834792 -6.062236124928099e-06 1.317055671404023e-07 -8.364264957771546 8.364264957773743
2476 3 -0.004276133341384259 0.001805716437779257 0.06425 2.630853061615547 -2.019044484112065e-06 -7.282357825996814e-06 -8.364228375424796 8.36422837542821
2477 3 -0.003994208421010118 0.001294491137316921 0.064375 3.315150654641328 2.510860440852736e-06 3.65380008147016e-06 -8.364262885405008 8.364262885406184
2478 3 -0.00572174362279418 -0.001810841899653077 0.064125 1.946556884302364 7.518110073774599e-06 1.035082359885357e-05 -8.364230662987195 8.364230662996979
2479 3 -0.006001545507346757 -0.001304742061064564 0.064375 3.315150484317104 -2.394373752318397e-06 -3.599743386035072e-06 -8.364264957771544 8.364264957772662
2480 3 -0.006233264390203296 0.000932961950944727 0.064125 1.946553791037049 6.74415409134834e-06 -3.775695424142098e-06 -8.364230814888101 8.364230814891673
2481 3 -0.005581099796576663 0.001402899009987644 0.064375 3.315150679663242 -1.022048016977269e-06 2.950732030520209e-06 -8.364268691984018 8.3642686919846
2482 3 -0.006971743622794169 0.0003230415768301164 0.06425 2.630853978903662 1.331925272740067e-05 -7.89636997430756e-06 -8.364203797828313 8.364203797842645
2483 3 -0.003209191603142674 -0.0007701087769455214 0.06425 2.630857860645031 -3.897106545562361e-06 -3.026203149087988e-06 -8.364227490494246 8.364227490495701
2484 3 -0.003369208421010122 -0.0002143923391662634 0.064125 1.946558896053326 -1.523575338702508e-05 1.670418151506942e-06 -8.36426288540501 8.364262885419054
2485 3 -0.004369965076950611 -0.001521038855994538 0.064375 3.315150852315017 1.202259372276884e-06 -3.49546772549365e-06 -8.364266539009249 8.364266539010066
2486 3 -0.006115646222264402 -0.002222175863704545 0.064375 3.057047409222152 -0.8863538697315593 -2.139845352581573 -8.36421604719688 8.67897870717165
2487 3 -0.005905467229804015 -0.002493526512684321 0.06425 2.617790330806094 -1.719720377222193 0.04769670055010285 -2.214239337737326 2.804027281582695
2488 3 -0.003884353777735602 0.002222175863704549 0.064125 2.121442064556013 -0.6005623771005921 -1.449876814969548 -8.364211638289353 8.510161824399699
2489 3 -0.002884353777735604 0.001324722415702538 0.064125 2.282053667515199 -3.118644852702086 -1.291783609403147 -8.364211638289353 9.019683306020388
2490 3 -0.002719532770195987 0.001323619616680302 0.06425 2.778734022988779 1.731887758234054 -1.091119855700218 -1.970224596314299 2.841084776374349
2491 3 -0.002701295515977197 0.0008827806774609466 0.064375 3.127537715832547 1.744021800057049 0.7223973477692563 -8.364206265339156 8.574579664116317
2492 3 -0.006788685361035759 0.0007649833150717067 0.064125 1.946557633773605 1.562268565405672e-05 -1.208904659327172e-06 -8.364230814888099 8.364230814902777
2493 3 -0.004599560923985594 -0.0001723437823422556 0.064375 3.315152385252334 3.542236762251704e-07 1.313090399183216e-07 -8.364266539009245 8.364266539009254
2494 3 -0.005161287728912316 -0.0004050186432914078 0.06425 2.630852548915335 2.124552679241586e-07 7.258664242795095e-08 -8.364266539009249 8.364266539009252
2495 3 -0.005953462505650715 0.001676862112356214 0.06425 2.630852868129045 3.557931552116204e-06 -8.106316760348974e-06 -8.364230814888105 8.364230814892789
2496 3 -0.005511520767409123 0.00185992037411462 0.064125 1.946555976444657 3.11647913597769e-06 -8.70632609062004e-06 -8.364228375424798 8.36422837542991
2497 3 -0.00226823725421879 0.000440838939219355 0.06425 2.282273431492897 -1.76944073057859 -0.984300671340012 -2.85778198571908 3.502382930025125
2498 3 -0.00241147450843758 0.0008816778784387108 0.064125 2.239200990322428 -1.76944073057859 -1.23596780825868 -1.970224596314299 2.922382911598701
2499 3 -0.002411474508437575 -0.0008816778784387048 0.06425 2.316945842285803 -2.075129603126431 0.8956835787291276 -2.55209311317124 3.409045497096328
2500 3 -0.002268237254218788 -0.0004408389392193527 0.064125 2.019254360271263 -1.769440730578588 0.8830374052981197 -2.857781985719081 3.475283216672652
2501 3 -0.005324913350483755 -9.991448541910448e-06 0.064125 1.94655242072929 4.363673799755993e-07 8.466083019485502e-07 -8.364268691984018 8.364268691984073
2502 3 -0.004763186545557032 0.0002226834124072418 0.064125 1.946552599944358 -1.739350435517357e-06 -5.460352484484141e-08 -8.364268691984018 8.364268691984199
2503 3 -0.00567370448402281 -0.002405234125462955 0.064125 2.191598617367174 0.8414866213041867 2.031520614208344 -8.364230662987195 8.648440918653639
2504 3 -0.00239323725421879 0.000440838939219355 0.064375 2.821806425142663 3.73698354904149 0.8048450329236478 -8.364206265339156 9.196345362260347
2505 3 -0.002393237254218788 -0.0004408389392193527 0.064375 2.767579983494358 3.73698354904149 -0.9927864611445387 -8.364206265339156 9.214695733033047
2506 3 -0.00320919160314267 0.0009976581760208479 0.064125 1.946558789998758 -1.777170708263081e-05 -5.976471003839941e-06 -8.364211638289351 8.364211638310367
2507 3 -0.007115646222264399 -0.001324722415702531 0.064125 2.192002912695965 2.281563196336467 0.9450522155841823 -8.364216047196878 8.721167604927876
2508 3 -0.007298704484022804 -0.0008827806774609372 0.064375 3.077560329765653 -2.208595392239078 -0.9148289043651757 -8.364203797828315 8.699121260362295
2509 3 -0.007280467229804013 -0.001323619616680298 0.06425 2.638706600771818 -2.197390901183036 0.7597604519858885 -2.460044947187881 3.384905295453393
2510 3 -0.002719532770195984 -0.001323619616680298 0.064125 1.938380726808031 -2.172063926131182 0.8996936961073569 -2.55209311317124 3.469940879080188
2511 3 -0.00402206993111292 -0.001735932035359659 0.06425 2.630853325553842 -4.429565732245243e-06 1.010096082294803e-05 -8.364227490494248 8.36422749050152
2512 3 -0.004464011669354514 -0.001918990297118066 0.064125 1.946556233579343 -4.966694730481465e-06 9.231391245585834e-06 -8.364230662987195 8.364230662993764
2513 3 -0.003026133341384264 0.0005557164377792561 0.064375 3.31515387258119 5.558754808314187e-06 2.167622920690751e-06 -8.364206265339156 8.364206265341284
2514 3 -0.002701295515977196 -0.0008827806774609455 0.064375 3.073311629399153 2.248100148982248 -0.9311922083385222 -8.364206265339158 8.710971223569919
2515 3 -0.005905467229804012 0.002493526512684324 0.064125 2.025339290998896 0.8825171728332404 -2.13058611016109 -3.044788388929326 3.819551029442568
2516 3 -0.006626545507346754 -0.0006797420610645598 0.064375 3.315149858320052 -6.617416958771701e-06 -1.480128894168088e-06 -8.364264957771546 8.364264957774296
2517 3 -0.007606762745781212 0.0004408389392193609 0.064375 2.765601299277204 -3.740339197526885 0.9988281378581769 -8.364203797828315 9.216707662345536
2518 3 -0.007606762745781209 -0.0004408389392193493 0.064375 2.771554180028518 -3.740339197526789 -0.9781962675671571 -8.364203797828313 9.214494583103473
2519 3 -0.007588525491562423 0.0008816778784387099 0.06425 2.313358471238364 2.072926016043448 -0.8900162294564055 -2.550938584258073 3.405354433438925
2520 3 -0.007731762745781212 0.0004408389392193548 0.064125 2.018369618443292 1.7816551009665 -0.8779665186613388 -2.84220949933502 3.467459436648176
2521 3 -0.007731762745781209 -0.0004408389392193554 0.06425 2.233020674092104 1.781655100966419 0.81600844249911 -2.84220949933502 3.452291922062749
2522 3 -0.007588525491562418 -0.0008816778784387105 0.064125 2.100172730121296 1.781655100966413 0.924371304234928 -2.460044947187881 3.174992653389492
2523 3 -0.003884353777735607 -0.00222217586370455 0.064375 3.124835086988047 0.6535642982341048 -1.577844385636487 -8.364227490494248 8.536805064539692
2524 3 -0.006971743622794175 -0.0005608418996530678 0.06425 2.630853655388922 1.921479497329836e-05 9.219923634071745e-06 -8.364203797828315 8.364203797855469
2525 3 -0.00678868536103577 -0.001002783637894662 0.064125 1.946558194923041 1.782283852190011e-05 5.178711763221858e-06 -8.364216047196878 8.36421604721747
2526 3 -0.00336920842101012 0.0006694911373169211 0.06425 2.630855302220982 -1.219927702441708e-05 1.082657830106446e-05 -8.364262885405008 8.364262885420912
2527 3 -0.005535136205868797 -0.0002968702458264226 0.064375 3.315152422428707 -3.8822409626814e-07 -1.762228968937526e-07 -8.364264957771548 8.364264957771558
2528 3 -0.004411682596015351 0.0001684794760718819 0.06425 2.630852655282022 1.637781012768175e-07 -1.10370037666789e-06 -8.364262885405008 8.364262885405083
2529 3 -0.002884353777735605 -0.001324722415702538 0.06425 2.389015262248082 2.248100189261833 -0.9311982284033108 -8.364227490494246 8.710992257732768
2530 3 -0.007298704484022801 0.0008827806774609572 0.064375 3.071607772529078 -2.263934840499898 0.9377501359091905 -8.364203797828313 8.715771993979224
2531 3 -0.005673704484022797 0.002405234125462959 0.06425 2.452647865549303 -0.6119781486758015 1.477444763929224 -8.364228375424796 8.515731125463031
2532 3 -0.006115646222264388 0.002222175863704554 0.064375 3.136944757233691 -0.6119778181108078 1.477445631644473 -8.364230814888101 8.515733648315257
2533 3 -0.007280467229804012 0.001323619616680306 0.064125 1.935067911131336 2.157109778218071 -0.8934988634419416 -2.550938584258073 3.458142633685407
2534 3 -0.007115646222264391 0.001324722415702547 0.06425 2.387311427399023 -2.263934891770944 0.9377577987248271 -8.364230814888099 8.715798759033552
2535 3 -0.004094532770195985 -0.002493526512684321 0.064125 2.000664160981907 -0.8393685322342089 2.02641213507851 -3.050353667560358 3.757065766166116
2536 3 -0.004326295515977201 -0.002405234125462957 0.06425 2.440537995013548 0.6535638683382704 -1.577845514089823 -8.364230662987193 8.53680834855661
2537 3 -0.004768237254218785 -0.002764877161664094 0.064125 2.245703511622511 0.002032108208167491 4.235043353102858 -3.050353667560359 5.219219657125326
2538 3 -0.005000000000000001 -0.00267658477444273 0.06425 2.685577345654152 1.435037706647642 0.4734810863414882 -8.364230662987195 8.499639530137667
2539 3 -0.004999999999999998 0.002676584774442731 0.06425 2.627530699045354 -1.163866803036156 0.02876686625987073 -8.364228375424798 8.444864106903401
2540 3 -0.00476823725421879 0.002764877161664096 0.064375 3.035573396330074 0.3231847452120844 3.932196831021565 -2.849937976381375 4.86711072060772
2541 3 -0.004326295515977192 0.002405234125462957 0.06425 2.805737817533234 -0.6005601090971879 -1.449882768355936 -8.364228375424796 8.51017912871848
2542 3 -0.004094532770195986 0.002493526512684323 0.064375 3.213780514817954 0.9486783866344146 2.290309819389766 -2.849937976381375 3.777255117050108
2543 4 -0.003886393277136203 0.000407151614803805 0.05974297508004143 1.262022009686823 -0.5926810316597625 -0.1444358611203441 -11.26246729282468 11.27897610801674
2544 4 -0.003877147436567878 -0.0003941844167017668 0.06021944451469528 1.26204887182838 -0.5926251616578796 -0.04875508316270606 -11.26182495265173 11.27751226576736
2545 4 -0.004373705724401463 -0.001005844229486422 0.06021939495175209 1.262047902152468 -0.3775731028332713 0.2121786057105614 -11.25941211361325 11.26773900802132
2546 4 -0.004407629424970488 0.001023477878225811 0.05962098458673128 1.262013303938773 -0.7902155916625879 0.08480318947945288 -11.26027528392226 11.28828736930289
2547 4 -0.003417114150376572 0.0008081662729500727 0.06036755782580153 1.262058569607733 -0.3942563622628084 0.1341278770360351 -10.92923935004444 10.9371706184526
2548 4 -0.005899112477241756 0.0007587755273251191 0.06001334117068938 1.26203136553028 -0.6608627071164594 -0.1496981902021615 -11.26259890020196 11.28296428482505
2549 4 -0.005213182141819457 0.001147709649782088 0.06000138948695693 1.262032610301619 -0.390813804829821 0.02180806672482721 -11.26103050801293 11.2678311632815
2550 4 -0.003938350298210857 0.001424492536372079 0.06024556733249138 1.262049863859682 -0.5477075287957481 0.3109040731582815 -10.92838026285944 10.94651268895541
2551 4 -0.005177526749522638 -0.001147829007675642 0.05995514408876453 1.262031135399181 -0.50569935530317 0.1867132743261641 -11.25949653830068 11.27239353379612
2552 4 -0.005908596801810743 -0.0007018921072542915 0.06004377520627274 1.262034208336935 -0.3866803688817742 0.1144978405415693 -11.26019033748244 11.26740954698551
2553 4 -0.006171188100514561 6.261892317383839e-05 0.05997151782502875 1.262028603628499 -0.4582785537519979 0.3783957543384729 -11.25770720593067 11.27338343684777
2554 4 -0.003408952897057754 -0.0007974155552196871 0.05959918017210615 1.26201592459881 -0.8887312412163348 0.3371205235263668 -10.77231804649464 10.81417262490898
2555 4 -0.00390551118489134 -0.001409075368004343 0.05959913060916296 1.262014954922899 -0.8131711090596331 0.4223102393770337 -10.77575485334077 10.81464219704883
2556 4 -0.005874759705531829 -0.001602040320093203 0.06090055296370827 1.262084012611577 -0.2389833107884343 0.09821590486778581 -11.35746466485202 11.36040329390496
2557 4 -0.005312918664264085 -0.001763378002026489 0.06060166152416889 1.262068170303891 -0.5223360460275512 0.1306788506411082 -11.17317328369893 11.18613933108953
2558 4 -0.006215685958815331 0.001304580328891021 0.05939923981070153 1.261994348685826 -0.7369345393086371 0.4333863351613949 -11.91752343400137 11.94814885372217
2559 4 -0.006348797393277937 -0.001156134714382324 0.06071990634541663 1.262072499872283 -0.3379642209827766 0.2053717413557344 -11.41846058654714 11.42530697764145
2560 4 -0.005529755623393032 0.00169351445134799 0.05938728812696908 1.261995593457165 -0.8463258988287856 0.3711435447068285 -11.92567293891856 11.96142508666339
2561 4 -0.005193243620146567 0.00176821689866628 0.06067838537567619 1.262071393473808 -0.4185073550243917 -0.02415191322505862 -11.32465120474018 11.3324073625221
2562 4 -0.004926575765958194 -0.001393204598860698 0.06247036058878588 1.262171971388126 0.05194457487864504 0.2355008510858353 -10.47182968113792 10.47460623414946
2563 4 -0.00506149012954947 0.001319323979305726 0.0626269885871369 1.262180572926349 -0.3498599115781267 -0.3277539970267543 -10.44808766697382 10.45908029116647
2564 4 -0.005421044874138204 -0.0009251269215933383 0.06296914647402299 1.262198121817126 0.08703529269212198 0.2154906389686758 -10.48402975345288 10.48660532436224
2565 4 -0.004362333455837146 0.0009990403277029024 0.05744713678377013 1.261892930807626 -3.189368954524447 0.6915895847119958 -11.40183436853442 11.8596879153399
2566 4 -0.005880483895438638 0.000978915876106199 0.06239239657706106 1.262166839359184 -0.05566500603549261 -0.2038359510004139 -10.44592784505684 10.44806471227811
2567 4 -0.0058445598409568 0.0007543811813335908 0.05745245307079389 1.261872782066674 -1.750685814603904 1.751629058913634 -11.34748030090337 11.61457766605725
2568 4 -0.005797279563466436 -0.001641128850230932 0.06153721652347583 1.262120555685392 -0.2376604191744493 0.07141485548429863 -11.19810469355963 11.20085404263211
2569 4 -0.004092535045055776 -0.0004558437015438478 0.06298881037484344 1.262200025776199 -0.4761498317081992 0.1317493785902654 -10.43582169686006 10.44750932278358
2570 4 -0.006246113618910409 -0.001268677477384925 0.06185646227371462 1.262138109221531 -0.2082280600175208 0.04707720286942459 -11.22724002957011 11.22926951629491
2571 4 -0.003827529913196967 -0.0003916181815785913 0.05745145025707982 1.261901703482569 -1.969059587071917 1.578832895313745 -11.35554205175636 11.63263702940876
2572 4 -0.006606646916544728 -0.0008581929701474083 0.06134616169684577 1.262108015220511 -0.3422686524195444 0.2083989818223082 -11.41123538945515 11.41826918055478
2573 4 -0.00589284445914081 -0.0007181923932789115 0.05744085708575195 1.261874346386572 -3.116262499315972 0.7364778055487039 -11.3986017632436 11.83983165757558
2574 4 -0.004386610514172187 0.001642718341301236 0.06079527395866295 1.26207966932752 -0.3567031364493316 -0.02484477446233546 -11.31342295246032 11.31907210382666
2575 4 -0.003840219970791344 0.0003825669989687392 0.05743751716716283 1.261899206774336 -1.967620588940081 -0.6870157984126766 -11.2758984167059 11.46688303738902
2576 4 -0.004371786678529451 0.001620114225086056 0.05697454481731247 1.261861799066056 -3.32303953846208 1.254281085445712 -12.14515386632529 12.65387589840383
2577 4 -0.00415979274180249 -0.00115659623976036 0.06249002448960633 1.26217369613213 -0.5279955607884191 0.03076689257541363 -10.46435158042469 10.47770871482061
2578 4 -0.005921108634763039 0.0002825910068751562 0.06280392265396562 1.262188494316558 0.06290979511620327 0.1043572773912761 -10.51538803663945 10.51609402985567
2579 4 -0.006129204180574433 2.744354703229643e-05 0.05748102296148351 1.261873117723726 -2.693613209862743 -0.7444616964634393 -11.31976477010277 11.65962477064798
2580 4 -0.004540388063947148 0.0008556739710238353 0.06303851466404146 1.262202407098791 -0.2796793079329831 -0.3657104969032868 -10.42945281523742 10.43960970094644
2581 4 -0.00477867625608389 -0.001813236951242243 0.06114065706726549 1.262099416491341 -0.2520124899049863 0.02770895620375699 -10.91539496098969 10.91833894123648
2582 4 -0.006511423141764845 -0.0008870279741621481 0.05932612311801055 1.261989554111218 -1.211367664442051 -0.1181540354546891 -12.42334271861465 12.48282084701634
2583 4 -0.006092516174361661 -0.0009372555079450429 0.06255762039711843 1.262176287395254 -0.02883973649069328 0.2470870723604011 -10.53076779459902 10.53370562031673
2584 4 -0.005184015749693929 -0.001147581712550586 0.0574177673709589 1.261884553525785 -2.622035509866868 0.3910697003367574 -11.35517612373405 11.66053302926347
2585 4 -0.005023172553592456 0.001305225777195944 0.05520633734369009 1.261724896985415 -13.93756667794623 0.3445049745491738 -15.14182453382995 20.58274274223387
2586 4 -0.003258948698933742 -0.0003981048929784302 0.06109673377724299 1.262099881644771 -0.3613928878859392 0.09080201920237817 -10.87505424003174 10.88143623561422
2587 4 -0.006428785811142217 0.0009896378502851123 0.05674126841024615 1.261798825354967 -8.465313358954518 0.9658708497855213 -19.80273749474791 21.55789528339104
2588 4 -0.005146098357724243 -0.001768687667836881 0.059254334542022 1.261991729870229 -0.5060369518063789 0.1748321022010096 -11.27840923823378 11.29110953828855
2589 4 -0.00584244795594078 0.0009680929003388352 0.05530088897762524 1.26168817506519 -8.632539437531268 2.780136129340329 -15.42180189000402 17.89083194188374
2590 4 -0.003561581637459676 -0.0002287951426673754 0.06248881037484344 1.262174612729869 -0.4507090447615399 0.1589561358548564 -10.4517662956212 10.46268724537053
2591 4 -0.00648444692114839 0.0009913383651666311 0.06082428874461356 1.262077526350463 -0.1643809014737781 -0.09839854832196736 -11.847244544624 11.84879346833273
2592 4 -0.006774014440468663 -0.0001225169437340181 0.05925386573676655 1.261983949402782 -1.194409735966602 -0.1709101010412803 -12.42032196406507 12.47879090982163
2593 4 -0.003268198737634051 0.0004101223965083612 0.0588727107374523 1.261978428499352 -1.62129999686771 0.5172757376036533 -9.569748739339387 9.719890884297232
2594 4 -0.003209331175562831 -0.0003955386578552547 0.05682873951962752 1.261887112295528 -6.610782697213851 -0.1864527695735687 -5.410227507900013 8.544458683398362
2595 4 -0.00524852886081837 -0.0001809408661194916 0.06337026434258913 1.262218756359097 0.0562907690923617 0.1092112623985026 -10.51776018190969 10.51847778885731
2596 4 -0.004686802055891647 5.173399482966067e-05 0.06337026434258913 1.262218935574165 -0.2243737550061551 -0.007043777764836299 -10.52024634155383 10.522641126814
2597 4 -0.003941018776717845 0.001019278329984453 0.06268311778400665 1.262184636929506 -0.2127380314505042 -0.3789074145272325 -10.45610212466589 10.46512780334056
2598 4 -0.006756522544421196 0.0002951817610153503 0.06078246539895293 1.262074764448681 -0.09969485871764923 0.06054199152267129 -11.85030853200292 11.85088252837118
2599 4 -0.003222021233157209 0.0003786465226920758 0.05681480642971053 1.261884615587295 -6.644671337474842 1.008746837646804 -5.410216803886162 8.627842907156708
2600 4 -0.006428954313415058 -0.0001245647742260457 0.06239239657706106 1.262166832049 0.04494970384327927 0.06455868548139197 -10.53070741520338 10.53100123275874
2601 4 -0.003556479361066243 0.0004423869126667511 0.06251486746255433 1.26217575235855 -0.4578269848811412 -0.03063004787181337 -10.41351917395402 10.42362342634393
2602 4 -0.00671343015075985 0.0002627002159838179 0.05676983830093578 1.261799161012019 -7.303874509269471 3.825823947364574 -19.72758984567647 21.38133094179644
2603 4 -0.004965171316343178 0.001775773068593557 0.06192669521330847 1.262143105390132 -0.2315976140482677 -0.011123904050409 -11.15662412215586 11.15903324661882
2604 4 -0.004888456786993083 -0.001388252769628915 0.05540031341720623 1.261793775731987 -9.671312517128261 -0.1544335478401885 -4.397992984283059 10.62546365174072
2605 4 -0.003267114150376657 0.0004019643527183743 0.06111755782580153 1.262100601719773 -0.3614991659285466 0.1128747281427353 -10.8750604444244 10.88165254091053
2606 4 -0.005512274617450982 0.00170467004065608 0.05816056781402017 1.261917652056465 -2.029007157695398 0.09839356066580908 -13.62922246128692 13.77977707504761
2607 4 -0.004340539917063038 -0.001006502919367652 0.05722900491033569 1.261885303422952 -2.944465810891038 0.3468182880184177 -11.37410973681052 11.75417092531065
2608 4 -0.004165839763139898 -0.001596742544441933 0.06109789832906268 1.262098221432538 -0.4690749371902543 -0.04042427506082934 -10.87469146563891 10.88487849686684
2609 4 -0.005149213010737677 -0.00177778455805841 0.06173958876164254 1.262132583430114 -0.09698259266321979 0.03136622556425239 -11.1454700438869 11.14593611871906
2610 4 -0.00562108000435887 -0.001677157717508484 0.05873061022085201 1.26195717724269 -1.584625196029126 0.02594317695318941 -12.55224631066794 12.65190094428492
2611 4 -0.005536184617540461 0.00172931534306383 0.06138884979208179 1.262111495069982 -0.4165583232432471 -0.02464972699921745 -11.32887635000404 11.33655890468466
2612 4 -0.005405791421789713 -0.0009290498324831491 0.05502087005903266 1.261726663384055 -24.78036338617633 8.841149085887151 -9.301606951459476 27.90613227570726
2613 4 -0.006163414777422197 -0.001288726393168835 0.05679774054296841 1.26182446949038 -4.020618682744922 -2.072561172066324 -15.46236284817495 16.11041741397831
2614 4 -0.00608506330046856 0.001341556480249719 0.05607296345498453 1.261743282703705 -8.171031509999104 1.389796219924215 -20.37350705441051 21.99493303391554
2615 4 -0.004094253485424507 -0.001152191074082717 0.05527505458694684 1.261834875738199 -12.10459850429202 -1.026594301186251 -4.285014127156297 12.88163603271206
2616 4 -0.004049861315294414 -0.000460313275987799 0.05489561122877325 1.261826094620815 -10.51528474719634 2.063889956418344 -5.33948153222754 11.97250675923064
2617 4 -0.003931066382111549 0.00142172983651653 0.05815586091940622 1.261934883418125 -1.921797556142378 0.8443754070094486 -9.497727796136118 9.726927005187909
2618 4 -0.006255334736111366 -0.001241434924255102 0.05871376767933236 1.261951928545927 -1.181418894269413 -0.2370910597513165 -12.5837601785825 12.64132046134539
2619 4 -0.003408952897065748 0.0008052565077823669 0.05814624130279893 1.261941159384836 -1.604372036938332 0.4702309753675558 -9.482924213801333 9.629173300330844
2620 4 -0.006707955202677571 -0.0002019830070993079 0.05606174873439259 1.261733323397143 -7.555486787245514 2.438989797420403 -21.25246631077877 22.68703101146003
2621 4 -0.005510290552975448 0.001727373708681351 0.0563115561490746 1.261786107673841 -6.394625295427177 2.362545796962544 -19.98567578311661 21.11634655473139
2622 4 -0.003746863307966494 0.00131043876486972 0.06193041126721906 1.262144547926277 -0.09622871603812862 -0.1989194044241561 -10.89734344484378 10.89958361819967
2623 4 -0.005883072695265182 0.0002717680311077927 0.05495280194126847 1.261662422779556 -9.902433066438302 -0.7878067131870712 -16.37153943361376 19.14957240982168
2624 4 -0.004249913781989504 0.001603283495196932 0.06158551477342543 1.262124850559345 -0.3211602878062923 -0.002308897298653535 -11.10338589152719 11.10802986661611
2625 4 -0.00639429955077354 -0.001007773675940752 0.05612981685215678 1.261757403212658 -6.828148394787303 0.1146920998671951 -20.9707546260793 22.05468916956742
2626 4 -0.004956245484751359 0.001762241514982736 0.05585645611468473 1.261776678415936 -13.85638016782669 0.7894543307382526 -13.89432926182659 19.63860726048853
2627 4 -0.005454586067975315 -0.001718115712440509 0.05677465082817535 1.261834676629594 -4.889345789218549 -1.565451534335722 -15.65473433521973 16.47504318231703
2628 4 -0.006751780768984169 -0.0001713875251778635 0.06148097813162608 1.262115884505345 -0.1860576096902721 -0.2470806004073679 -11.48611091525548 11.49027459266193
2629 4 -0.0063909183739172 -0.0001353877499934092 0.05526110436634367 1.261666166274048 -8.647285776764745 1.647176863519407 -17.58255373173114 19.6630348281735
2630 4 -0.00335926071726541 -0.0007377039534789138 0.06171527980949729 1.262133803651638 -0.382762251513947 0.02694434553512513 -10.77210479148918 10.7789366162792
2631 4 -0.003268198737626165 -0.0004022814439458138 0.0588727107374523 1.26197922207521 -1.625410818882757 -0.130776508423134 -9.569754756905796 9.707691225652862
2632 4 -0.003701188747930092 0.001287827788818623 0.05598859240200836 1.261845226698407 -10.03830673130043 3.493268723811987 -3.376351755396855 11.15214237644974
2633 4 -0.004502070487990134 0.0008415757689140534 0.05485825030733332 1.26175747593033 -25.24879737094953 5.712894726436809 -10.94483299889375 28.10566320527397
2634 4 -0.006141457583119986 0.00134137093202115 0.06152280147728671 1.262118872717975 -0.001260331204770253 0.190819310489043 -11.43389057432117 11.43548281723342
2635 4 -0.003518907907698314 -0.0002332647171113264 0.05539561122877325 1.26185425581688 -6.5967540810786 6.478029969196088 -2.552835926461205 9.591611332589581
2636 4 -0.006329231094178074 0.00142382839605235 0.06302213223447192 1.26220269219518 0.7488317352616668 -0.6517077785175003 -11.22337674343982 11.26719386189397
2637 4 -0.004351523173163507 -0.001637770698596264 0.05904211597035569 1.261982428057817 -0.9364665409744999 0.1620615520321722 -11.16037034761213 11.20076335902477
2638 4 -0.006198060788307015 0.001313702789776866 0.05816734018903127 1.261911458638147 -1.941111910026382 0.1501647086437562 -13.62974492050581 13.76809396703197
2639 4 -0.00607726272201317 -0.0009411784188348537 0.05532917248410786 1.261690246089562 -8.230901117566344 0.5233232984014783 -17.61922635124389 19.45401597866548
2640 4 -0.005189514823672175 -0.001754923565834452 0.05804594630244158 1.261920841412759 -2.439718084158576 0.1134170499736412 -10.802113777214 11.07477989908927
2641 4 -0.003362323892314892 0.0007335473475520173 0.06176216094576673 1.26213566335532 -0.3789677213191655 0.1577326396761358 -10.79319929253863 10.80100213350027
2642 4 -0.004232822498954878 0.001579950918437186 0.05628189964367458 1.261831702918978 -4.98999880917745 0.314690784155188 -7.317855594470078 8.862851059717839
2643 4 -0.00509631639158995 0.001779554088294178 0.05876650284335073 1.261960170745565 -0.9005150467618896 0.280133289561298 -11.68645946214036 11.72445038241089
2644 4 -0.003691364179665727 -0.001304193584479569 0.05606251824221045 1.261866274618595 -10.98473215266015 -1.906307017889059 0.1091400192235357 11.1494510383218
2645 4 -0.006369855833502476 0.0007275035268213073 0.06343365831137648 1.262224347152554 0.8699901036682085 -0.4870614770921167 -11.31252214194015 11.35637569274784
2646 4 -0.004311548370514138 0.001642921988664531 0.05876033986074945 1.261963446784591 -0.8328274670328004 0.2694856056634131 -11.68665525653965 11.71939141622592
2647 4 -0.003520360362653022 0.0004301583549969889 0.05539808739369232 1.261845424744719 -6.497438126543151 -2.050732212522058 -4.561636436043832 8.199434845791194
2648 4 -0.003769593493637979 -0.001324681792157761 0.06171649392426019 1.262133113115316 -0.3958976245629406 0.009552287285813412 -10.76828051386133 10.77555991123118
2649 4 -0.003396262839463485 -0.0007813325132191386 0.05816017439271592 1.261944449668926 -1.523203871619071 0.1428826970462252 -9.06355606105139 9.191768816253589
2650 4 -0.003903509668124251 0.001006468377082282 0.05521506183666174 1.261822781140279 -10.27115216310466 2.94955739177507 -5.0189033885389 11.80617833121759
2651 4 -0.006532598264871554 -0.0008898114533093948 0.05805219347571498 1.261905385576783 -1.48243466041978 0.4425147854767018 -14.2883653398585 14.37187586722934
2652 4 -0.003303896929909778 -0.0007260904859223164 0.05618307488403688 1.261879198083241 -6.27959011787248 4.726646918894174 1.215770376298595 7.95314659441524
2653 4 -0.003318039442458863 0.0007115177667333294 0.05617161795903895 1.261867870302847 -6.36588937191503 -1.041837926788631 -2.304539578926565 6.849881490361348
2654 4 -0.005211601395041728 -0.0001944576729968646 0.05454127586436391 1.261693627108156 -24.47585558288391 9.891300453414026 -9.681726524824136 28.11834205061495
2655 4 -0.00646803289786828 0.000999652714957994 0.05878522690209428 1.261952732555907 -1.763963542553246 0.3793743446387275 -14.13540288618619 14.25009147436002
2656 4 -0.004933381226456045 -0.002015233817156142 0.06310009624619675 1.26220777441969 -0.06085306978403267 1.053794697426024 -11.08988960880486 11.14001067754889
2657 4 -0.004649874590115005 3.821718795228763e-05 0.05454127586436391 1.261751958338705 -24.61296371907577 9.835434384473507 -9.672903395977103 28.2152230662054
2658 4 -0.004932189713267574 -0.001996765181046986 0.05485903755284233 1.261752598363726 -12.0920269663579 -12.6881599799652 -15.07833429932543 23.12061169334693
2659 4 -0.006754285756248807 0.0002687120464842356 0.05868167617381993 1.261945095174644 -1.596467674868552 0.8238622613689484 -14.13789017708073 14.25157523650646
2660 4 -0.00410980842918485 -0.001588526494201569 0.05648573753105697 1.261857788771265 -4.237861431768317 2.240848083772016 -6.203383516857855 7.839823767575254
2661 4 -0.006768957986305177 -0.0001441755129981871 0.05809235935144654 1.261904156913936 -1.588134969161141 0.7747611950998714 -14.28564089867926 14.39451157475385
2662 4 -0.005449524348064205 -0.00153756224390122 0.05447959419466875 1.261685486015794 -29.79691285758514 -8.503194025676747 -25.32468865617101 40.01874785663369
2663 4 -0.005068295590047316 0.001947294761010282 0.06325672424454777 1.26221656743686 -0.2263998969649315 -1.027428060604485 -11.19539841409685 11.24472369529041
2664 4 -0.005427850334636055 -0.001547156139888782 0.06359888213143386 1.262233924848691 0.3045679869412088 0.967457440587902 -11.32117517117718 11.36651850016077
2665 4 -0.006328122620456859 0.00142652222716236 0.05475961311326133 1.26156751980752 -25.9058601008624 15.63867347722396 -38.96228147080363 49.33296132508985
2666 4 -0.007060759773912904 -0.0001215939925214849 0.06302213223447192 1.262204206984185 1.951479835355166 -0.3411763278875327 -11.79126907141089 11.95653382669575
2667 4 -0.006925276804334938 0.0005595248909482871 0.06343365831137648 1.262228189889111 2.015319208984161 -0.155948140782047 -11.70891116171587 11.88210553436
2668 4 -0.004870513383263053 -0.001776088948541503 0.0561778680704621 1.261819265377783 -10.43086026743167 0.7072692414617221 -8.29785312053912 13.34756315245009
2669 4 -0.002943387097957524 -0.0002258243609628192 0.06311854603225431 1.262212088600811 -1.958249686228704 0.2369812625375342 -11.50422017891616 11.6721028044389
2670 4 -0.005066905479866943 0.001946713365777873 0.05466506147932618 1.261631267628132 -15.52473930260191 21.19703347211646 -40.44285908269264 48.22817236029489
2671 4 -0.003657398767312032 -0.0008948146580808845 0.06361854603225431 1.262236159399697 -1.086935907842316 0.4684405768833443 -11.22499211957524 11.28721906965369
2672 4 -0.003724656464058746 -0.001595567196297397 0.0631197601470172 1.262209829755629 -0.8909757768182029 0.7856381319787645 -11.09714904202165 11.16054577384717
2673 4 -0.006541263373101102 -0.001376226464482076 0.0631873560545293 1.262213024895424 1.055445825484258 1.292258936236953 -11.62072003131247 11.73989067644853
2674 4 -0.005963838665281549 -0.001762049319253899 0.06359888213143386 1.262236957995918 0.9698394519624816 1.335260722120607 -11.67798725008894 11.79401950023234
2675 4 -0.0059855126787097 -0.001752455423266336 0.05447959419466875 1.261591157307935 -32.10073764084871 -9.777480315460211 -26.43587611167798 42.7189890352967
2676 4 -0.00636874735978126 0.0007301973579313169 0.05441152607690456 1.261541767521886 -28.15134257336335 12.58564083466442 -41.2050340793434 51.4660206095428
2677 4 -0.004249344445727081 -0.001880968135796913 0.06350121411476289 1.262231010386531 -0.6407027500182182 1.1908478532498 -11.3292026879751 11.40962103527951
2678 4 -0.003651652503327311 -0.0008857674256474625 0.05435433536440935 1.261896422021231 -35.5661214930246 15.87291942978653 29.54493505143312 48.88559866130804
2679 4 -0.002937640833972803 -0.0002167771285293972 0.05485433536440935 1.261878376540883 -13.64706946232846 6.373823938136775 2.260863583129711 15.23087786851124
2680 4 -0.003126445359715932 -0.000667766099204412 0.06361854603225431 1.262239930917696 -1.965423407040472 0.215485171695738 -11.48345670579162 11.65242897176181
2681 4 -0.006562937386529253 -0.001366632568494514 0.05478789661974395 1.261586139904745 -17.75246683385043 -16.97900927042081 -33.63827574032598 41.65297623548884
2682 4 -0.002938284821564091 0.0004453576943713073 0.0631446031199652 1.262213228229492 -2.039956571644878 -0.009391309161950771 -11.50423056548372 11.68369941049045
2683 4 -0.004547193524444994 0.001483644752728392 0.06366825032145233 1.262238401609302 -0.3781661569611079 -1.00434083721083 -11.30894382955457 11.35975002804113
2684 4 -0.006924168330613722 0.0005622187220582967 0.05441152607690456 1.261459407187457 -36.84325180271518 10.07144979987906 -45.30287886592157 59.25546504762344
2685 4 -0.004035672757035863 0.001757607855096959 0.06366825032145233 1.262241944724742 -1.051941282441106 -1.375909185573916 -11.74346164300766 11.87049274080241
2686 4 -0.005750697912637303 0.001812345081934175 0.06358847392309544 1.262235244395287 0.4020266110005374 -1.123118307474086 -11.54974402988926 11.61118457714365
2687 4 -0.004545803414264621 0.001483063357495983 0.05431697444296942 1.261663846573047 -22.69080236214174 22.2885141046922 -34.80894470199565 47.1520201486578
2688 4 -0.003696044673457404 -0.00157764522374238 0.05473377872258293 1.261905203138614 -30.60273040528959 23.90877010112558 25.77937142950992 46.61257756558786
2689 4 -0.007059651300191688 -0.0001189001614114753 0.05471982850197976 1.261533867673676 -37.81683745746341 7.251785359206837 -43.55412890024255 58.13487533691939
2690 4 -0.002939093288927511 0.0004466459435789181 0.05485681152932842 1.261869545468721 -16.41639109207112 -1.977093113147408 2.260847761393477 16.68886533788577
2691 4 -0.0035058824989741 0.001464190849930601 0.06331285344141753 1.262221712243574 -1.127148977345841 -1.339207049444808 -11.68266658611955 11.81307068043058
2692 4 -0.005750697912637304 0.001812345081934175 0.05434808703635677 1.261514872255796 -21.1823321061646 22.05663388487186 -44.20979612771921 53.75585889409289
2693 4 -0.003120699095731212 -0.00065871886677099 0.05435433536440935 1.261930320222191 -7.850664756604257 23.85420037030739 20.11488487762696 32.17552495403217
2694 4 -0.00403428264685549 0.00175702645986455 0.05431697444296942 1.261833933004057 -104.8417970508222 -23.01052372350696 20.90624902621521 109.3542768218143
2695 4 -0.00422647891911046 -0.001872093395675319 0.05437944335817357 1.261839827754185 -47.96947724576559 -4.210431501786635 6.331593806877896 48.56838025710302
2696 4 -0.003121343083322498 0.000887299432612899 0.0636446031199652 1.262242012236947 -2.292567081422397 -0.7709704319778065 -12.14737998393481 12.38584271270654
2697 4 -0.00692416833061373 -0.0008000190448812496 0.06358847392309544 1.262237502173951 2.299154870883328 0.6680563458330061 -12.33795920258441 12.56812037204258
2698 4 -0.003505300856157147 0.001464897703905803 0.05467378597229783 1.261942929305346 -59.7627800198288 -44.99780867850241 58.68979560220517 95.08356729421848
2699 4 -0.00692416833061373 -0.0008000190448812496 0.0543083024250752 1.261470743294417 -41.97284338109844 -4.820037948132321 -52.27521618122494 67.21347018350903
2700 4 -0.003122151550685918 0.0008885876818205097 0.05435681152932842 1.261971309914682 -34.73277580693797 -57.20430202316524 48.85402372100722 82.85779093691346
2701 4 -0.005158773670100767 0.001145348432212805 0.0574456806957828 1.261878975484993 -3.407828740902075 0.7230887111457419 -11.41669255189388 11.93637394001938
2702 4 -0.005168226892793072 0.001766422329595959 0.05697308872932513 1.261847843743423 -3.046936763927906 1.28784538428098 -12.22526822866781 12.66489449778655
2703 4 -0.004367974889195992 -0.001640995623600669 0.05831972018655475 1.261942716092844 -1.069900625272437 0.2013570933060718 -10.54248444391881 10.59854755507815
2704 4 -0.003909272843329555 -0.001396217251008199 0.05793772904597178 1.261928049609308 -2.30942741926988 -0.7831442128524809 -9.155083663158164 9.474298218993605
2705 5 -0.005144666132627614 9.954299123541888e-05 0.03543916603811866 1.108251500851934 -1.308711802401141 1.189750767931586 84.4922077529764 84.51071768979165
2706 5 -0.006017043582786792 -0.002014465471890338 0.04235608081283902 1.004314818762149 5.771159186666422 -4.017578023578301 15.03723028876199 16.60016585129933
2707 5 -0.005042572119921806 -0.0005091222805139982 0.03472672443417054 1.116438206414314 0.259664785134611 0.04701523334536954 85.46261773097856 85.46302513756564
2708 5 -0.00510731268964217 0.002898202972858011 0.04192881513575058 1.004977297718606 -8.647270117036713 0.3678953283905536 18.42134935311963 20.35329799907938
2709 5 -0.005375106150080237 0.002999321105613003 0.04274585085116316 1.00338563919912 4.870941072446636 -3.101996888742184 -6.487453187099606 8.685361275377243
2710 5 -0.004868674806880113 0.002355259863968665 0.04253021244389207 1.005202390898259 -27.08591152038666 11.16917021915779 -1.039400608495618 29.31684362102574
2711 5 -0.003156815045982007 -0.001500778752210432 0.03833174636700534 1.060270689682888 3.347690634952631 3.056343654935534 134.1270138716836 134.2035920505081
2712 5 -0.005510523768732835 -0.0002073299500879823 0.0362823793285442 1.096780024265877 -20.46805089999079 -4.581771774882911 92.47549866352246 94.82431963008683
2713 5 -0.0036422886629061 0.002515545199137922 0.05154831842523205 1.231586177542764 -5.689956009494907 18.11861452100112 -228.2303357185365 229.0190951290885
2714 5 -0.002327110896957646 -0.001592579163674633 0.03885141434912519 1.048756836852964 0.561624846418225 1.725594811667897 124.8217469221603 124.8349374358877
2715 5 -0.004221620012273244 0.002305210344849649 0.0427391256041043 1.005423417487841 18.72469158726375 6.278201203279353 14.59192540939159 24.55512517867201
2716 5 -0.00549314923159064 -0.0004258461489096166 0.0432510450008173 1.005866190135474 -17.52791624264626 -5.403897940221358 -18.04428274089343 25.72986786578695
2717 5 -0.004480845314995083 -0.000276447419564846 0.03472672443417054 1.116454393598412 -0.589813980985463 -0.3048537019195942 85.55565434584132 85.55823050330585
2718 5 -0.005499932554103715 -0.002268582030711632 0.04314732895361416 1.003459681433827 -8.527650097660732 -0.05296097271324742 -6.268739241464915 10.58398378354039
2719 5 -0.007308628449732641 -0.0009048552496614964 0.04710644208170998 1.074878076830118 -5.561795337601189 -14.82233971762244 -238.6765057727414 239.200981875007
2720 5 -0.004673470865996246 5.980531075458489e-05 0.04314104216683567 1.006122161660428 5.797344355471851 10.85293576938176 -20.38827262859202 23.81338021298199
2721 5 -0.003508199327170666 0.001959345033490654 0.04781807387525727 1.106785608879654 -5.615261178369407 -2.38887438714111 -282.7008221431954 282.7666754046124
2722 5 -0.002130483478509449 0.001257835279046582 0.0485058841020049 1.134910038311796 -6.711206982196484 -1.013201549787079 -317.5794496153393 317.6519694485149
2723 5 -0.0069134890288213 -0.002502998816376695 0.04234888403027121 1.004309408165593 -3.860734645609335 -4.666710653142372 14.91588653997082 16.09866862809604
2724 5 -0.00373118348028846 0.00196560108143978 0.05235307713737017 1.243943282056646 -12.3589808298377 -13.41786014476027 -118.7170304046035 120.1104353755501
2725 5 -0.008234658601206845 -0.0006495646301524523 0.04714406409631021 1.075174167462594 -18.21875965548944 -5.760987367602301 -236.6334714201645 237.4036898938009
2726 5 -0.002599139710787126 -0.0008737047603252188 0.03934731184632836 1.038853103799728 -1.623409364784927 -4.486131532810885 109.3212587012735 109.4253098607728
2727 5 -0.005958244721422899 -0.002787042787024938 0.0416970448617916 1.00662136086248 3.220590787118649 1.114900640695942 24.47446217172921 24.71061527060996
2728 5 -0.00458293932770089 0.0003322178521845711 0.03543916603811866 1.108267688036032 -0.2965213774140219 1.499793742291108 84.31657949434252 84.33043865546094
2729 5 -0.006283320809339759 0.0003557962718143435 0.03602261479895227 1.100170162570338 7.364661114154895 -26.52545417218145 98.27397637399305 102.0569075796586
2730 5 -0.005634390669839461 0.002240175345876663 0.04123053522234103 1.010435827470986 8.798122027709292 5.01716647219397 46.68323467310442 47.76927161019215
2731 5 -0.005141545155032262 -0.001203564531532147 0.04372928442212339 1.006995005579182 -15.01767591698703 -17.47494108156647 -12.03999812575341 25.99741738365597
2732 5 -0.005917463173234537 0.0006626692131377447 0.03517940150852673 1.111641639156395 8.734149357107192 -6.166873785438119 86.8285108862198 87.4843185947983
2733 5 -0.004147836615513577 0.002100500945912539 0.05081210179860006 1.2117274853957 -16.76655641508072 0.1511232677914168 -308.6817626184952 309.1368157070962
2734 5 -0.007079039906044683 -0.001367315275851498 0.04628357455849566 1.046635111800019 -15.38551134322092 5.325382564327448 -181.7700474872208 182.4977364852927
2735 5 -0.006173588380857157 0.002812976232744803 0.04276190750356448 1.003060856205691 -5.581674961817188 -2.642574212300219 -1.921915524073837 6.467770336720919
2736 5 -0.005721698942213972 -0.001162215486287648 0.03606711728360246 1.099965418568183 -11.67441126647332 24.38168667436154 95.89560856455022 99.63295772720457
2737 5 -0.003634084777060429 0.002729727735002842 0.04259047798073893 1.004884873370908 -8.596473717276083 -0.2840004547981269 19.39479845303863 21.2164611484605
2738 5 -0.003423932403463381 0.002883074754822786 0.04778841612156673 1.105575876147618 -8.732977200561152 6.804483024567047 -282.3897816594206 282.6067137660965
2739 5 -0.003901878237498497 0.002830845867757833 0.04340751369615151 1.003293214851422 3.554918931001084 0.340000787613322 -1.949100941037836 4.068420285555827
2740 5 -0.005282097377150394 -0.002267508973245399 0.04095844562958359 1.012920061082901 -7.304765462256547 -0.5088797638131171 53.11756567376513 53.61990619330983
2741 5 -0.002904208945122084 0.001326069990531205 0.03985649325192538 1.029830083290031 9.42796596959899 -1.140548907325226 105.4265606453344 105.8534226354457
2742 5 -0.006518760510250181 0.002714139478915858 0.04121400450852188 1.010783571382757 -4.827763390121794 5.136654128003662 49.55472459293343 50.0536037110538
2743 5 -0.005589035948088515 -0.002420062033970288 0.04012981770870413 1.024855923580009 6.597887958658139 -0.8575982328300437 92.95505209780472 93.19286083573971
2744 5 -0.007147771834633924 -0.00135419038736621 0.03951410181048326 1.034114477266494 -8.16309055520361 5.883618513546383 87.55040867159639 88.1267670619372
2745 5 -0.004321866789437867 -0.0007179130718679453 0.04361928158814178 1.007250977104135 36.84812191500701 -10.4150576193841 -3.847549459523691 38.48455730188138
2746 5 -0.002104127268109321 0.001301668800335405 0.03937564244070128 1.038336966192468 3.286480761682973 1.05712214649939 110.8267097995711 110.8804674774953
2747 5 -0.006790164760829809 0.003185822233029006 0.04192834107433275 1.005000258636947 10.44693699505844 1.914522616004157 25.67005948956461 27.78049394131966
2748 5 -0.006182882933043249 0.003666709001492249 0.04310788709523906 1.003159644091567 -4.904738535044117 3.210352147644514 3.092563363048879 6.627727300025602
2749 5 -0.005192215684537312 -0.001250369739713745 0.03522390399317691 1.111433740413437 3.528567866998079 11.36136746781618 85.10450132680837 85.93199408843886
2750 5 -0.00782685735704081 0.001196741543730543 0.04760126063598706 1.091228171470837 -8.719549662150127 8.839778139739776 -258.3190523580046 258.6172945396499
2751 5 -0.005757216778871959 0.003756829937454647 0.04059618204505319 1.017050591926025 6.977592547604623 -3.052808218884115 59.96410488963138 60.4458461020804
2752 5 -0.007902417591570106 -0.002324269096984013 0.04754092447274275 1.08829641674968 -4.251634106888323 -10.48366048056844 -261.5753741074013 261.8198996812076
2753 5 -0.006186643563178371 0.002476612875482778 0.0356731572702022 1.106653606377853 12.07358426209209 -4.544799058618077 76.57215485231796 77.65128160014112
2754 5 -0.003478909028790111 0.003515088187108718 0.04223148508239942 1.005842111795003 -1.598052884881994 6.270016443934079 10.97078491685693 12.73675786540747
2755 5 -0.003961002072117768 0.003482106532568379 0.05178986524497262 1.235348548809599 0.556003262403959 10.37980813310376 -231.1638969091208 231.3974865695789
2756 5 -0.004710233230968039 -0.002568540752543418 0.04979343719512425 1.177169901978983 4.351376913691751 5.342288453216603 -302.832226827448 302.910600891143
2757 5 -0.006290533062610433 0.001845546839364902 0.03517940150852673 1.111518899567372 13.66884262850225 -6.815217354072901 76.08436478130443 77.60228740546644
2758 5 -0.005246047462630226 0.003113927240278525 0.04085556915731092 1.013205866339542 5.169057478513903 -0.8250667523178685 56.20711903376468 56.4503332181286
2759 5 -0.003265995501418081 0.001956251459560304 0.03943777622174054 1.037721460743002 0.1670313890989781 9.70518451386503 101.4399272134682 101.903274427306
2760 5 -0.007722366317972913 -0.001536075125723071 0.0478232500773091 1.100047861004971 -5.439427817225862 -4.963929532658899 -273.1094423054873 273.2087030967321
2761 5 -0.004491838627741719 0.003115220676628646 0.05259462395711073 1.24749187580113 -7.375679818771638 -20.05676235117939 -119.9866602679432 121.8748251734358
2762 5 -0.005031689087503647 -0.00309885462916939 0.04273078170979679 1.003618695519186 -7.321564308205156 -1.045702845220406 -6.40747918054856 9.785427318663654
2763 5 -0.00483028160534734 0.0003196385605231372 0.04114456597919672 1.012872319296096 16.70598319782035 6.24952397170763 58.96312187300691 61.60191689785205
2764 5 -0.002810856362866208 -0.001092990202985326 0.0523816005865686 1.244801422494675 -24.65143735509056 3.671120278519857 -121.0161041662041 123.5559304741657
2765 5 -0.007482106927395168 0.0006505079224035213 0.04712550445505644 1.075702982850755 -12.65401416396991 19.90724843017274 -231.8298992893438 233.0268757440435
2766 5 -0.002777459923514164 0.001003597295921962 0.04138175456826582 1.010674661736914 -0.8176705971271782 10.01960996281622 22.46162611651499 24.60865329128111
2767 5 -0.004182305206220857 0.00243998157111074 0.05299074250403563 1.25105984896659 -11.44173253312132 -14.73923442231621 -121.8644316959277 123.2846218605017
2768 5 -0.002931801100553183 -0.00152274703822616 0.04198506583663376 1.007006230179525 -11.50416358986372 -16.44309368667547 18.50615389374367 27.29833038539275
2769 5 -0.001472753044263454 -0.001718320088489454 0.03770000682398142 1.073277186671616 -2.69181695409728 3.510842477113107 139.7926549742472 139.8626407521408
2770 5 -0.006524885710344114 -0.001125993101071805 0.03576943477552149 1.103675109823336 17.21951547422723 34.70433769461901 102.7664319810738 109.8264189988455
2771 5 -0.007455667704281984 0.002724956477046022 0.04193892553474858 1.004994163281849 -6.104259093276805 -7.60527508562001 25.9336496009694 27.70661238462157
2772 5 -0.00549711787368566 -0.003629414540464678 0.04191242233163711 1.004761477240437 9.800846990104953 -4.032321720882213 24.30978932112264 26.51946600181678
2773 5 -0.003238199530762836 0.00259374404764626 0.0423417219781291 1.005772179950215 15.66261939725868 -3.964587335003721 10.75668731652101 19.40984083256892
2774 5 -0.00206521098907756 -0.00157291892750202 0.04175329420767954 1.0088650301672 1.010914817569 -11.17804166163228 20.13062205827143 23.04804782645446
2775 5 -0.002554087608746727 -0.00279556653998192 0.03611882792691036 1.103039447416935 3.92850243214294 -1.428243541980094 113.5259207700628 113.6028507462077
2776 5 -0.001894044913168069 0.000554277812926766 0.04165090375704172 1.009091239972583 8.101761671567761 -0.9215613510133778 28.20687221936366 29.36180270191317
2777 5 -0.004140615557357888 -0.002427521907118681 0.03817823044014533 1.063105854516748 -10.17028070720705 -6.673491391532331 134.7302878656287 135.2783078153014
2778 5 -0.007184263453702357 0.002253273722932874 0.04122458896893771 1.010777476027659 -1.892148139342013 6.861860437225837 49.57575131419753 50.08413393090009
2779 5 -0.006854690167457407 -0.003275576131511295 0.04168984807922378 1.006615950265924 -7.256183559017716 0.4282024646291631 24.37608475327176 25.43676601086627
2780 5 -0.002204964976987127 -0.001060524647195792 0.05160329856008732 1.233616470587924 10.00985758212421 -9.654500228308041 -212.8227568886298 213.276657122034
2781 5 -0.00717250323661726 -0.00121158694145527 0.03859392439960348 1.051301595582676 -3.776474315720071 -1.158366347790012 130.9504000052675 131.0099646301477
2782 5 -0.006927587854879193 0.002623383355920109 0.04382400298797946 1.00536478901916 5.596429736285518 -8.487246835127644 -27.34989680809692 29.17824943424666
2783 5 -0.005032776556146886 3.542033851154674e-05 0.04690261048897704 1.07128541017907 -12.18544791786755 -2.920502762287914 -209.4805413755132 209.8549777639828
2784 5 -0.005044000816790228 -6.380578171932317e-06 0.04804180082490456 1.112176029187913 -13.68189776443039 -1.575573001149373 -293.2316814048234 293.5549279712711
2785 5 -0.00396793763058137 -0.0007164514466128199 0.03856735577636568 1.054614527748985 -3.09088090589739 5.875375103014355 132.6356984552425 132.8017397554926
2786 5 -0.001739327262777382 0.001955848406785993 0.04901146633179215 1.15507488130401 -8.259323523406854 1.137794224279693 -333.7064030786358 333.8105367666546
2787 5 -0.004905725729644603 -0.003224327877661312 0.04883899982733329 1.143224929529598 -13.3506948397648 -3.959174962649109 -322.6944382930275 322.9947625339178
2788 5 -0.007246320591049621 -0.002219997004533867 0.03967171485604783 1.031441580011583 -7.09811549012637 -5.811016068773926 91.57672959785975 92.03503982235377
2789 5 -0.006539815226550162 0.001935448294905747 0.0432314621697554 1.002639910757072 -3.516600532011994 -1.137744006208998 -3.850791911112819 5.337559280055206
2790 5 -0.006043527768302002 -0.002956765068855929 0.04386001217802817 1.005619896703859 0.6261179126572506 5.668624832498871 -28.1003850838654 28.67327977392364
2791 5 -0.003082330545588974 0.001460587612429 0.04997603769351099 1.187362026295921 -12.39098049556873 1.452247573314009 -291.01298341619 291.2802807219319
2792 5 -0.00444997291649284 0.003064972617124961 0.05061055671571093 1.205422337093422 -8.617215581123196 -9.110731702695537 -302.8986880927044 303.1581717269246
2793 5 -0.007876034193289813 -0.001506772695719574 0.04561606948506635 1.027914435124162 7.201112100174059 9.270943224658994 -119.6789966505711 120.2533518994025
2794 5 -0.002352069555475874 -0.001905192256151217 0.05263611444919385 1.249162167683763 -26.16726139868835 11.38356412082035 -122.146572611718 125.4356261274675
2795 5 -0.006929703367217608 0.002932530005235038 0.03533433821622668 1.111277115920897 4.025786965022546 -2.37094868810337 75.55993997633973 75.70424616623184
2796 5 -0.004820970529413154 -0.003109880726685138 0.0411738230994291 1.011060177460858 -6.152178388545739 -1.572467339821443 53.2599376177759 53.63714111983109
2797 5 -0.006865697955773582 -0.0003207502519418203 0.03573921512109372 1.103870385356333 46.41442861964078 -5.993257894749077 107.258085253419 117.0235667569161
2798 5 -0.002385503428464326 -0.0001705650687467781 0.04229923503116641 1.006810206449153 8.958270870458184 6.688302676973474 25.17005638239731 27.54116460827991
2799 5 -0.00511424818596784 -0.002500941622562382 0.04830329795740518 1.122046393304002 -14.20403139631335 -1.577816238899419 -305.3129722734054 305.6472722770685
2800 5 -0.001746178169596793 -0.001872726700361684 0.05185781242271256 1.237977215777013 8.630920385379927 4.803855252647562 -217.5665273015825 217.7906417044989
2801 5 -0.007195465650409804 -0.002316405534946233 0.04826736565418937 1.117249305579264 -9.333555874870424 -7.209284851719587 -301.0133272078711 301.2442733233205
2802 5 -0.00174569324523967 -0.0007875379148667525 0.04176392245017981 1.008937573445349 10.18076345524898 3.130408778929041 24.33463048684948 26.56353976010038
2803 5 -0.00703359286664967 0.002301463969117161 0.0348405824545512 1.116142409110416 4.123152449266696 -2.395573156658008 76.85933520158028 77.00712021948148
2804 5 -0.008667180124747022 -0.001127890134675053 0.04567632876038732 1.029054871728609 -1.601740042335076 15.01031147745978 -120.4163859703385 121.3588935017583
2805 5 -0.004008009552263896 -0.003082462168452977 0.05004072228361362 1.18622108171881 -16.19374879194852 13.95889340973164 -313.4004362870199 314.1288297340049
2806 5 -0.006874964672366565 -0.003281357040885653 0.04375598915931391 1.00469229994803 -10.43989275504186 4.888064439108187 -28.07085727833189 30.34563499151283
2807 5 -0.004426680282877498 0.0005087317052328074 0.04207433444193929 1.004992925334151 -7.530447351738994 -4.040350657601312 17.35372136543634 19.34382888631136
2808 5 -0.004443960392388637 -0.002503699598683279 0.03562828521764177 1.107943285209559 4.301315611496165 19.71133297655523 73.59930082701344 76.31444847424081
2809 5 -0.004718969482432933 0.003771954867259873 0.04155384907072047 1.007747336587162 -12.22160278785298 -4.631136299184242 25.55532768860468 28.70348012694005
2810 5 -0.002609200455477557 -0.0008176096034989149 0.0481506549661747 1.120276867936486 -8.494745954666788 -1.704536717853754 -302.216536300009 302.3407034579226
2811 5 -0.006003982185606016 -0.002419242015366091 0.0445023946528183 1.010959060178658 4.417240117114171 -5.369593435000932 -58.34024288205079 58.75311467016983
2812 5 -0.008663798325894652 0.001103591962477197 0.04784380059479233 1.099643374584064 -3.878935629166849 9.802103108893256 -271.1386737247103 271.3435235198502
2813 5 -0.004343067711456531 -0.002999166317035205 0.03610903945415207 1.103378172362911 -1.403059231986976 1.616765324833109 101.7934620438373 101.8159683949143
2814 5 -0.00404773436244043 1.504299444625293e-05 0.04068399876450921 1.016725168728289 10.17966700494629 7.775378163397933 62.92493705058849 64.215495238579
2815 5 -0.005232466723207953 -8.546838006526168e-05 0.03763792344678824 1.074228917222311 -6.388969683627494 0.8526609513328702 145.6324605465446 145.7750305407517
2816 5 -0.005482571858290668 -0.0004111786738333753 0.04117710586927796 1.012635486231217 -10.05078167467304 -11.49148110582391 55.74401764489858 57.79678064972317
2817 5 -0.003155297038142401 0.003366936956741644 0.04844885224885375 1.131234167765591 -10.44592572908326 2.670208383846818 -312.722185730693 312.9079941857234
2818 5 -0.007850374662169873 0.001359911682109656 0.04683472311286526 1.063505278466201 -13.23657064831298 -5.4482153266532 -206.4986880685451 206.9941980510653
2819 5 -0.001570868251777426 0.00156955361582025 0.04011731802212169 1.024759476013421 -10.58742430271862 3.234737496583769 88.07026389073397 88.76332836155436
2820 5 -0.005384400702266329 0.003853053874360449 0.04309183044283774 1.003484427084997 -0.5972840039448735 4.998919378421784 2.994952182147256 5.8579588344984
2821 5 -0.005205684195423372 0.003109435880274342 0.04746683371545373 1.089824352378093 -17.76869067360632 1.789611430871522 -265.601750799193 266.2014633786306
2822 5 -0.008340211471649076 0.0001501805955739688 0.04713606943877469 1.074902247898769 -20.09891471854545 1.556892293851728 -234.7662978811454 235.6302291882278
2823 5 -0.004904428375859592 0.002570516907853591 0.04794270518320767 1.109385190419314 -22.67888164435062 4.799963794350671 -288.7596841275585 289.6886716848156
2824 5 -0.003199375796039279 -0.002681588339856959 0.03814502144095428 1.064436980906967 -0.5136740041562813 -3.200831307739797 135.1777883705104 135.2166544874767
2825 5 -0.008095924186137336 -0.0008891769094358471 0.04443673547423396 1.009790669241544 -4.776389821420702 -5.330468974942876 -50.79485353228166 51.29663677654653
2826 5 -0.00701541437681261 -0.001528211563685291 0.04854969125875572 1.129000749834555 -10.30891845648665 -0.3967705868284005 -311.3321340579399 311.503015914312
2827 5 -0.002370949928790189 0.00159395480601605 0.04059816883334578 1.016252593110984 -2.323193867468131 -1.251103542625048 70.76899320851818 70.8181677930706
2828 5 -0.002482851415665912 -0.001910371251861474 0.03629812640125282 1.100741162914534 -1.381768824669236 -6.474492567169945 107.4817423783206 107.6854367301672
2829 5 -0.008234321474836293 -0.0002089684532569377 0.05050217874714877 1.196406280281373 6.958445849543148 -3.640732355916416 -324.7734826936118 324.8684194588114
2830 5 -0.005355744302776749 0.00313303035493938 0.04824629313520208 1.119763838505519 -12.62021850557545 1.930245556988661 -304.9359741768303 305.2031194306691
2831 5 -0.00723360896163461 0.001419802008824427 0.04145716740769814 1.008574583538285 -7.863234395436274 -4.603852863335177 46.15917796706682 47.0499269599875
2832 5 -0.001241398092013119 -0.001150020067765246 0.04240482511410384 1.005371079903107 4.86883634590159 6.778932486159301 19.27909172433231 21.00816200266689
2833 5 -0.006835419089670578 -0.002743833987395815 0.04439837163410405 1.01003146342283 3.143773637875505 -5.320534751008529 -57.79106123981297 58.12054853446158
2834 5 -0.004374516647164635 0.003622919134852349 0.05135503601988289 1.225343699533739 -7.963275241850821 16.92346554439503 -235.9678786346691 236.7079575889998
2835 5 -0.001814914570349752 -0.0003722483917973265 0.04799700175108709 1.115093470056476 -6.90016695546506 0.1306837428334174 -297.1116283074087 297.19177151754
2836 5 -0.007183572740763419 0.00133438320315237 0.04837753703639273 1.121854494380361 -13.74185011901831 1.241318021244242 -303.3846614357069 303.698258324907
2837 5 -0.001389727178243586 0.001041687599363125 0.04228507155095486 1.00509753623692 5.401133374901312 -3.961486778761029 23.25904913530738 24.20431750556941
2838 5 -0.002713529520512245 -0.001074234175038587 0.04719838445482774 1.084648808405937 5.86080965754624 8.888573992184591 -242.3912185653521 242.6249341577506
2839 5 -0.005089207209995497 -0.003247143946644662 0.05039703539960152 1.197045262792521 -9.739060534301215 -1.572920134506157 -303.775901726762 303.9360489440956
2840 5 -0.00307775813045702 -0.001763224688802306 0.04974327675062377 1.177658993571027 -34.60945013336404 -12.77037765410401 -309.8217421666059 312.0102698680174
2841 5 -0.003169537905168317 -0.001767709506678416 0.04106397942794406 1.013082181372533 2.894176144184724 6.339800866947114 53.63034680888514 54.08126689924533
2842 5 -0.005161531056023605 -0.003848198449858045 0.04321024019666811 1.003890539804696 -7.277158426202451 -1.179463071376342 -6.287301369368573 9.689082846485203
2843 5 -0.002654227180819264 -0.002152572637624538 0.05037728972686908 1.19925927735874 -13.54767823352033 -9.163146950564036 -306.8954351770888 307.3309469937763
2844 5 -0.002445281417316396 0.00177991442279829 0.04176610829494903 1.007420737280793 -0.8175194017513531 9.154338098766443 21.75966750343888 23.62103668044611
2845 5 -0.004288539402619489 0.0002102558631430972 0.03780279354491053 1.070953816881819 -0.2438982014929771 2.741043210476787 144.8129725817245 144.8391170650031
2846 5 -0.007305451570761922 -0.001263078679816829 0.04485152704896467 1.015009849858691 -7.932708790572568 -2.357310055520946 -55.47986549150329 56.09367392504421
2847 5 -0.003889230154889097 -0.00312115847063208 0.03870300847051224 1.051432696807923 -9.295240224935769 -5.563056085556958 127.7662426519992 128.2246538122051
2848 5 -0.003644133039970588 0.0002041361391559232 0.04161376722725177 1.008845774766344 -20.58758349535029 -1.590011056965081 22.62065853479738 30.62794348119365
2849 5 -0.005827625409804619 -0.003113500041568892 0.04829187852835574 1.12032126921477 -10.32718821034518 -0.3597428583553358 -302.6251329808145 302.8015048557581
2850 5 -0.008796215988976097 -0.0007331420952979333 0.04638145584841687 1.048071639036942 11.00191148973312 -12.26402956598457 -184.1991912353782 184.934557423405
2851 5 -0.007443956052764393 0.002017525647812109 0.04264064932202974 1.002408722222321 2.80600399721291 1.247625052260931 3.516480331144748 4.668603712324681
2852 5 -0.006079685359485227 0.002940226968459918 0.04826018152106936 1.119273242085459 -11.21477930885247 1.908881377950896 -305.3336456009717 305.545496185169
2853 5 -0.006670415392550518 0.002260119842765212 0.0445411022547134 1.011359600439675 6.611885406465601 4.62797830182688 -66.04386048578218 66.53515401391864
2854 5 -0.00237728896206413 -0.001742691727667275 0.05074928662448558 1.211530288696198 -9.744500752109522 -4.8624523171769 -309.4829934845949 309.6745420496017
2855 5 -0.005730498223397918 0.002238572813561639 0.03471244160394812 1.116314701890831 -0.9108258513447792 -0.06114480730428901 86.93524431905708 86.94003707862727
2856 5 -0.003643350900233596 -0.0004477907441507211 0.039456463548282 1.036024158279249 -9.478334262741818 -1.201941426195923 109.4443324351902 109.8605724806343
2857 5 -0.003766370039621681 -0.001018434288815635 0.04321981329611423 1.003938401986193 9.978398613601502 0.3507128395301592 -3.950698881152542 10.73775861328963
2858 5 -0.007235573874512814 -0.002318679385491553 0.04676778647705111 1.062606560549364 -17.05492010985091 10.70725493914756 -195.7129894365499 196.746257505642
2859 5 -0.004627965308852838 0.001433915724506206 0.04264044933962174 1.005132459053471 -6.266691022003787 -19.92811772101197 9.629534851387056 23.00280925717231
2860 5 -0.007575062088073996 0.0003746367250749597 0.0501804392152421 1.186681903028117 -8.281805309237487 -26.80170321204935 -318.9076066283966 320.1390028717199
2861 5 -0.008880039202915781 -0.0001558342110755117 0.04998275998102929 1.17905783570483 -0.737020331854524 -4.343068360880828 -317.1836476694038 317.214236424889
2862 5 -0.003518018224268729 0.001949096175977702 0.04403121477114497 1.007630790143156 -11.72175718585111 8.799714527885966 -38.57323761163028 41.26413972373141
2863 5 -0.002407273857089481 -0.0006240760812799127 0.05301523313150704 1.252302615618305 -22.78232242218474 10.59415715184412 -116.8745423762541 119.5446738101082
2864 5 -0.008793295645282601 -0.0007437987992207019 0.04495966487698811 1.016119912273993 9.723863095160324 -9.667246983505555 -66.99064557969812 68.3794981914773
2865 5 -0.005619102953481381 -0.003836886296667822 0.04882758039828385 1.141499805440366 -9.602373104809558 -2.081944146562586 -320.9170376427105 321.0674152106473
2866 5 -0.006691817711789306 0.001904587015382134 0.03690805850186477 1.087217014005331 -16.2781665903859 -8.249901641522127 135.7297562500432 136.951109219076
2867 5 -0.001786694062523336 -0.0003286141634422465 0.03937030801092511 1.03861411619721 2.580500565379039 -0.03334428045059424 110.6073052475233 110.6374080911504
2868 5 -0.008648396469447119 -0.001280784506214027 0.04786087209190933 1.100343951637446 -14.40759992621818 3.41728529037398 -273.5276668747343 273.9281681761213
2869 5 -0.003709208047494267 0.002290568266494156 0.04532700426041355 1.026189356726773 11.38133138402018 -3.242984450599054 -114.0486032265233 114.660959136668
2870 5 -0.001199042994265521 -0.0002661226698052826 0.03875447580483825 1.051153949534357 -3.931539367441302 -3.146005144460745 124.316323119031 124.4182564738875
2871 5 -0.006029153925076275 5.163623459356501e-05 0.04644176235455731 1.053934614874576 -16.44288668402017 -3.106230651977565 -196.9758952668789 197.6854079277357
2872 5 -0.004197243492020072 -0.003735703408222498 0.04860806927586671 1.134835209207738 -6.975916047079875 -6.591341062228516 -314.2244360880572 314.3709678334691
2873 5 -0.002302947793692695 -0.001817881395954275 0.04083220779898984 1.014940981360207 5.456126040073362 5.978828112766299 51.51162658798467 52.14368006486634
2874 5 -0.008396225798083638 -0.0009889799677392488 0.05257822430193743 1.244427837531312 18.10402098511034 1.302367948923997 -126.3199129508446 127.6172878022905
2875 5 -0.002680412300641682 -0.0007573630568144143 0.05082395506648722 1.213888313924608 -9.599442711961641 -2.794572411984412 -309.3225844138849 309.4841194049075
2876 5 -0.003991187387986022 0.002942784327728736 0.03647548837391577 1.097084331248505 -2.841770478726608 8.590042167551269 123.2700428340656 123.6016502487181
2877 5 -0.006067170300845799 0.003684093515879565 0.0487471922679911 1.13820501400258 -10.71066465785046 7.637616172538448 -319.0868750951623 319.3579267471024
2878 5 -0.004555829912850945 -0.003293014120936142 0.03538231501998153 1.111552945401716 -6.286115449282597 -0.1847098843086944 71.9267092881628 72.20111407871042
2879 5 -0.007829446237762517 0.002708804934586214 0.043710499045577 1.004938284252994 -10.28969612358191 -8.56141166307507 -27.14128938494108 30.26260407594511
2880 5 -0.0047976140365308 0.0009543055516893996 0.04854978735127724 1.132869053506307 -15.21794603419664 -3.086851744315917 -314.7691252964549 315.1518947667718
2881 5 -0.001986757899098193 -0.0013248408076501 0.04852549128926105 1.135472706752284 -7.657977005272233 -3.7328486991358 -315.4019328463013 315.5169694555377
2882 5 -0.003777530092746732 -0.0005335093465749193 0.03531040413297786 1.110696034805688 -18.67156599490776 9.674935785213167 88.27647645776113 90.74672476154635
2883 5 -0.004296140067319088 -0.001405414487964764 0.04743092752414346 1.090510058551276 -19.86970689458249 7.035399603354653 -259.8696708292093 260.7231250129859
2884 5 -0.004478011912970484 0.003673676716858571 0.03671823500154101 1.091897357009753 -0.776641448750274 7.433096895424045 119.3969462294519 119.6306184482689
2885 5 -0.005128358703466706 -0.003262453868414319 0.03981679763592996 1.029517336109525 7.745310975890908 -2.898190298858947 93.59419681502378 93.95883687323435
2886 5 -0.006577584285139699 -1.33981849060799e-05 0.04732505688405254 1.08398141923412 10.85583552658556 -0.06818741156006107 -244.4679491214517 244.708871850107
2887 5 -0.003946652188277701 -0.0006432947967754509 0.0440356002032805 1.006798830551276 5.525825183948769 -6.3330020635668 -27.14012663113563 28.41176046384281
2888 5 -0.002872366264629913 -0.002408237542964655 0.03546440020413918 1.110503431677868 -12.67846630128769 8.474419260619072 78.55952220863308 80.0259821508387
2889 5 -0.004143577001793046 0.003222393397990771 0.04790973845301833 1.109227203775765 -6.553489970649078 5.169007603780561 -285.5110742023599 285.6330519435536
2890 5 -0.007740568365264527 -0.0001324148989380719 0.04416886880981891 1.007618277456914 -3.851363132994867 0.4253529505882481 -54.24789861147211 54.38610509013606
2891 5 -0.005626608723965856 0.002869638849679516 0.03520619736562359 1.111449408701312 -9.035597845428791 -13.89694555714142 80.68746483053491 82.37253246696545
2892 5 -0.004399646736832464 0.002519554410038948 0.03565169043519575 1.10783929228338 -19.06699600831635 -7.736410001085827 81.61804397391015 84.17189244999297
2893 5 -0.004212335704755282 -0.003062776506582307 0.04274159733874662 1.003795873027506 5.626177143202995 -3.206205513873044 -5.467162243579069 8.47487380681897
2894 5 -0.003354893437811514 0.002729883421030464 0.04464630043453006 1.014650244586655 -7.905972696427671 -7.591010659770212 -70.95192791157071 71.79348105143065
2895 5 -0.007227814904202786 -0.003081707347227712 0.04303610915233209 1.002526674081442 6.185815774567363 -1.133658063775789 2.827649504405912 6.895295434005514
2896 5 -0.003150709345046996 0.002482065731354716 0.05029772397680046 1.197249857793837 -11.8765352665134 -1.129495751062989 -301.6466537903055 301.8824797723062
2897 5 -0.007225586967542853 -0.001558671210638964 0.03655529824718538 1.092905313096639 -7.721380186709668 5.768018330588191 118.3534338142216 118.7452106110687
2898 5 -0.007136580070080875 0.001661247685389543 0.04659109152372309 1.056868544561382 -11.31696695748472 -1.611871454171303 -203.9680225531914 204.2880958229352
2899 5 -0.004455926361830832 -0.0008059079323828949 0.04831698138657971 1.123972910079205 -15.18839389488493 -0.4165217587872643 -305.5541591409967 305.9316998413915
2900 5 -0.007993487158235954 -0.0005314012442784229 0.05298260552640259 1.248888516975379 12.30007318969839 -11.47663777229097 -133.6635881828122 134.7180753311623
2901 5 -0.006286054346158951 0.002242169632909264 0.0488047904338602 1.140488942334445 -16.06305194058858 -2.744401424548161 -322.3112127595244 322.7229016468161
2902 5 -0.007534292353352124 -0.001982974158693095 0.0423429277804876 1.004266035266519 -4.606337829993454 -4.267265920389234 14.9115902918108 16.17972285517185
2903 5 -0.004574172027676714 0.001531353231222977 0.04769298120838403 1.100258107674887 -15.8654066840628 -8.374718636983685 -278.0744058893184 278.6525116559991
2904 5 -0.002701064114986092 0.002291251002921909 0.03871640461601643 1.051551899589235 -3.754620506452272 0.04430047725259254 123.3071785924626 123.3643361353403
2905 5 -0.006023579408264269 0.0004189387954918505 0.04067213001217111 1.017895380819863 -21.39829282922132 -4.651449892260718 51.1555990071943 55.64546910477236
2906 5 -0.003611819044404898 -0.001290179518661196 0.04700079639483844 1.076819422933101 -33.44876782331919 10.81032125117878 -243.5099768672997 246.0341276090876
2907 5 -0.006299298986021042 0.0001647530414140721 0.04368531725654917 1.005359685226523 -16.23049131398419 -6.201456114569085 -18.68313337388621 25.51365083441927
2908 5 -0.003941038341361624 0.0005705471461940433 0.0490448697024372 1.153709651834219 -14.47753876990055 -3.332913757643289 -334.4045800416519 334.7344180029646
2909 5 -0.001688032166924716 0.001712345834831863 0.04788232909743249 1.110598230975698 -4.585579972241401 -1.424276912093313 -295.2432264899242 295.2822698649291
2910 5 -0.00460829030164402 -0.001400580848618903 0.03871241609589259 1.051144013096475 -11.05866841506042 1.134833915379761 130.4100116976578 130.8829750048225
2911 5 -0.00468943918204444 -0.002612428646102494 0.04746769393450043 1.091001653788418 -23.26985509442681 -3.054182176663556 -256.0207439347149 257.0942152398002
2912 5 -0.005907685574652953 0.001008787563507558 0.04383788836821764 1.006023757479318 -12.11899600374736 17.52744581389007 -12.17714047134381 24.54310842082837
2913 5 -0.001560915835851009 -0.001935401080400513 0.04239419687160356 1.005298536624958 0.3790560940198201 -10.88417395358022 19.2694051354913 22.13411169326445
2914 5 -0.007505053821197863 -0.001029882508757583 0.04231525147026656 1.004147489524279 -9.232589545970939 6.076859719876928 15.04784863868303 18.67101182132744
2915 5 -0.007271204770890689 -0.002077265966591695 0.03828868936539034 1.057916841833511 -3.761543729311192 -0.2226282480499624 135.7943418130747 135.8466121881975
2916 5 -0.006551007518990786 0.003503367410306997 0.04383033811574231 1.005480488215884 13.28506172286257 3.838467361982033 -27.51423620742523 30.79382877700107
2917 5 -0.003657915212415054 -0.003449877143597028 0.03643321835764248 1.097802352661318 4.672838617071018 -6.087595074647051 121.6585081619051 121.9003151871003
2918 5 -0.004874755891971586 0.0009849893300279838 0.04370715706451814 1.006261695379748 5.652273221274809 15.18201962112945 -18.90560865145256 24.89706711293877
2919 5 -0.006016860880590556 -0.0001533348204690268 0.04834749021360663 1.122548126888055 -10.92690853052771 -1.298560956994921 -304.8152265102862 305.0137798577477
2920 5 -0.007804296589701609 0.001947282920286457 0.04612509336777757 1.041158297543752 0.8884366211638367 -6.175680776930188 -176.7593783477008 176.8694608646558
2921 5 -0.008020513709617261 0.001241233621899024 0.04862007699519802 1.130269697493589 -7.511701455680872 2.577718817183499 -317.0514828700593 317.1509310772447
2922 5 -0.001919243635384441 -0.0006288729633369988 0.04654473123974014 1.061183222625695 -2.389750110075281 -3.398001947182024 -212.8269059575173 212.8674451913011
2923 5 -0.005898648901415221 -0.0007077369887879064 0.04221687716600214 1.004500120744318 7.356809869632749 6.412339812541592 15.26993960974908 18.12213588445952
2924 5 -0.001192472013970388 -0.0008794795959485122 0.04837183807417346 1.130289308872274 -5.591631874341019 -1.499658944647901 -310.2148590672474 310.2688738982378
2925 5 -0.002801130071549098 -0.001523042254844208 0.03564369867848165 1.108205147175466 -16.40052482206569 0.2787355635178588 77.97108993467828 79.67776210182645
2926 5 -0.005674814740545931 0.00255174959908957 0.04675017766810864 1.063633527672534 1.947065192797673 1.111844149983945 -212.1147241704251 212.1265741725311
2927 5 -0.002724011148582626 0.00214717705005294 0.04705603775203835 1.078303189510199 -7.868388573383477 -1.220220596976469 -251.1427270268643 251.2689193186
2928 5 -0.001797852360206511 -0.0001080735751098141 0.04318340282507955 1.003968359000086 -5.18814212283735 -4.12336170729952 -3.513384520537228 7.500853367793152
2929 5 -0.006622645384383454 -0.002738513309281134 0.04014106061804272 1.024354963554317 -11.03714766228927 -1.750248625392535 85.03710490435465 85.76824126262636
2930 5 -0.002947990393570488 -0.003375224903370359 0.03866979947132119 1.052763823198142 -0.5026760253377095 -2.819254680047453 128.5439818101702 128.5758769744573
2931 5 -0.005231757766327854 -0.001350926403881157 0.03974908236302738 1.030684746966576 8.53556632071675 6.110037026587007 93.58710899639894 94.17396357372601
2932 5 -0.008208868583124163 -0.0009015843441879582 0.04299505473663191 1.002098217627732 -0.7370877115142865 -3.269133622819541 1.812977912962962 3.810173467337953
2933 5 -0.003782796060364003 -0.002372372513598151 0.0351311056586354 1.112950948524503 -5.304480980979898 11.67037389953263 81.10495637088054 82.11180848912601
2934 5 -0.007626685205855823 0.0006691125044178418 0.05106290216813548 1.213739985254352 7.989541427674482 31.09496418177842 -262.9434901972728 264.896222333981
2935 5 -0.005667459288699496 0.003294452890859282 0.04627523448623137 1.048379130618394 -2.443288003254417 -9.340954663532266 -185.9233157203928 186.1738499863981
2936 5 -0.005231651013012298 0.001167358233056465 0.05294566143591024 1.249965988282126 -43.99112546491428 7.748923885662355 -119.833747785707 127.8882013691023
2937 5 -0.004924819195389733 -0.001198373343156268 0.04057771028390684 1.018748884469468 -10.38961975160531 -11.5930842778989 57.68046198897196 59.74428421965278
2938 5 -0.00777520195236531 -0.002774019515579736 0.04634253466098042 1.04864988589156 -15.21669215779043 12.26139479259169 -182.4827161736499 183.5261050221402
2939 5 -0.003653058370510978 0.0001182111633948154 0.03703092912547383 1.087737585211837 6.507753281057107 4.813075467012124 144.1211507289971 144.3482685579172
2940 5 -0.004946075103271946 -0.003859023908967274 0.04064242209900604 1.017215949164301 -9.549932140778557 6.102393990442335 62.21878517603475 63.24253035014984
2941 5 -0.005580685291014684 0.002413876895135804 0.03800041655557509 1.065525080127566 -6.091176059406195 -0.4318807406233383 141.1682112836788 141.3002223062447
2942 5 -0.004076106818611898 0.001176800804756546 0.03929159349391801 1.040022923330877 -15.83761631139125 -2.788105663694182 101.7002219164416 102.9637740250048
2943 5 -0.001289129925431727 -0.0003426561288113445 0.0471234467465147 1.082584166839614 -10.67097171226956 -10.15793786782704 -245.4988745763346 245.9405431344282
2944 5 -0.003909140725701287 0.0006388537452086615 0.05003204065885811 1.188413095653148 -8.231353504267338 5.316120737657819 -291.9983225468536 292.1626887376037
2945 5 -0.003714320262315902 0.0005466193357274471 0.03971031052410284 1.032131545877906 -8.770080254435891 -11.11643905689523 103.85812920365 104.818893939294
2946 5 -0.003429967315926417 0.003540772135745399 0.03611728645915809 1.102516829973481 2.368729846582494 10.87723691662939 122.3940970490648 122.8993090154801
2947 5 -0.001834959823765614 0.002148479320329169 0.0387692894401144 1.050535341443417 3.042603018035293 -3.176309319291203 122.7271433343883 122.8059366848226
2948 5 -0.004636329668534081 0.0009725119937078407 0.04663113759560137 1.062038948370039 -3.909499131607027 16.77065106052076 -210.2915900362015 210.9954780567765
2949 5 -0.002929998857251534 0.002332614674982243 0.04194266900762786 1.006280521725796 5.386865423895371 0.3426040355051978 15.77240497581646 16.67046656040148
2950 5 -0.006407968687863926 0.002763184580733795 0.03756649986997804 1.074338228297962 -7.491363072993294 0.3535281699968633 144.0998999182246 144.294929430319
2951 5 -0.004342177673275241 -0.003812120327270962 0.04322105582561794 1.004067717313016 5.898191575675773 -2.573284008566227 -6.152281546554495 8.902865981255154
2952 5 -0.00659359483439477 0.0008785649894741564 0.0450361495676927 1.017029550541443 7.054128425555885 -6.877007699783901 -59.89913855118376 60.70387765144028
2953 5 -0.004269008519670772 0.0009669408457540718 0.05230799606924478 1.243019507803191 1.163451555149302 23.50412748997569 -135.1185913864986 137.1525842514744
2954 5 -0.007744386635544208 -0.002763750428621643 0.04878853701521611 1.136934436891469 -9.063716060680415 -5.154894192170275 -323.4715768012707 323.6395910287576
2955 5 -0.004420044058700407 0.003122529559961398 0.03751096895297828 1.076672695187085 -4.97935047757633 4.230680871744864 145.2622018735883 145.4090777254989
2956 5 -0.006042650046521604 0.001330473797827903 0.04466972055183546 1.011984744340772 10.34177604580652 -3.616609392348284 -62.3114134608244 63.26724620816247
2957 5 -0.008518091181790605 0.00164594691700657 0.04636872495691974 1.047795031448571 -9.807874941887402 -13.24833742925782 -181.9342364364023 182.6794439536422
2958 5 -0.005104689222833983 0.003164871233426535 0.03781257228695015 1.069753068191132 -0.1836821064886799 4.198638020828857 139.5439360745002 139.6072075342473
2959 5 -0.001301382471210399 -0.0005916105254903791 0.05173693110502575 1.236774695894351 -10.3903855316808 -32.89874000988074 -209.0522908361439 211.8800309363164
2960 5 -0.002367999294391109 -0.001981638478241083 0.04727340064212314 1.087443245782392 4.386204964985137 -5.091788594162777 -248.3564720952817 248.4473834370105
2961 5 -0.005332705475632043 -0.002715073131820794 0.05105733780325052 1.215458885646906 -47.73673944879948 7.441268002150021 -280.4657279424427 284.5965448015255
2962 5 -0.004386983531291353 -0.003761065362554222 0.05064432048809089 1.206096442532347 -25.28760974549602 5.16097310523262 -313.8767986716572 314.9360944610851
2963 5 -0.004072974775072845 -0.003251779733042721 0.0477716467930199 1.103558305476602 -14.00905077796268 -7.147857526704335 -269.8282685323553 270.2862184242667
2964 5 -0.007498751166091411 0.00118028372982289 0.04239641552053686 1.002808184040688 2.605023038780928 0.8043860027653803 3.25439403101387 4.245499073503961
2965 5 -0.003838426664772859 0.003117542218055611 0.03529348852043808 1.113271791008354 -8.341758460974891 -3.678718247868189 74.80262623940784 75.35615963198357
2966 5 -0.008000425279444601 -0.001371275261543653 0.04009031383043641 1.024017297632154 -2.895737073017448 2.891161386000814 79.2464212032683 79.35199670381181
2967 5 -0.001645199740303632 0.001755513232602489 0.04228525748372493 1.005059097140415 0.8623763292118352 8.505934357077559 23.248385398189 24.77058812064874
2968 5 -0.006543146525673284 0.003564257586647257 0.04060906878671387 1.016849082806149 -7.696612536015713 -0.829581058581135 60.04356334566113 60.5405281485612
2969 5 -0.003335426873273149 -0.0005453114722699893 0.04228100666012063 1.006662435974679 -19.17695036741936 -2.320055121808674 22.88050898188075 29.94421100033564
2970 5 -0.002613022585488965 0.002101053116987652 0.04403049134849459 1.0084494054343 4.758411591401848 6.110932217627813 -43.14035260302999 43.83008095081944
2971 5 -0.00792206983216898 0.001805316875255045 0.04086240043822202 1.013954838734049 -3.652806612455609 -2.873467457391797 52.00372836881664 52.2109909466805
2972 5 -0.00203157274734788 -0.002537432437776309 0.04071280350750093 1.017253544748746 2.671755662048963 11.40468866429553 57.37608609520925 58.55954625380961
2973 5 -0.004780723788073923 0.00386771533978499 0.04722692503320982 1.081723585855255 -19.18721484122397 -1.452191439887621 -254.6142420283916 255.3403029626027
2974 5 -0.005580471299478531 -0.003787258386724498 0.0439259268788855 1.006416279522844 6.005693011260662 0.8695074830002465 -28.14876788687068 28.79544278800763
2975 5 -0.005119696438403872 0.003843108186119039 0.0465055668530077 1.056290359968202 4.979605699322563 -3.584536083157948 -192.4781017276744 192.5758682092363
2976 5 -0.001869102224416595 0.0007388802051169524 0.04642394043716401 1.058520833429313 6.626663412160809 -2.330275329733611 -193.7880973384617 193.9153669030682
2977 5 -0.00801853004296333 0.001337164447764382 0.04001240983152989 1.023868690594698 -0.9247502855262972 6.06629037678899 73.22687179261524 73.48353417302555
2978 5 -0.003266288818283761 -0.002197583821863693 0.04707581258213384 1.079613860309556 -7.154941822669108 -15.3990342772095 -245.9078631341786 246.4934088375881
2979 5 -0.006557855519727001 0.002603596174025805 0.03643635576050717 1.096614207264484 -11.11388110995423 0.07876766773616395 122.3533473483579 122.8570965187587
2980 5 -0.002415882601036016 2.774507779199883e-05 0.04609522493038946 1.047204581234863 2.267586232320378 -16.27553667818912 -189.1063861955952 189.8190199675514
2981 5 -0.00188935663666182 0.002036455491485168 0.04722609502288355 1.085175267895504 1.383106658995916 -6.742818747765647 -256.600476508928 256.6927796672596
2982 5 -0.008153757375128003 -0.0008473746536821326 0.03847393860321986 1.053350906581146 -4.381557909870964 -0.7549793006066542 131.7730099622815 131.847996564155
2983 5 -0.008088154073509369 0.001424711604716488 0.04062867466851797 1.015948992386534 -4.65285618462529 -5.98909515722409 49.47169814865002 50.04964784279938
2984 5 -0.003013389642083299 -0.002488801832664624 0.04259565232710798 1.003145256273482 -1.755157393206774 -1.708029419230939 6.971322245913187 7.388996943310429
2985 5 -0.003973190428287475 -0.003845791445036217 0.04730023869509313 1.085291123087297 -9.28666063879421 -11.160874146537 -257.1767869199988 257.5863096284999
2986 5 -0.00671396492792564 0.0005057892888065611 0.04126348443009245 1.010160597527642 -6.977887664872684 -6.661679825015082 45.63830659205819 46.6467997074322
2987 5 -0.007777001219953307 0.0007993574108197883 0.040477675916397 1.01885407265824 -5.078998739367077 10.93778013457538 63.19032464325871 64.33077328143378
2988 5 -0.003118655737328145 0.002794339484315419 0.03756525992690492 1.075458206737894 -2.927485245298218 -2.517750426300731 137.1784986505705 137.2328303617438
2989 5 -0.008904929971375505 -0.0007657501074309563 0.04256993919726541 1.002669366026584 4.566227572622616 -3.999521779791175 5.981611986329018 8.522105999516668
2990 5 -0.005917243355474199 0.0006196824317496017 0.03787665751565076 1.06809777338312 -6.413227257223375 1.004625376202725 142.2193223221658 142.3673923262465
2991 5 -0.001787493746275441 0.0005192567369204136 0.03937391559463471 1.03841241886455 2.499722363242108 2.214066401884062 111.3198568141367 111.3699296176717
2992 5 -0.003933219533715946 0.002391637170831564 0.03726822232535305 1.081859669425837 8.1957131411263 -3.649297817080185 146.230115233208 146.5050636994049
2993 5 -0.002751709753650711 -0.002965768478232846 0.0373224453283222 1.08150534339612 6.952394904209108 -2.018114747663723 134.8566597062083 135.0508320935302
2994 5 -0.004001927747158304 -0.003070354847659666 0.04117151971948515 1.011575430737983 2.511785934173432 -3.032622959146922 56.25936127249486 56.3969999324481
2995 5 -0.001306476849891187 0.0006169728461202972 0.0430353125809866 1.003790057651373 -1.32498737949799 10.40762280741019 -3.509973569196117 11.06318753857174
2996 5 -0.005371289155320941 0.001149756029848363 0.04063959012208988 1.018132213884742 7.244222574311465 17.82460734099682 53.44072873423559 56.79882811478627
2997 5 -0.003802397372382477 -0.003654350937517013 0.049329723309602 1.162192594047518 4.715715930458827 -5.110826849448412 -319.1625639289693 319.2383133985256
2998 5 -0.005921895753101506 -0.003644476989770016 0.0475746337232498 1.092424694080231 -4.715025381404485 1.700249000159658 -266.8198846981801 266.866957829852
2999 5 -0.003375014409612061 0.0008434639243705747 0.03683907229808618 1.091021403674964 6.374900389917797 4.547848370397247 146.0160092371145 146.2258432470629
3000 5 -0.003860844080985047 -0.0007846180060461819 0.05227923979580585 1.24276378413099 16.00863875719881 -11.46580535505702 -133.9014184412749 135.3415348955521
3001 5 -0.002097615926314816 0.00132627157919625 0.05036663554460784 1.200719144012452 -11.62391931111057 1.183210333160599 -301.1153846119423 301.3419823669474
3002 5 -0.003712466132851755 -0.002239035130211967 0.04316091941168873 1.003709250922762 10.42209277249116 -0.6622103886471623 -4.175407438201811 11.2468914652999
3003 5 -0.001724215595331072 -0.00018213434303832 0.05251523313150704 1.247913441124689 -20.41121940501304 13.25456519504675 -115.4925442516342 118.0289335452329
3004 5 -0.002987616510356837 0.00159666810627912 0.04635124919200304 1.054431239297435 -15.28638813520711 20.15226269215354 -189.4036614751201 191.0851494334808
3005 5 -0.001710106711308077 -5.456783352242398e-05 0.04522006125347582 1.025190854395401 -15.76265293386405 4.361281607835525 -97.48434255637298 98.84674525964205
3006 5 -0.002284815554956733 -0.0003546959619531407 0.04461815149756877 1.014924023595495 -0.7532206411589346 8.497680119570258 -68.37239923268557 68.90256080569537
3007 5 -0.001827811550921864 -0.002093134698371183 0.05023262024532624 1.195621725252032 -6.605898163463596 -7.60382928865236 -303.6389786929603 303.805999763173
3008 5 -0.006273539287519524 0.00298603618032891 0.04929180118078195 1.159420714251565 -17.47079781492425 4.613965416917623 -327.3396627282437 327.8380274589859
3009 5 -0.006095840994829383 -0.0008296312650884828 0.04592127524354626 1.037115493633106 -12.12745484146189 6.248081268816611 -175.1286890064223 175.6592479591713
3010 5 -0.006079603026923548 0.001223511112790827 0.03517940150852673 1.111564673072713 6.347825314312582 10.47806079848407 82.02068638325855 82.93055913894835
3011 5 -0.007264910081854447 0.002327697735600617 0.04833546000838159 1.120118883004587 -15.41594507393233 -2.763792317172232 -301.9209561952701 302.3268987377094
3012 5 -0.00650463220742604 0.003140901821832509 0.05261230895747317 1.246589869435195 -2.410672186110148 -20.60015185042191 -117.4888977152172 119.3055685330157
3013 5 -0.004695103025245715 0.001067207261806299 0.05055360938278618 1.203266714007799 -13.650284036419 6.798091193930418 -298.7645701138635 299.1534934669451
3014 5 -0.00530624431475525 0.001326266712592113 0.03823055940112724 1.060670929180072 -6.227905305224169 0.951741748828581 137.9432557821327 138.0870538197632
3015 5 -0.004403752547318712 -0.003006345419211639 0.03756205782692103 1.075803622952021 -4.664555689248906 -3.957197856797497 148.0659948255143 148.1922950707127
3016 5 -0.003018624430858883 0.001902939504383614 0.03774954537673275 1.07147997899064 -4.135279156711026 0.07558847161612908 133.7734700770509 133.8373921734005
3017 5 -0.002152961998436031 0.001485946547711348 0.04652130646284824 1.061303317682741 -0.4949333953433445 11.4550550487576 -194.0440331197868 194.3824838678342
3018 5 -0.001289109223061231 0.0005072312041137211 0.04712516367691365 1.082478765448593 -7.925542158327248 13.34952047704295 -245.4002138129124 245.8908067718139
3019 5 -0.001371644527343563 0.000930187890054812 0.04787876377714681 1.110684212782214 -6.172878006565971 1.461648672287165 -295.316920728213 295.3850444895929
3020 5 -0.003668401308961988 -0.003166451409914498 0.04754196182291012 1.09554466265296 -0.2605879332613288 -4.799816292935405 -267.0390869191306 267.0823470114038
3021 5 -0.004811252814971008 0.003892070084944584 0.039598394409215 1.033621282998342 -9.335489830127964 1.590065703259007 94.84317817583191 95.31478440305943
3022 5 -0.008857359521932789 0.0003126683494335554 0.0478427665084985 1.099616500228003 -13.7690588523499 -6.629873820056757 -271.170192357401 271.6004702346798
3023 5 -0.007855545465296267 -0.0001411318044085689 0.04320145180349035 1.002309981198127 -0.001262648332355959 -0.3235765163674362 3.886229716955614 3.89967752117713
3024 5 -0.002610257082476786 0.002858250197890429 0.04261105709967508 1.004150319089378 4.708841884957105 -1.742572989969942 10.77222348975828 11.88488752307733
3025 5 -0.001814095838928296 0.0004756773342695308 0.04850231878171922 1.134996020118312 -7.396569478442749 -0.2320574574257873 -317.2439393746795 317.3302383333148
3026 5 -0.008271546858942786 -6.615347497471467e-05 0.03800093983815753 1.063729675979616 -4.715898876600139 0.2743255153397843 137.28049595755 137.3617469569079
3027 5 -0.002569089817765873 0.002809480147179462 0.05164806150023334 1.234513805949367 -25.88071065874519 20.49307198657525 -228.1626696181002 230.5384588109043
3028 5 -0.005356281318652989 -0.0009943845571863069 0.03807862555091487 1.064201685946435 -6.571353091341381 -1.209874523785347 140.8111159255774 140.9695599979683
3029 5 -0.005546802248280296 -0.001234467869096278 0.05056962436424407 1.202464225259286 -17.4302251602467 -8.055880576459856 -299.4213839861345 300.036456366841
3030 5 -0.007630445135556933 0.0004709323172160493 0.03793324042949944 1.065566983948674 -3.902037041192677 1.778736071971108 138.2076200066161 138.274133600532
3031 5 -0.00284840774611762 0.003141220363148923 0.04898409223233154 1.152608743489841 -9.543030452336172 2.1507646501089 -331.2367815889725 331.3812014828467
3032 5 -0.004912413799984735 -0.001756469578302257 0.03522390399317691 1.111400204759079 14.03963749396824 -3.71868725133589 81.21753542228221 82.50592776222175
3033 5 -0.005941737157690701 -0.003302274648380772 0.05072651566624318 1.204960293838985 -10.26173944452083 20.27457719170976 -274.8895524559435 275.8271702101857
3034 5 -0.006587237632476785 -0.002841634096989198 0.04827847590213449 1.118450327422479 -16.2111149383491 1.093867741540411 -301.4139341001063 301.8515470622663
3035 5 -0.007300915323766238 0.003059513303778065 0.03609753670653165 1.101237716807528 -12.30588891353333 0.3774466378840338 123.4017664075381 124.0144077130447
3036 5 -0.00851175418873629 -0.001401217669634617 0.03792916837570647 1.064947301982071 -4.942435276431866 -1.72453583887492 136.9883702071682 137.0883483828493
3037 5 -0.006507729137219208 -0.002102876873187786 0.03751893522247082 1.074196709884678 2.521538038170701 -6.35708237779984 131.0232570526073 131.2016178982169
3038 5 -0.002998587499222379 -0.003158681160503962 0.03660689184390336 1.094931234294636 -1.569208260829679 -8.524492870377664 118.6673340642707 118.9834676212801
3039 5 -0.003865082889930742 -0.0009852754245594905 0.04983032454676957 1.180346901678106 -9.750829307465152 -30.81181772746817 -308.8931557863496 310.5791822957618
3040 5 -0.007091272944903947 0.0002659499613404791 0.04051771870849535 1.018445932995113 13.40196731935187 -0.7515807937935878 66.80458518163374 68.13978428942033
3041 5 -0.0066228922766494 -0.002841792771654896 0.04677698285339178 1.063662874244408 1.787319105974804 -11.98878819561109 -195.9355398932904 196.3101152392841
3042 5 -0.008125490484863329 0.001251943924360572 0.0390268449091265 1.041878459677898 -4.030371458431046 -4.301596631518412 118.635632809674 118.7819893747575
3043 5 -0.001886469851246551 0.0008486218471235284 0.04383408934123698 1.007781227304899 4.281338662535411 -10.60917229501146 -41.57119049156636 43.11668211278155
3044 5 -0.008126824595267155 0.002411280769788481 0.04299863248548959 1.002611344773578 4.622253115705179 0.7469606280175431 1.882352480823334 5.046426944632842
3045 5 -0.001213447043286157 -0.0007111351273253238 0.04517128449322545 1.024786686803294 -6.295147597732007 -16.42182096186349 -97.29203326086214 98.86882634588839
3046 5 -0.006400887425242576 0.0001790994680257685 0.03992636429057403 1.026180716287333 -1.66501563612247 4.474258806210872 80.488569340974 80.6300258184894
3047 5 -0.003617513274879284 -0.001089225784354177 0.03531040413297786 1.110674065014834 -7.72175560305491 -12.28119407538359 83.33617726775761 84.58943006731791
3048 5 -0.004762979148175701 0.0008823716789824735 0.05355053770740975 1.257233836911281 -1.292271804444885 1.269360945495769 -110.2601345301996 110.2750130820406
3049 5 -0.006681507975773673 -0.003372611045190321 0.04756123109702855 1.090553752287939 -17.67238576582071 5.418961861386239 -265.1954425081768 265.8388630231082
3050 5 -0.003103661036968152 -0.003215322046686333 0.04193153816699188 1.005894659670323 4.638651556687101 8.492025929364429 27.03773052748029 28.71707618693089
3051 5 -0.004745750808532557 -0.001485110521781771 0.04984306857471368 1.179355849775777 7.485555372921608 -18.08013107869403 -304.9858106458994 305.6129404563888
3052 5 -0.004903624372198498 0.003295695441129458 0.04519038047560412 1.023270490334774 -5.784902896655016 7.853691932140647 -104.67041893652 105.1239372304676
3053 5 -0.008703466207629351 -0.001248505015602078 0.03981650488000571 1.027505794334038 -5.898340725274351 4.877789777224613 80.57821837877091 80.94092001898126
3054 5 -0.007166725589518913 0.002399404561516339 0.05070794402736135 1.205673294987009 -10.74947805029883 -11.55714716842589 -299.0754832862453 299.491675396709
3055 5 -0.005088905046360189 -0.002555634592649817 0.03723787892343061 1.081379442653614 -22.25027410453559 -2.729118041994695 137.7718198538262 139.5836563815737
3056 5 -0.008100985931757494 -0.00223376159077534 0.04167696809354729 1.006629256662762 3.663188227131205 -5.035574135599484 25.38958733938663 26.14205615721252
3057 5 -0.008201097274010288 -0.000894797693280659 0.04092922671637323 1.012211835275678 1.824331179977236 -4.767638635024686 55.76795570818525 56.00110218806884
3058 5 -0.001254234729943545 0.0007871415524052584 0.04011559117605512 1.024834928685503 0.1967003586621235 -7.93108943939821 88.09642703662861 88.45293283632182
3059 5 -0.002377845361561875 0.0001235754258934173 0.04398217958532992 1.007959528653612 4.480645814075445 -9.998497665326736 -41.71302779861985 43.127981990851
3060 5 -0.003246867075444011 -0.002731866355493877 0.04118212330583404 1.012016182382424 -5.141140344440385 -5.970249558954484 55.29209460979951 55.85061262131731
3061 5 -0.003744675278870539 -0.0003892947025288612 0.05053900596501651 1.204305210694229 -8.071732405352666 -3.202599928942138 -301.2233636114687 301.3485096955609
3062 5 -0.006491075891356976 9.932824473693204e-05 0.04992595053622175 1.179801269789015 -37.81959735389155 -22.02459681776611 -308.5867316385634 311.6747916536825
3063 5 -0.008438518638322092 0.001874499340500365 0.03870140242569602 1.048812965208609 -5.106018244287403 -3.106338723150102 120.8460210069664 120.9937252744542
3064 5 -0.007356370263223582 -0.002127155679918332 0.03715165498605995 1.081652984657862 -0.6666354952217504 -5.955361493326749 132.0942560691804 132.2301146481765
3065 5 -0.001788155886934813 -0.001011263255756041 0.04456937473731839 1.014519856003387 5.0793360238144 -2.998915940070724 -67.30770201322009 67.5656710287026
3066 5 -0.00244989779903175 0.002881840362040414 0.0446455770118797 1.015468859877799 5.052632268949449 -7.959919183676694 -71.34696010709743 71.9672017156402
3067 5 -0.008098974035860297 -0.002237081878711309 0.04024792687600098 1.021344400377243 0.9260971379559035 -5.415371481421952 78.28000005827423 78.47255770850178
3068 5 -0.0059385688654952 0.002487631248064874 0.03876477072347435 1.048821880943229 -2.387286166783982 1.015497338941266 121.1725931386639 121.2003617900363
3069 5 -0.005228505137935321 0.003198461619521724 0.03561057859008834 1.107821523240215 -3.424580116025671 -10.75938930569671 80.75680718415703 81.54234552538782
3070 5 -0.003046731416819726 -0.001911215610017249 0.04433107149268103 1.01090739872039 -7.736203369003359 -7.532049471010288 -67.28081980287325 68.14168566411479
3071 5 -0.001199842678017626 0.0005817482305573778 0.03875808338854785 1.050952252201698 -1.782776639049719 5.290174829488448 124.207701938434 124.3330907807659
3072 5 -0.007394110935496382 0.00145925336536219 0.03925452042535597 1.037788673222279 -3.904511615996165 -4.205751411755379 116.4837394998331 116.6250192872949
3073 5 -0.002066595783823372 -0.002374682007518144 0.05149258011587296 1.23080562546479 8.230120819112864 -1.243027067525131 -217.7242191209526 217.8832613965937
3074 5 -0.005754782936352325 -0.001785827285034056 0.05118029538830363 1.218691900316877 -34.6171348023707 -51.03164866463233 -289.5340521948569 296.027942207708
3075 5 -0.005664127889235765 0.001400021065521183 0.03899491356902651 1.043967729995735 -1.25081003364215 -3.156739519703036 119.0338298675995 119.082249655791
3076 5 -0.003858721708682445 -0.003553810538852121 0.041920934580643 1.005453908025883 -14.82263272459547 0.04653019371642896 26.77280969852074 30.60222124454991
3077 5 -0.006765025301263016 0.003314134461333195 0.04754833142940376 1.090844036118299 -0.1057581034859312 1.4478802525642 -261.1131877046342 261.1172233600797
3078 5 -0.008024023112636504 -0.001832574995964748 0.05257144655568807 1.24453240364635 11.08229268363618 16.36661708256697 -126.1500542529551 127.6891520602931
3079 5 -0.00784861822873361 -0.002561682689544112 0.04303015290254848 1.002483301182368 -4.553620004107731 4.676891507037887 2.706854884079838 7.066529040050716
3080 5 -0.005395876203733363 -0.003227471742810292 0.0469830949468234 1.071157744188168 -13.72510509785951 0.03855670871579322 -230.8617593331107 231.2693925251376
3081 5 -0.006166818446207096 -0.0008035710620243464 0.03960271222680141 1.032856684195795 -1.908703380758253 11.3978430820639 87.63623715416372 88.39493219670399
3082 5 -0.002540325515073169 0.003061677024117478 0.03703305934885553 1.086825294305774 -0.09340588049870117 -0.6761746543970215 139.7116690868659 139.7133365712081
3083 5 -0.008652572375725339 0.001601855507571023 0.04110895257558161 1.010597442982458 -5.280341507070213 -3.566215584592742 51.12149924971268 51.51706111149446
3084 5 -0.006124186882291164 0.0005627308293312598 0.05064022119910652 1.20407164268295 -15.40229543025332 1.716891076200385 -295.1397645920032 295.5463737942177
3085 5 -0.005519568187711032 0.001616537086987564 0.03471244160394812 1.116360475396171 -1.097468316023285 0.389100466660261 87.10039664600598 87.10817947684018
3086 5 -0.008131473243464249 -0.0009823448502327648 0.04031296187938514 1.020131533483842 -5.229247396745307 7.502492516069628 81.96371800558502 82.47231954776773
3087 5 -0.003897090897174251 0.00365598914804712 0.04153367953487238 1.008521567463068 4.167664515585066 -2.249323330522958 25.0485061298799 25.49228397571181
3088 5 -0.004170997850639665 -0.003599512673315465 0.03688966835535656 1.089431045950897 -6.374543295363337 -8.203713312695632 130.3285760604252 130.7420110457209
3089 5 -0.007442625217394731 0.002860743591603798 0.04755487247167909 1.090034814829662 -16.65129746269537 -9.287007548238163 -260.6515691606692 261.3479571802912
3090 5 -0.003148659202210873 -0.002642879751174363 0.04464085625631484 1.014127361784057 -7.368156751706046 -5.532202607654167 -70.39280645273179 70.99325460845985
3091 5 -0.004856150349681142 -0.003148801846753641 0.03656548945186615 1.095006865652489 -14.23124860882031 -6.956862323914678 131.9955044779191 132.9426175939842
3092 5 -0.001776829794864954 -0.000288448935109001 0.05045758761142566 1.203889799409617 -14.00224866842577 -7.789504764480283 -301.0045487775581 301.4307179718577
3093 5 -0.005224523500626455 0.003698454573528254 0.03638819282449646 1.09773242683667 3.822087169053718 7.394654497617234 123.3704297302818 123.650928816978
3094 5 -0.005449363987312402 0.00274673720815661 0.04543959033171883 1.026999914509004 -22.0350463028655 -3.020104183821758 -99.82374926782093 102.2714291126087
3095 5 -0.006631253933513646 2.117777637059291e-05 0.04452323337826872 1.011033618744617 9.58077234871293 6.090334832292497 -55.36613975514524 56.51807506058192
3096 5 -0.001251045149946929 -0.000258856672123019 0.05108403260685325 1.221695740163146 13.53550989863215 10.68171748154409 -270.3818168066129 270.9310539163354
3097 5 -0.007299467447919542 -0.001315575903795075 0.0500492065853237 1.182673880366901 -5.095232379886293 30.26309126715994 -305.228288473166 306.7672149534688
3098 5 -0.00403292898192332 0.003775604673978685 0.04718890027528373 1.081530238518994 -3.160956600443654 -0.618587453762742 -251.8524358898831 251.8730310309849
3099 5 -0.001506272956529547 0.0015986087548083 0.04975790101150647 1.181500696549707 11.78345813630221 -4.650071638890763 -305.75344100411 306.0157508001027
3100 5 -0.004088638214058374 0.003171667805224038 0.04518724924844065 1.023792385687894 2.315418743692461 5.820400711334047 -108.5538875533872 108.7344689201753
3101 5 -0.007556823190176658 -0.002801913533335138 0.03893372281970664 1.044358208957858 -5.476621511938762 8.093039931671772 115.1018450236636 115.515909754337
3102 5 -0.00432573922856771 0.001109098034634295 0.03827318428664203 1.060254824865055 -0.6088434796548331 -1.177605022967209 136.3967103256556 136.4031525721954
3103 5 -0.003874941636472066 0.003706255599909631 0.04857017458030535 1.134885495393738 -11.50841711172238 3.532041907605378 -316.4892340643862 316.7180990456912
3104 5 -0.006510214789677097 0.002949251566627886 0.04681778699619139 1.065143807832799 -17.38648285623391 1.422981846447106 -208.2436151668922 208.9730076378816
3105 5 -0.007839088141595698 -0.0003481486098812778 0.0405305046875226 1.018168894282277 -3.118760996339105 -13.21127042960703 66.61700786977906 67.98595497629418
3106 5 -0.00715282289328884 0.001689950073703799 0.05115533598224668 1.216763192676495 -29.09609040614122 -56.75157986326364 -297.6163516608354 304.3728257742547
3107 5 -0.002657984635148234 0.00225953602948132 0.05245282021237145 1.246870910463248 -19.99544142315362 -12.30238177883983 -120.1981453214183 122.4694264453291
3108 5 -0.007162520354501894 -0.00329713290174308 0.0463517310373211 1.049706199586604 3.301744732744591 -10.4406722264841 -182.9542843371179 183.2816938816533
3109 5 -0.008027943745351885 -0.002462093437033421 0.04562791774903222 1.029159984097904 7.523148239452917 -5.483358857601224 -120.283287473477 120.6430032335947
3110 5 -0.004720130245603169 0.001441321335425031 0.05294566143591024 1.250136074713135 4.746862201892027 24.31069520234466 -141.1348400452968 143.2919595671598
3111 5 -0.005240674724142766 -0.0007294221653162311 0.0512338630391373 1.221145795461247 3.556524514324547 44.59234946256016 -273.3679198499035 277.0038738001246
3112 5 -0.006689978783873814 -0.002186479412882343 0.05100336125200693 1.212394482811623 26.50900213819639 -13.51567513419438 -286.6670139040542 288.2071781364288
3113 5 -0.008904275281124457 -0.0007710626115056382 0.04113603589066962 1.010764085967129 8.182355180457899 -5.865635723347098 50.0891379862278 51.09088336427098
3114 5 -0.003734323604375621 0.003610982959760346 0.04450654542255716 1.012253273547776 -17.33848802529516 5.736119877257513 -69.95150860364296 72.29619488033315
3115 5 -0.005818604579640935 0.002457598616446955 0.05042747025440877 1.198132884070888 -6.04052349753919 -7.899027996786427 -295.7561082293291 295.9232301161518
3116 5 -0.007187814705808812 0.002495860696898488 0.04682432803846672 1.064334586544162 -7.453065110715569 7.864613895084121 -207.2607589982976 207.5437846619689
3117 5 -0.007872724324236725 0.002638788589363492 0.04062982199946159 1.016157731223423 -0.6753164230804127 7.048070005711087 52.47180241142004 52.94734546112574
3118 5 -0.00757227377543384 0.002345541421431317 0.04442759831231095 1.010933095673509 5.83817136304664 4.43220532185492 -65.37842435752697 65.78804648530196
3119 5 -0.005550461089355836 -0.003250078551300632 0.0450431251267263 1.018412108424009 -10.40491565488864 2.225692998241339 -82.11789796116771 82.8043787771427
3120 5 -0.006607255646833654 -0.003047876492131639 0.05065869756544318 1.202478948403915 5.743978975311071 16.44070534200759 -274.8463070813208 275.3974992676063
3121 5 -0.003256202370354691 -0.002776981201934146 0.05000330586705726 1.185719121408524 -13.75998073981827 14.61771340867243 -312.5782848702858 313.2222833511495
3122 5 -0.007825571013786493 4.267298890755385e-05 0.05254592154491167 1.244731325282371 6.989476945584665 -34.84645190762847 -126.2854592588488 131.191254353108
3123 5 -0.008901768859418326 6.660313042848777e-05 0.04637346119088134 1.047799719473116 -1.707640536213012 15.43346297098098 -184.1075891055992 184.7612301911678
3124 5 -0.003508050955026718 0.0001239685144103905 0.0442797381214504 1.010298548833672 -5.932335015105304 -12.56838883868777 -39.12577771678377 41.52088003252182
3125 5 -0.004709815834152085 0.003857703427399293 0.04578105792013597 1.036513579228613 -18.89475339816995 -9.162262022799613 -134.2793678524219 135.9113953360722
3126 5 -0.002788390472725779 -0.002534380451545195 0.04642555212930964 1.056158664185401 -11.70960740747594 -4.258992752287432 -211.0789103994014 211.4463533388546
3127 5 -0.008292319014433546 0.0008578882474668214 0.03833914739469181 1.05623518750283 -2.890246205415981 -0.2048901669049195 131.3543216323652 131.3862752139936
3128 5 -0.008901300766410334 5.756946250134578e-05 0.04495219166940439 1.016095968272645 0.116758831398604 11.27618978495086 -67.21564309357338 68.15503477494218
3129 5 -0.008119845896895064 -0.002101544773322241 0.03792140912897947 1.065373116606695 -6.247969556174812 -0.01180560677130695 137.2069143067361 137.3490975453543
3130 5 -0.00841718062435204 0.0004216410454299759 0.04444999073636812 1.00978475886472 -7.121566414798999 4.756397068948736 -53.50766125664533 54.18865042085659
3131 5 -0.007453329450775503 -0.002221813769425604 0.04438782732983697 1.009537135028476 -8.318412919845946 1.463617031142409 -51.90208480922768 52.58483218441581
3132 5 -0.005698238892054152 -0.00383434546320464 0.05006621326259418 1.1865466709846 7.708623039001091 7.145103060205056 -292.2056038675603 292.3945798035661
3133 5 -0.003978705576785608 0.003159073009768898 0.0402247648315134 1.023228980636559 3.730594825233701 0.3441380421742183 92.30316530775309 92.37916482937332
3134 5 -0.007438226211030416 -0.001816938010745516 0.05297582778015324 1.24902127550597 -1.367925540445356 20.31807906857151 -132.7140540828321 134.2673292667349
3135 5 -0.0042512494679601 -0.001625142493217129 0.03472672443417054 1.116407868074023 -0.3404925282662724 -0.3271711970886583 85.49829593087455 85.49959990103702
3136 5 -0.002704836797028134 0.003139848719177146 0.03896276531932079 1.046305173908056 -4.315291086853732 1.932874846673669 120.5191377292971 120.6118580461741
3137 5 -0.003415021148421575 -0.0003543028734361675 0.04491571003368925 1.017263043775555 -15.61866668285374 9.658828239154694 -70.79557204360688 73.13855845506603
3138 5 -0.007864379695648016 0.002055703665383323 0.04467113257077944 1.014470953127891 2.534547627913312 1.946591037524839 -63.03716538524381 63.11812234336597
3139 5 -0.005435716561839517 0.001453989389153684 0.04616420552307992 1.044975206408907 0.868738857595868 11.43756558618908 -190.9657408782184 191.3099234303018
3140 5 -0.007820021249941599 -0.001653548413444114 0.04930012111879876 1.156639358950944 -16.94358867548127 3.221359957975457 -323.3746620289659 323.8342699584629
3141 5 -0.005876702916626254 0.003156870052764321 0.04989782992624247 1.181370439305445 -13.97667811912374 7.061548074100371 -309.3972209232171 309.7932428369903
3142 5 -0.007988674421628242 0.002546444430246804 0.03869062545643508 1.049221043780346 -1.136699941140283 4.249625496450319 121.0029363212717 121.082872455133
3143 5 -0.004152367144849921 -0.003699981982725039 0.03808683585728793 1.064130465243196 -5.735634441636035 -0.9871942596888862 134.8117811741425 134.9373499009794
3144 5 -0.006612882709033333 0.002508471576730591 0.05294297419782591 1.249545253395837 8.563026029369437 -6.484403646653338 -125.8227145052903 126.2803563144806
3145 5 -0.005181179092844308 -0.003847067418339824 0.04464636970015046 1.014019684814992 -15.30883933328452 9.578348415939274 -69.82171667001234 72.11918911674564
3146 5 -0.00345726157520832 -0.0003157038843407686 0.05291287234074429 1.25026497725462 16.29319571492278 -5.597928917813945 -130.651523473893 131.7824936052695
3147 5 -0.006324228144114731 -0.000721776367602558 0.04496517503598401 1.016204391548095 9.814056759592045 4.825280609828271 -55.7947805130208 56.85645588268974
3148 5 -0.003976765000358124 -0.0009793670854319151 0.04043015178868837 1.020617781129632 11.67184492325076 1.365916365301316 59.84885502688956 60.99166450802155
3149 5 -0.00407829307397671 -0.003183817046330922 0.05255776149302973 1.247184198511692 -17.17539735943173 18.95687395424024 -129.5748872365346 132.0757689621074
3150 5 -0.006494718394573628 0.002837653226587595 0.05068399216912937 1.205928713662333 -4.069696048505641 -8.162449036845537 -303.0432319872265 303.1804552629841
3151 5 -0.007567973646626414 0.0007006415980454739 0.03706956663490077 1.083115005687593 0.53475776153785 7.440970694671923 126.2849684788807 126.5051274630969
3152 5 -0.008503167244547128 -0.0015323054698112 0.04373206674956769 1.003888060842207 0.6665668901418135 12.41300831170717 -23.71860823638421 26.77871287863958
3153 5 -0.005218946395842819 0.003172593835086212 0.05066012021091413 1.206331864734328 -9.775506081666936 -8.728710685107487 -304.0108234370724 304.2931673177429
3154 5 -0.003806988133195303 -0.002494537798044471 0.04523449335264443 1.024411056037739 14.73468294176392 0.9026314230050884 -102.5378983557557 103.5951071436069
3155 5 -0.007419070934808871 0.002376995334935187 0.03916223001253565 1.039750690968914 -1.415562661221319 4.128086800321402 115.6786991592381 115.7609880635628
3156 5 -0.008933420737819399 0.0003208024552760574 0.03840684680334989 1.054397879533773 -3.171973924633472 -0.7841459764050989 130.3519910005944 130.3929363934639
3157 5 -0.008285944592618121 8.550732608594443e-05 0.05138464170004214 1.223464362507608 -14.37452646427847 11.83851079060998 -239.6369255967101 240.3593839612983
3158 5 -0.003800336654834174 0.0006819542916800809 0.05291287234074429 1.250287356432347 26.38606194276145 -17.00795905186402 -118.4019199918871 122.4928960949261
3159 5 -0.001240762409923039 0.001066731679786556 0.04431185972538158 1.012300210042175 0.6408433710962863 -14.30542151993885 -47.1731220950699 49.29867354489144
3160 5 -0.003050351011044242 0.003381737277360132 0.03954865160246381 1.034686358961286 3.886604084784955 -2.385410949720016 100.7190682132688 100.8222523972759
3161 5 -0.006552816731558947 0.00353692466290496 0.05015435184096308 1.18916626889689 0.5917676721347408 2.806591658755397 -316.3234623976507 316.3364664545564
3162 5 -0.005343229244137321 0.003876896902359027 0.04873330388212382 1.13869561042264 -16.91826403851204 4.181685172869281 -319.5871386630895 320.0619523589497
3163 5 -0.008004741014414642 -0.002437703779966075 0.04949185503674025 1.16380382089006 -17.30460527285003 4.210505716853797 -330.2747582923299 330.754582261679
3164 5 -0.008199026072139494 0.0008303718453470826 0.04942124282284185 1.160191849766542 -19.86539988598199 -10.86245288472918 -317.090275165435 317.8975772159867
3165 5 -0.007513466100637862 0.001518373278363472 0.04515106552903914 1.019942264094728 1.712338581661558 -4.658058128346641 -59.65022918464053 59.85632339799567
3166 5 -0.006191549848190432 -0.0006609676161134059 0.03868253481592162 1.050043802511977 -3.47480593038123 -0.9036628807158233 130.2732925985754 130.3227595139461
3167 5 -0.004127032321017096 -0.003819498029941802 0.0406401187190621 1.017731202441427 4.480531077397534 -0.2576025225684991 62.36988093360664 62.53114076576109
3168 5 -0.003313483994664 0.002825629106342108 0.0400250583218357 1.026257899731654 4.49922624275439 0.04135897538509337 93.52448827104664 93.63265805107466
3169 5 -0.005038585989945167 -0.002828063493381498 0.04539936528296984 1.026540089199973 -23.02161290692617 -7.249732710836812 -102.516175752202 105.3191320514525
3170 5 -0.006219881975242746 0.001016878345183053 0.04599857833641904 1.039019444586392 -15.21383802831568 0.5493313005889495 -186.4279580839148 187.0485129258384
3171 5 -0.006321855696031834 -0.0008301950783735361 0.04988410997479822 1.1783997552729 -41.92460382575914 8.484268270441241 -301.2186176885943 304.2405476859703
3172 5 -0.007542922234423814 -0.002255814833850652 0.03611646618122459 1.100451748944299 -8.617057676846237 4.602427430413686 119.9312242655602 120.3284445802172
3173 5 -0.00203877142259242 0.002370271932892378 0.040982522560029 1.012998668654863 -2.237679820020865 -15.01647195167082 49.66802410110216 51.93663696235933
3174 5 -0.001158064758679919 -0.000725101774966175 0.04315482511410384 1.004033688300455 -4.68664054792194 -5.088676857493581 -3.514634287105562 7.759631818425076
3175 5 -0.008310503159393773 -0.0001408362265221425 0.05179580067075839 1.232873675903053 -17.83744615656557 4.773798417971794 -230.5134128830822 231.2518046539965
3176 5 -0.007136158617611191 -0.003288978990664608 0.04879964726316123 1.138135458734685 -14.2495455456548 2.200305951372135 -324.812138854396 325.1319984893901
3177 5 -0.00472738011202055 0.0004835912793459742 0.05124474494129279 1.22220163190141 -32.8160938366077 -46.26622993874865 -269.1279082381109 275.0405261776148
3178 5 -0.001257211607400918 0.000575537803128399 0.05111233463333454 1.222798294945303 6.67384997467337 -20.15465483047375 -271.1245253586871 271.954515748118
3179 5 -0.002321209491761748 0.002615527606975802 0.05093318863139908 1.21627550414907 19.97775727589033 1.155074921651825 -289.6002403679407 290.2907924909401
3180 5 -0.003330676646673481 -0.002950739911033123 0.04733677320606922 1.087931020014179 -0.3279495456395901 -4.708670992944509 -259.6154133490508 259.658317759749
3181 5 -0.006713016099493074 0.000833973105857976 0.0512667883455676 1.220285910259887 -54.57917294046084 19.65039784053534 -285.7848763086967 291.612790839039
3182 5 -0.002288502146193647 0.002583229749223785 0.0432319005210143 1.004419796684268 -13.05543071230887 4.463154634811302 -6.99973212701768 15.47127241787626
3183 5 -0.007419737792148797 0.002877062821044374 0.05132765490274672 1.222550757052057 -10.20024430415548 18.08777170572817 -255.3815417367019 256.2244022901758
3184 5 -0.006459896617665479 -0.00302010189159311 0.03736375541756426 1.077009646239097 -3.301206518062909 3.807572646416097 132.5368646033119 132.6326357003029
3185 5 -0.005667510905647842 0.001272088603277183 0.04910276326830365 1.153068368359518 -16.57073303237942 -3.214108563594277 -334.9008673325978 335.3259766663108
3186 5 -0.003833962329802243 0.0008499948522016978 0.04605144170243929 1.044694499362042 -19.54797109312442 15.7190232635732 -183.5267607084294 185.2330498651563
3187 5 -0.001810379380719018 0.002048560043835428 0.0509879473435372 1.218500390773706 -19.60005786113303 30.79981303558217 -282.0819203444551 284.4345276797494
3188 5 -0.005626166788102046 0.003689821154615652 0.05191314472428794 1.236692532525836 -22.53192651071011 14.70501280534432 -211.3812681642778 213.0867561455373
3189 5 -0.008749909592330279 0.001129855006762763 0.03978473431530041 1.027958477050318 7.325976863517833 8.202172642879058 83.39723403375227 84.1192262063129
3190 5 -0.003085857316654943 -0.002653545063567023 0.04363620569601668 1.003713752715076 3.024734552459599 3.696152435249268 -18.59502428688784 19.19858042062982
3191 5 -0.008732982727931361 -0.0008282493983431739 0.05182810342778414 1.232764158018394 -19.06062897730047 -4.906273178758394 -225.2586545689 226.1168736554305
3192 5 -0.006761597568396909 0.002839947987219574 0.03880599883392928 1.04732500727217 -6.449815034417402 1.968590502991618 121.0721770780733 121.2598347556643
3193 5 -0.002832671420716936 -0.003166329150756378 0.05063731884330257 1.207319405196237 2.100338214209303 13.55191536637485 -312.0141420783983 312.31537055936
3194 5 -0.006531702263315322 0.0002403304638504951 0.03849484961087992 1.053930421479504 -3.506618833923827 1.689787290894757 131.7321209158656 131.7896180953839
3195 5 -0.004084550582162224 0.0009745342585912949 0.04442953440399414 1.010890229105851 -13.82867072070086 6.13180737592949 -38.49636670763656 41.36183561310959
3196 5 -0.008396142030932665 0.001939982914903359 0.0488047428882675 1.137018152829114 -8.226205517378631 3.374394355546122 -323.1351378866227 323.257442809114
3197 5 -0.005143490126514614 0.0037305403528136 0.05140459951508609 1.226253227174644 7.131664201224003 10.07391914040567 -235.8998735829382 236.2225536175
3198 5 -0.002862247202055143 -0.002545568223758642 0.05257756654585527 1.248198848753524 -24.01483345602125 17.54959574374604 -122.8644160345031 126.4134694729514
3199 5 -0.005375331295768495 -0.001569074456233299 0.04605765471066409 1.042219349759111 5.289673750355884 -4.539375956595795 -181.2964972157503 181.4304453093831
3200 5 -0.008227737458844251 0.001215042009627956 0.04491927126616437 1.016112813705707 -11.18386171989135 -12.83289148909488 -59.05988002088153 61.46406507075054
3201 5 -0.002132682683250948 0.001551016403883666 0.04388125244522328 1.00821796793034 -4.561714367577922 13.77925735467612 -41.08242650860508 43.57112506067178
3202 5 -0.008066491999651589 0.001525089472263665 0.05095144980481456 1.21021726767096 14.53761393670489 -9.709721795030937 -269.8412883764007 270.4069929364723
3203 5 -0.006278098906568632 0.0006482129462624013 0.04892421418501621 1.144896013414214 -12.59293245004943 0.3956686471655739 -325.7150413114885 325.9586271874308
3204 5 -0.004251458380766571 0.00115633478135104 0.05355053770740975 1.257403923342291 -5.972828244491639 -1.310907575818106 -106.8390629689632 107.0139174686948
3205 5 -0.005745848609120381 -0.002629871853159658 0.04642915040195418 1.052795281621069 2.814964841307927 -11.70025957549554 -187.424672308104 187.8106170880442
3206 5 -0.002549943875786784 -0.002938335646040869 0.05186523273718817 1.238560299857472 4.92963945149852 -7.339333971631135 -217.0091462844136 217.1891727028742
3207 5 -0.005736138761211193 0.003205854812520391 0.03927077591940765 1.038575317303884 -4.111252668293917 -1.218719814102484 111.3150864765691 111.3976487802768
3208 5 -0.001890100948833127 -0.002318435107922585 0.04662314018929893 1.063988049658238 -0.154048687621214 3.474835413744746 -216.1568457295191 216.1848287181269
3209 5 -0.001782996252318944 0.0005459455401424168 0.05048588963790694 1.204992354191774 -13.66871887524551 4.570681702146792 -306.3219304369478 306.660806223311
3210 5 -0.004217919214513545 -0.001162286075251695 0.05291690516247131 1.249964202921259 -24.94715415550391 -36.28739457262435 -120.7865222571475 128.5632897226272
3211 5 -0.002446452507174349 -0.002889423282374844 0.04508961017649778 1.023313213841589 -26.05640463902192 0.8934077886957988 -93.09597497028091 96.6777893616549
3212 5 -0.004157411788362675 -0.0005795972540086168 0.05355053770740975 1.257437954457963 -2.02628531034228 0.9043174268842041 -109.7889866149069 109.8114074406466
3213 5 -0.00182121891778697 -0.002120339936552192 0.04810211614889769 1.118478291889314 -7.114861652610828 -8.060798028839747 -298.3940306149252 298.5876675748991
3214 5 -0.008864408366249544 0.0002886915656102076 0.04935389346740029 1.156497600623104 -7.468451794336348 9.681337895193735 -312.5418008572241 312.7808871378205
3215 5 -0.003546088194500858 2.813816630897205e-05 0.04589278346650995 1.040250325552898 -6.212576435769113 -15.37207457439634 -185.040861303846 185.7821765798868
3216 5 -0.002386780825886487 -0.00290331176601968 0.04307093861143593 1.003149758065796 -7.603097260554635 0.5405374021468913 0.6505781424207902 7.650001343527254
3217 5 -0.00520456469253648 0.001650260862394497 0.04533361939630415 1.023631350992229 -22.44171410683554 -19.74173529460996 -98.32759711601791 102.7700491344892
3218 5 -0.003667276273881954 -0.0004340483915396544 0.04883912076862165 1.145910333991579 -14.12622329639015 0.1439522750121075 -325.8230943885635 326.1292071308789
3219 5 -0.005648839162828493 0.0001382532100008382 0.05126261931257623 1.221351698368796 25.29960498141685 -18.87160448901607 -273.203243775691 275.020399021173
3220 5 -0.004319215673334823 -0.000384084095971095 0.05121598866785386 1.22199572899386 -58.08389302638349 15.35502377101809 -269.0054219680749 275.6327854815731
3221 5 -0.005500966782487835 0.003606859269095878 0.03489813698614022 1.115965610038058 -4.886720560059315 -6.821549841619609 78.26018577359611 78.7087686181888
3222 5 -0.002026877574186352 -0.002531451636891614 0.0393397588751753 1.039026278925975 -2.241627545577034 5.790112182231997 112.899682656897 113.0702818479019
3223 5 -0.007405835095918726 0.002167608333231835 0.05177504685763205 1.233640654741542 -23.04494823412721 -3.364953340269461 -236.1007940588178 237.2466596293825
3224 5 -0.004080666326313393 0.003826055489313053 0.03972229619889164 1.031988181311323 3.720576672779704 2.433940458700844 94.02122451976216 94.12628441158218
3225 5 -0.005156603035622733 -0.00141764820390558 0.04882811674218258 1.142770710416301 -15.31691316243103 1.07931171374517 -325.6450638759583 326.0068716597517
3226 5 -0.001808162243955631 0.002033193036119799 0.04308266161774299 1.004188359180309 7.441585562426539 -14.30323572533435 -7.729722019307379 17.88039010740989
3227 5 -0.004884271494935351 -0.001313111581114387 0.05246432505857888 1.24542382284172 29.28015399705378 -12.87239747573874 -117.4539105563087 121.7310442731596
3228 5 -0.00591086900540912 0.003306934197976904 0.04478202661501299 1.015469007054272 4.917587416592209 -8.907430010384445 -68.76315916540263 69.51184815408247
3229 5 -0.006525733194467586 -0.003537366846669352 0.0395411947945979 1.034488483637829 -11.841956122563 2.592635763932689 93.25396445917603 94.03858555064723
3230 5 -0.00721215225947984 -0.003074493593042602 0.04096249175635437 1.012413690460653 10.232374746357 0.6847677178831453 51.86357941928315 52.86777156224414
3231 5 -0.006293835056662111 0.0031401038971521 0.04454743738247626 1.011475299636399 -11.83927755663328 -19.37102545736443 -83.32232557711612 86.35980002241668
3232 5 -0.006517631474118714 0.003686535715680998 0.04490308032737475 1.017564757998937 -7.565199493115392 -5.941390320538081 -69.39123823075776 70.05480929607471
3233 5 -0.00786627743590255 0.002769890012037128 0.04492402892509177 1.017212742700828 2.966394089376749 4.800049793568741 -63.95548183541755 64.20392222220269
3234 5 -0.003853622381672558 -0.001121566184622009 0.04467157211551934 1.013763325493158 -16.40458589971778 7.604616147087445 -69.6001290082163 71.91049007791641
3235 5 -0.001170901396610213 0.0003622232596058622 0.04086559117605512 1.014744624018735 -7.854272970318918 9.476012140796783 52.13440444720911 53.56753248983929
3236 5 -0.002639744224875342 0.003070906771385072 0.04702637999834782 1.077093456778163 -10.06956797225626 5.561129374896723 -250.7296739139993 250.9934097543054
3237 5 -0.007459609847689492 -0.002120500822366104 0.05055778683847286 1.200440932848032 1.694535579380211 0.8187705174287654 -296.5427583775545 296.5487301981897
3238 5 -0.007936814016610918 0.002607639555112907 0.04882250631365433 1.13829118212874 -11.71578611053483 -3.738213048539412 -324.6472157077135 324.8800525544077
3239 5 -0.008113678358002314 -0.002239312165231842 0.04373948860526324 1.004154598654603 8.253312649555118 -4.815234842302127 -23.58632958307422 25.44835160632666
3240 5 -0.004950528468710027 0.001475341932800578 0.03976030587721754 1.029876440769906 -8.920543915207947 -4.959206559148586 95.72836873036198 96.27092195058485
3241 5 -0.008111836395294718 0.001871819117430503 0.03522740265247628 1.111698256229789 1.716330525384392 -4.932612707938028 63.81150168421946 64.02487177491277
3242 5 -0.006765855815295469 -0.0002431786833387512 0.04218200407321328 1.004376164405522 -3.963965958824816 10.01972202480347 15.20137779897196 18.63302827143595
3243 5 -0.005689271393473631 -0.003280601720406453 0.03719918797477906 1.080920231194316 -4.152082384489712 4.178243884664536 134.6406721318853 134.7694627955946
3244 5 -0.003833188227246685 0.001500237190899758 0.03745250777518088 1.077881441678584 6.517388298169023 7.311231582241695 140.4078824385732 140.7490813766202
3245 5 -0.007858669498198042 0.002667061089234027 0.03625660395796619 1.098105931436628 1.66396344692253 4.07747826579599 117.7415931306196 117.823925228695
3246 5 -0.005836910084322395 0.0007721926814166745 0.05250897745441932 1.24557615747963 10.75451161018282 34.72740314754308 -118.80336934284 124.2412677678266
3247 5 -0.007855531225429545 0.002781895931795402 0.0463583298825212 1.048624339526532 2.758058993213048 6.741921004482606 -182.872588252258 183.0176054982707
3248 5 -0.00173478019994664 0.000515750019396771 0.05246095651611517 1.24734749948404 -25.1354817215035 -12.36303916323969 -120.0909638119389 123.3145440246374
3249 5 -0.004279394910858467 0.001318119556637463 0.04522416455216233 1.022298897856878 -2.158004516526737 -22.89138683621545 -106.6010634164759 109.0525529105216
3250 5 -0.003514079447707379 0.002440646824007895 0.03488910729597333 1.116912536263496 -2.343298140006612 -6.467111116571987 68.94879117576556 69.29105553364283
3251 5 -0.003548350555899552 -0.0006442988887174492 0.03458367969880732 1.118898560892096 -0.3968037222701469 -0.4164498473479522 75.83483451521499 75.83701609121634
3252 5 -0.006462196592824987 0.0008345958351028858 0.03912843209230175 1.040508838578041 -3.043808785818604 -4.737097871233669 117.8281934511052 117.962655277496
3253 5 -0.003104781438158779 -0.002741081329244952 0.04568324727282736 1.03359690809527 -3.64599545346171 9.906606561404736 -134.3159889198637 134.7301711419164
3254 5 -0.00776457037934265 -0.002785008796999712 0.04491867572132853 1.016491562455683 -4.411878890205494 17.60954740511821 -71.1143156014483 73.39486847605451
3255 5 -0.003772155735377879 -0.002508985680921792 0.05296071804989549 1.251007122463401 -12.5714232630106 23.6311121046077 -128.0198711275484 130.7882163869223
3256 5 -0.005448655412214795 -0.00128078158125401 0.05184453406319686 1.237373470518838 -10.94398804148464 5.224773924158454 -200.7002078379277 201.0662641096166
3257 5 -0.00413815788886011 0.003751539854170043 0.04378122286344239 1.005303750949065 8.675337531354478 -12.68225477837642 -19.0867198243723 24.5031414557535
3258 5 -0.003047003412972349 -0.003350628418054197 0.0479414466775074 1.110586039207903 -0.3450509941535411 -5.073485514004485 -281.6332628853951 281.6791686989357
3259 5 -0.005573759073408335 -0.001570614789124262 0.03722026099167722 1.081739347068301 -14.11547989516055 -17.23418794645192 137.890520958023 139.6784155727695
3260 5 -0.008107299578009111 -0.0005202756618127109 0.03476652625540663 1.115876201873646 -6.340696587036484 -11.4053801640829 70.38509816255802 71.58455960085973
3261 5 -0.007579576704728731 0.002203525862324624 0.03684843991102666 1.087341809585237 1.058199746286103 -4.09572062619617 131.5461304000056 131.6141297025748
3262 5 -0.006040953104023195 -0.001036928323186664 0.0488553165927107 1.142397673313637 -11.52875463050016 -0.9855167367582548 -325.1134280695517 325.3192655495587
3263 5 -0.002852778301115499 -0.003287536540714626 0.04668651275324502 1.064475823890025 -12.76981915390695 -7.342159580350773 -218.8680274356436 219.3631441744407
3264 5 -0.002613219652548189 -0.003139162487429664 0.04069677959147777 1.017692001605053 -5.661143203605638 -6.045391669335807 57.33063301556442 57.92578687227935
3265 5 -0.005520714662155549 -0.003352853491608274 0.04601378066829994 1.039337227781408 -1.822727035581782 -0.7041731568485109 -159.6275771997333 159.6395364448854
3266 5 -0.00310474392634781 0.003405666573451942 0.03828483641197424 1.060380414439379 -2.637887260789309 0.03754356761648654 132.2423952749049 132.2687074359022
3267 5 -0.008578651053854407 0.001752372396647807 0.04443933830790468 1.010641502738871 -12.8883566059807 -8.970762830883308 -61.59891422618637 63.56894332624972
3268 5 -0.006502859337830662 0.003691954858397598 0.04634284381431412 1.049889410778659 -18.46575031011652 -5.493093884176252 -186.9748646297212 187.9647786640851
3269 5 -0.008605347167892307 0.001480443663606615 0.03801370491126133 1.063169693033541 -3.031830170557232 0.05227537578329279 135.2072482310109 135.2412463011939
3270 5 -0.002146353682185055 0.001744725711445212 0.0373307322273097 1.080876027607901 -5.945580833557629 0.8637307219494464 139.2334965137627 139.3630600756756
3271 5 -0.007837644699249103 -0.002552703709990247 0.04095556802046148 1.012470369756565 -3.892350358934303 8.224207754795783 51.86570216280337 52.65775389580688
3272 5 -0.008524816416645056 0.0001852588395980315 0.04049046189542425 1.018577033945405 -9.064791871508181 2.074803373464829 63.90795997713141 64.58097714614523
3273 5 -0.006949653102452216 0.00336609079046955 0.04954832309550255 1.16721654384301 -22.10166477037938 6.501177685516515 -328.9176859593188 329.7235099803378
3274 5 -0.006032589761566217 -0.003774868549527408 0.04565754051205641 1.031209247005444 14.808305722604 12.64096983760795 -128.11786206157 129.5888367724508
3275 5 -0.007310454278876695 -0.0009809000820834471 0.05338020900461798 1.253192191892729 -8.240981201993021 -2.705621925269628 -143.1502213954276 143.4127611014238
3276 5 -0.005644855023770264 -0.004099256793920376 0.03478473349839726 1.115436355018582 7.350726908772447 -14.24610474571543 49.26105806451216 51.80382735038489
3277 5 -0.001938790554405729 -0.001523222663233612 0.03526269184385824 1.113792004079231 -10.45799639655771 5.629909953735167 74.19519545306541 75.13982035536256
3278 5 -0.003187785102046089 -0.003385209204724138 0.04394599045965049 1.006933715778744 4.919320132129148 13.93064334095225 -32.23448191264104 35.45876984092329
3279 5 -0.002257508958028867 -0.001719228859933656 0.04912690929556222 1.158418264700298 -8.646021203565725 -5.584014077830754 -334.8532901189658 335.0114338337876
3280 5 -0.005754706128576472 -0.00379771456028088 0.03950331867838722 1.035521410726816 7.235602970199294 -3.658098076134136 95.36978846849784 95.71380352072002
3281 5 -0.005079490797507938 -0.001703236962586687 0.04526087793021411 1.02247200805318 -18.53319940480826 17.96304329512445 -95.47276126596121 98.89994210487751
3282 5 -0.00427237239827238 0.003857214809627803 0.0380269095276325 1.065199994327672 -4.888013224293687 0.7506282532154215 134.4434834790761 134.5344058820791
3283 5 -0.001253518051172241 -0.0009103623939993 0.04011222462237726 1.025066539035267 -1.414626305901866 9.348772525874901 89.34765797090279 89.8465619832575
3284 5 -0.003617278393075767 0.0002400125534384894 0.05291287234074429 1.250191328991282 7.695032874878795 25.85804309469872 -120.8515341576401 123.8262703625043
3285 5 -0.007673705530104543 -0.00282429930313002 0.03671282292009915 1.089199420505523 -2.86785570022682 -12.02140026550512 130.597435108669 131.1809007349157
3286 5 -0.008533166438389379 0.0004086485340529777 0.04300382005993873 1.002160133617965 -2.912166520549087 3.443307072951092 3.249929445165573 5.558697584920068
3287 5 -0.005596897510023095 0.001316683714379464 0.05011941434339169 1.188762585042082 -9.972705636524067 6.331561273549599 -286.0739435546936 286.3177338322017
3288 5 -0.004867188648314184 -0.002803454469460422 0.05251083079430337 1.246074095946222 21.28811559539116 18.58221566900906 -115.8929294888061 119.2881121917422
3289 5 -0.001486975241927437 0.001769126236546694 0.04435902282936788 1.012736950667616 -9.909822565463534 15.56457689987362 -46.29928995650422 49.8405947780271
3290 5 -0.005640669120063749 -0.001355919485181609 0.04460549833557056 1.011659273473709 8.081644490717867 5.715725902826021 -53.68934379373641 54.59421340465131
3291 5 -0.001653946950395028 -0.002004137348565174 0.03632140196708228 1.099943473935685 7.363034737386494 -4.472197931758044 112.304899666843 112.634831753168
3292 5 -0.00154038994878039 -0.001683343830684126 0.04969495405399334 1.178472145477313 6.951184741797404 -3.967438405549752 -303.2562571853299 303.3618582796317
3293 5 -0.00495397751663958 0.003872421689454029 0.04380436297262003 1.00531195563445 -13.199201863757 -5.263562212995001 -18.87736480667062 23.6279266770151
3294 5 -0.004915448512469444 -0.003302418875263255 0.05176808221386824 1.234822128844671 -15.57859493889021 -17.64622544434026 -226.6732398530706 227.8921665134415
3295 5 -0.006462260066297642 0.003450394533286395 0.05185711374053825 1.235303494358331 6.693830616689778 18.24683559136669 -203.902207500714 204.826425543892
3296 5 -0.002175794965889327 0.0006377711271070021 0.03546564880741771 1.111389611077056 -7.342770326449163 -7.842377055726646 72.53817933779165 73.32943894230198
3297 5 -0.004260557097620343 -0.001462352439939667 0.04532417688103815 1.024503668092013 -3.852367646830617 21.42546287867814 -96.84301244805854 99.25956002354022
3298 5 -0.002793669239401365 0.003256962518650285 0.036377819832546 1.098659255718693 -5.721955094874833 10.81676836464049 118.2246540883041 118.8562664829298
3299 5 -0.008940581885343432 0.0002877829846654744 0.05160682921720877 1.227116711205281 -21.70080235118553 13.45751943850756 -232.2149861208918 233.6147029432201
3300 5 -0.004908946455553045 -0.001913729924686171 0.05291378735116913 1.249816915020558 26.85313059554321 -7.213686809613331 -121.4271518325752 124.569984756922
3301 5 -0.006889461537451074 -0.002065465470024034 0.0525232476762608 1.244877491293617 -22.43948677083419 31.21855205107099 -126.0389476158036 131.7723221120549
3302 5 -0.005365129390295215 0.003855892430949753 0.04453281675889827 1.011739582880042 13.3736481404583 -5.178584012546448 -67.53648944790274 69.04237542195709
3303 5 -0.008654623739376793 -0.001265705370070521 0.04927461232478074 1.154346624323621 -8.877522498533102 -4.243637558459727 -321.0236815003167 321.1744431760665
3304 5 -0.002111470515546823 -0.001800519592634308 0.04452643265060056 1.014002949410678 5.687704834224105 -0.5402218414837736 -67.12786043563015 67.3705534531572
3305 5 -0.001170984401591014 -0.0004874097864360358 0.04086583220608686 1.014774537035839 -5.838791388267817 -9.486871102688111 52.14242522741611 53.31908398304878
3306 5 -0.004305188078815145 -0.003221068406548883 0.03933202063654663 1.03801580013767 -2.14055855788668 0.9575771881409615 111.6121490110144 111.636780461763
3307 5 -0.006937632715489004 0.001948291662643702 0.05250629021633498 1.245102846867105 21.69900427669894 6.36694283735619 -119.8537211204505 121.9684353187868
3308 5 -0.008574654393454898 0.001529121138351418 0.04960590871591133 1.166940305102067 -20.23607233719634 -11.17816395225555 -323.3907453149865 324.2160146081039
3309 5 -0.008348995710172051 0.001194363089501219 0.04251769977117908 1.002623391525155 -4.206964747032162 -2.217217052015588 4.948871939826557 6.863376524373608
3310 5 -0.001191653282533674 0.0008182827157544669 0.04987715510480557 1.18577390672903 -9.197815301352819 15.9509431979065 -309.4863837787985 310.0336338846132
3311 5 -0.001684940027483463 0.0004772228290746674 0.03737006511383416 1.080374637210588 -3.948769024200661 -1.694856177548814 140.8142786463873 140.8798295888076
3312 5 -0.008109720193726844 0.001909716321212571 0.05271443613859822 1.247671807576475 -5.02547413639586 2.737965193630539 -103.3103374484262 103.4687279684292
3313 5 -0.004364297062877001 -0.003815930246260147 0.044659789854509 1.014627286055769 10.16714348609914 6.874163525698238 -69.53012326181512 70.60497837722332
3314 5 -0.007161298152507694 -0.002493089981336144 0.05171268099502567 1.231207107573553 -11.91834811073717 -15.47028226673464 -245.1428455577402 245.9194815041037
3315 5 -0.002417838461705046 0.0009576917576383628 0.05296095651611517 1.251786494742308 -25.24109532195362 -12.85714290167853 -121.5653870188841 124.8221227895809
3316 5 -0.00284185935072954 0.002487196993338363 0.0458764837594611 1.038646991507929 -9.122133516566766 1.331968567237721 -151.5836858947514 151.8637589736169
3317 5 -0.005929965024412521 0.0002545312663935314 0.05311385372591883 1.252785674878238 -2.51938056805404 1.39357560745433 -109.2515660548191 109.289496370195
3318 5 -0.006686927533811399 -0.003583913411593426 0.05125090514860162 1.219631114017544 4.691811187179257 6.775708558793936 -277.3474550764843 277.4698797276785
3319 5 -0.006032642136863473 -0.003768300688109906 0.04945119562906747 1.16494618608183 -16.63956508868863 -5.41911394537243 -334.8190178135534 335.2760304762722
3320 5 -0.006021409044668445 -0.003838311567842559 0.05131872324940162 1.222112459452614 -18.56472356358652 13.32947587422099 -277.5409316609428 278.4803271961916
3321 5 -0.006475533355659013 0.0008486950489416311 0.03698807330198533 1.085830710037983 -18.29854499737596 5.225876727188111 131.5693397802916 132.9384733882956
3322 5 -0.005170742256768532 -0.003950453381258909 0.04656772521316916 1.057699690348508 -18.83507982521271 10.80284783639058 -205.9574517003266 207.0988499830231
3323 5 -0.009015976509553748 3.50330776662042e-05 0.04255797605085435 1.002713248392294 -0.6780951189789658 4.926525144492509 5.889868989985853 7.708503078347769
3324 5 -0.001240762409923 0.001066731679786461 0.04581185972538157 1.040236113933584 -6.643276574040525 -16.54559302161955 -158.7013919009401 159.6997857336447
3325 5 -0.006747730597203513 0.003315311486115631 0.05130370304451475 1.22280617572738 -27.14906885433691 1.620440601141018 -261.2068030979157 262.6189097381083
3326 5 -0.002156386561027274 0.001650387959291558 0.05245582331961694 1.24741883293283 -25.96886122967176 -6.917512581312806 -122.9055048379388 125.8093671128949
3327 5 -0.0075262590175548 0.001855689391495835 0.0348405824545512 1.115496841473904 -11.7353152199145 -8.427561609589818 69.96869197646087 71.44479879523107
3328 5 -0.008128408904670502 0.0005816313327494229 0.05316571254029369 1.252325844393285 -9.318051384834318 6.708392974572162 -107.2000762983668 107.8131948153257
3329 5 -0.001157429076589707 0.0006418133869871618 0.04506185972538157 1.022745342190795 -12.3707017889377 12.33076702859788 -96.32072939585559 97.89159815639962
3330 5 -0.001752961841769309 0.001047247309560736 0.0362439508338967 1.101878655819836 8.611915838075431 1.692601835279207 116.0013226485171 116.3328708989005
3331 5 -0.008582715628834644 -0.0007541763139826895 0.03476652625540663 1.115175960060819 -4.411081588252635 -9.17081212086352 69.14910745547023 69.89392318093589
3332 5 -0.003050590190473272 -0.003348869970998182 0.04929230689304565 1.161690633737233 -20.18302785791185 -9.130694907944712 -319.0411659845211 319.809302234594
3333 5 -0.004957017562405956 0.00389955648309294 0.03832851286160437 1.058280367331718 -3.376865010690147 0.8427847930220997 130.2336221216717 130.2801206417854
3334 5 -0.008028343394594989 0.001520091463311285 0.03687917635758524 1.086521417550373 2.162547330680192 -3.051235943495908 130.6524188696862 130.7059340972714
3335 5 -0.006986223751245269 0.0002541718548230429 0.04283465725659406 1.002375300322643 2.601739188606131 0.7918804493489421 3.249144864548648 4.237105592549332
3336 5 -0.002523488862527558 0.002922972185076332 0.04115908327270783 1.011858453099866 -7.26062398414076 -4.992794223977921 51.35905536816782 52.10947344881347
3337 5 -0.00426617520914466 -0.003332754405796656 0.04524925474829521 1.024643637816254 -2.226587146044999 -11.20026520154237 -103.9594237135003 104.5847283772678
3338 5 -0.004270266855104926 -0.003753000407276793 0.05135424643876656 1.225227521514561 4.172700215789956 -23.49307050738827 -231.7979543411447 233.0228045185608
3339 5 -0.003719093249084242 0.003715627176484491 0.03927530693499958 1.039867387509308 -1.624433241560311 1.900378858001207 102.1698070545293 102.2003899049312
3340 5 -0.001595493177811715 0.001775543439367912 0.03804586462052682 1.065876658982191 -1.443700499650241 -1.178446344267539 138.7912440461444 138.8037551033668
3341 5 -0.004568325068775969 -0.003799891918641842 0.03871584802332233 1.050713568572942 -1.05562665895702 3.173781506308701 121.7181683739222 121.7641151940725
3342 5 -0.003785327179090933 0.001574817002655953 0.03453486760678289 1.119695064946625 0.7491633463234816 0.9911534385603064 69.98362947449215 69.99465711953485
3343 5 -0.007727628240815259 -0.002774578960854641 0.05005016481741209 1.184123982200974 -6.956701136667131 -13.432604486713 -311.9998934087951 312.3663939048195
3344 5 -0.008584932205150466 0.001740410381991567 0.04300518381924793 1.002460376817105 -3.009008677500952 -4.650389381216105 1.955079021080499 5.873890414101425
3345 5 -0.008464568532035277 -0.001387384643064645 0.03479832126253 1.114682770171877 -0.7036698574309254 1.81798766393191 66.19623234309284 66.22493040264517
3346 5 -0.008776047017722008 -0.0008850779008026539 0.04856180447933793 1.127004105839707 -12.29317773631953 1.121204142485631 -305.548049614442 305.7973020495364
3347 5 -0.007524060986786103 0.00189377019385782 0.0531111664878345 1.251908405670257 -12.00535739037172 1.65865425186219 -106.7936907593848 107.4791706611512
3348 5 -0.001853149211467991 -0.002282549305586681 0.04513173516877102 1.024280169866673 3.791035897499571 19.75382262403302 -94.16443256591842 96.28876269793524
3349 5 -0.008208205780085532 0.0001577270857006302 0.03678827446107779 1.088855286885563 -0.7699249024090193 4.966859270535543 126.8803715813007 126.9798848951187
3350 5 -0.003126183550912514 0.003350948274311605 0.04967576819990774 1.176809672110902 -17.2763537383895 21.51280481605651 -305.8516043429575 307.0935965608999
3351 5 -0.002319133865190135 0.000871323393951364 0.03690493272061704 1.089708991806303 -6.098310153835034 0.6983613414424941 143.8540157155485 143.9849121706329
3352 5 -0.007047387595017537 0.003301574582407686 0.03809240155238688 1.062132894140981 -4.360648103882045 0.2066535406164934 134.3657232105901 134.436622731593
3353 5 -0.008761287095130708 -0.0002373341165775962 0.03735447246819032 1.077496696772854 -5.52332055380667 -0.9517810563389233 142.9574621306791 143.0672881408041
3354 5 -0.005230583526302651 0.003866785709257727 0.03902236232616261 1.043805815628807 -1.128794305463483 1.404119916666673 113.9112436901696 113.9254895463066
3355 5 -0.006925766499582587 0.003390883576554558 0.03990092285457564 1.026692401882484 7.289494970536512 -3.011326247977014 85.18370015452282 85.54804261181482
3356 5 -0.00394423588676286 -0.003720043092057737 0.04395016266219387 1.007201058271941 -10.43247436492648 3.270427729946655 -32.58863574114275 34.3737021337612
3357 5 -0.005909197747558464 0.00225571735430035 0.05339512372850048 1.254288487206451 0.462563755180588 -2.759965577925381 -131.184925618566 131.2147708330416
3358 5 -0.005385490873711204 -0.0009630976208204608 0.05309795760351731 1.252839243147877 -1.3913633298962 0.5079980332336756 -108.6894922928354 108.6995845842654
3359 5 -0.002932014138397727 0.003235354136376754 0.04075426282858076 1.015691937860167 -8.629096448897196 -3.889559766572009 51.11030871537856 51.97935780368402
3360 5 -0.003894829676011961 0.003733675791493872 0.0457779266929725 1.037035474581733 9.302035044238322 -7.242641976695935 -134.7214403025372 135.2362754439686
3361 5 -0.001296801078989945 -0.00113610416745109 0.0459195675628265 1.042382859937103 -15.96610671630344 18.33273984769033 -164.0948523467592 165.885883910308
3362 5 -0.0086906216347274 0.001261643526307857 0.04565509057501264 1.02872744578283 19.47178026406692 6.307975442420995 -117.501784298669 119.2711620393011
3363 5 -0.003657521958792404 -0.003602165822448745 0.05169134561403562 1.23316071587072 -2.945368444634608 -24.6155184957152 -240.871247482341 242.1436697702145
3364 5 -0.006303526783181676 0.001238516076086485 0.05295843974700957 1.249889771769059 13.94824425060343 21.79670664088419 -125.6738866686499 128.3104661688512
3365 5 -0.002170084337479838 0.002653951698731429 0.04534370413429262 1.028465038775887 -32.70371301663002 -2.15912872592945 -114.7860933249958 119.3735393742846
3366 5 -0.005297210905098444 -0.003654318213088329 0.0344807542365103 1.118317187856728 -0.9608777495323986 -18.53868428609722 53.53780216887905 56.66482473442554
3367 5 -0.005730239657889468 -0.003565018989872155 0.05262296995491677 1.247371079570178 -23.6637109132135 -11.6952231991935 -109.7881128994833 112.9166913874684
3368 5 -0.003988963200396089 -0.003789683878441469 0.03488513546097516 1.115430275745205 -3.378419944718731 -21.36136573042237 50.43431035861236 54.87568977735561
3369 5 -0.003626458380766575 -0.0003525486951321444 0.05355053770740975 1.257471852658924 -0.4472998156235769 1.359117954757957 -110.8426760178808 110.8519106986654
3370 5 -0.003597235720519335 0.003568798039803544 0.04095396933825846 1.012663018765071 -9.732081843645725 -3.254689334879298 50.76152715005451 51.7884066011276
3371 5 -0.006330723320120529 -0.0001081659284955887 0.05249406273053681 1.24477548334434 -20.65601631163314 -42.61437141558503 -128.6672788688706 137.1055225457078
3372 5 -0.005369115207391886 -0.003124554710202105 0.05314446333924182 1.253293576337348 -8.317538687860681 -0.4186574901784239 -104.5296048899701 104.8608364565695
3373 5 -0.008403843036984269 0.001912937598621654 0.03741740766875343 1.075907901342165 -2.26453736271776 2.639751987584824 136.788721113029 136.8329296761607
3374 5 -0.007080806534072256 -0.003328840356007074 0.03661499293395425 1.091301697079759 -10.90363020079048 3.764563087679332 132.7258301193556 133.2261500894954
3375 5 -0.008832066901329417 -0.0008672078536514988 0.03912030706366895 1.039652284966848 5.498214277647745 -5.482014169662054 110.8098649453226 111.0815421607025
3376 5 -0.001118768004062638 0.0006531467446840395 0.0362090832271138 1.102520017824626 -5.157383263906502 14.36413116421385 113.1536757175442 114.1782868790066
3377 5 -0.001541601128182656 0.0002436705622303055 0.03543078120063482 1.112030973081847 -9.052976406951492 -5.907668904999245 73.02128532211921 73.8171053605481
3378 5 -0.007146660018237726 -0.003307029014969923 0.04492922002559561 1.016985890850036 12.34371923188132 -2.883619729757378 -71.00390496440615 72.12653594493349
3379 5 -0.008414605241088564 0.002341140281681398 0.05315112012008914 1.250993797903663 -19.6390057920631 15.72633291319066 -91.09891799946378 94.50936967343617
3380 5 -0.006559167464112904 0.003558171551675092 0.03931200402986258 1.037078443632825 -6.427028956247246 -0.8553913371397088 110.5946942473165 110.7845873359716
3381 5 -0.002224220350139815 -0.0008623576338671088 0.03492939729835445 1.116272759744778 -10.79277949749916 4.376468405841607 75.68984759511018 76.58061500118666
3382 5 -0.00208126582199666 0.001828428098097298 0.03523462408817285 1.114558952803348 -8.629200714769789 -6.163876300511012 69.000166869442 69.81031087192368
3383 5 -0.008623565884185943 -0.0005705833374323017 0.05360239652178461 1.255694546103201 -29.51800716203462 6.410036574394729 -82.90611233941924 88.23732078287173
3384 5 -0.007930929216323374 -0.002427111390819905 0.0512671065814916 1.219253557609962 -30.54333870937506 -7.485792619176737 -240.4544659983964 242.5021295766841
3385 5 -0.008929996602105358 0.0003435085624724833 0.0397926836148768 1.028050671328467 -0.9025792187417155 -7.647806340231069 83.57812819778043 83.9321577472449
3386 5 -0.001108319949200357 0.0003933644229551079 0.04912715510480557 1.159434073289848 2.431230849622667 -6.692926347368862 -327.7499424865102 327.8272882882787
3387 5 -0.008390497203185167 0.001929362985925118 0.05025365274499067 1.18990764078025 -13.92528004272199 12.99846913207625 -310.1821582699854 310.7665441019545
3388 5 -0.008244889502872841 -0.002015123864727026 0.05167329203826157 1.228435069470406 -26.52522494829308 -11.27235729269224 -250.5588977551378 252.2110521800368
3389 5 -0.001277009553897608 0.0009912244130111116 0.03803638541502684 1.066218117068389 -2.826947743806157 1.66734539833005 138.8729599692205 138.9117370305197
3390 5 -0.005949874790990649 -0.0009307676209600836 0.05247816660813529 1.244788890824995 -41.14964306990213 18.06099931964137 -129.793936919328 137.353408702598
3391 5 -0.001068430682799169 0.0003203928913166846 0.03686198172528631 1.090847065832714 3.488309929966636 -4.829372783383397 138.1773393606652 138.3057058130316
3392 5 -0.007698142635551955 -0.0003707659871593765 0.03642338145030381 1.095271214021949 2.066799401477386 -4.45446486583648 119.5628134418146 119.6636129954677
3393 5 -0.001318113533279956 0.0009406683121961299 0.05171095651611518 1.237311309035859 1.735463029295413 18.13159597203289 -212.8651670571759 213.6430339390884
3394 5 -0.005783841873064144 -0.003787684185829265 0.03786553329363319 1.067399622376466 -6.219968103711594 1.006421379587991 132.2706746186917 132.4206639890025
3395 5 -0.009026304524033626 -0.001028162060893127 0.05319801529731945 1.251233866659135 -34.77762429341983 -10.32908239390888 -91.671044784598 98.58881045278007
3396 5 -0.008531009849852833 0.001039519198345765 0.05276898219105741 1.248100889642204 -6.315591260396458 0.3370833794935431 -103.2784880380048 103.4719595329548
3397 5 -0.003952066449528169 -0.003784841505457557 0.05319139403796817 1.253739035387904 -2.591165473289784 -24.03160920699561 -73.90689594939025 77.75899721872526
3398 5 -0.008623565884185938 0.000585697536559197 0.05360239652178461 1.255458658902354 -29.55466628932663 -1.910079032743251 -82.94104148115322 88.07010311884031
3399 5 -0.007589841354693852 0.002926280335253777 0.03991109160690753 1.026007145654856 -6.024742389814001 -10.9589204226216 85.086358349709 86.000487410875
3400 5 -0.005599386505944096 0.004100404321839418 0.05327321621272237 1.254480700021899 -4.588067638862751 26.93921754737427 -78.30841718966289 82.93961664653284
3401 5 -0.009016193358905619 2.523142503789719e-05 0.04113002807184869 1.010827901941416 -0.003482598469673701 8.079107568822392 50.07558834454831 50.72313613421156
3402 5 -0.001900951739799595 0.002422923288881424 0.03698756343661451 1.088091371313225 -5.505161542405729 2.181436076331071 141.6228368082515 141.7465815199074
3403 5 -0.00655446709725599 -0.003527184357015922 0.0380301007364184 1.063489037421247 -1.61477232218196 -0.5066055525670808 129.4013767251572 129.4124431312709
3404 5 -0.0086020497163264 -0.001362595151494654 0.05132755238857303 1.220748336477848 -14.2531460713815 -32.86135855923765 -241.9805874072349 244.6173046643294
3405 5 -0.008880738116316983 0.0004732233527734161 0.04566086089526808 1.028759008163436 12.52140957359134 -15.75694040393383 -117.4199998931019 119.1323769740989
3406 5 -0.001541162088381406 -0.000420415895625516 0.03542939729835445 1.111995414126287 -10.63568764070806 4.314990585406428 74.59619915370962 75.47403476377001
3407 5 -0.006237668380030403 0.0004094954865275544 0.05188918645903729 1.237565965945733 -7.210237059257163 -5.710359488143358 -200.7205430317157 200.9311626375594
3408 5 -0.008479428966467395 0.00115317920870157 0.03519126443182074 1.11180775162142 3.498386868640572 -1.223119457480128 63.9146445542608 64.0220002841792
3409 5 -0.001524622183942436 0.001813798022380857 0.0459092257510658 1.043018598187011 -16.03872560887594 9.278267948879698 -161.6108869051665 162.6696214465459
3410 5 -0.008461945674754019 0.002301103500456277 0.03476044274789767 1.115162441375966 -17.10968268934872 8.171338121795889 48.30471843298228 51.89275316766892
3411 5 -0.002367589420728547 0.001168796156485642 0.03488196910861039 1.117115056158485 -8.246947421927819 -2.700838698242934 69.8723378159663 70.40916320566865
3412 5 -0.003017397148303453 -0.0004172503298409768 0.03458367969880732 1.118910398718275 0.2952573482271172 -0.2171849978060614 75.48995404148604 75.49084386474051
3413 5 -0.003957447564607448 0.003786398003849038 0.05319950022861025 1.253778722252548 6.082100659320379 17.49801236403421 -70.34245715484708 72.74086653115631
3414 5 -0.007828946034147822 0.002325194154326647 0.05354785046932543 1.255230395997445 -16.71589646217931 17.27197262254058 -90.07101951496936 93.22301641372736
3415 5 -0.003169169266548499 -0.003494237418414382 0.04594420789676274 1.041914067799894 -2.860356713899812 16.91515601360951 -146.2788136356548 147.2813479777739
3416 5 -0.006600147709463015 -0.003269259695267929 0.03520554004535808 1.112335934543608 0.8285956656629115 5.834259885196113 65.67367190518692 65.93751846024615
3417 5 -0.007894159201462067 5.593814881631849e-05 0.03523348615998524 1.111793052381637 0.6660654074708986 -0.9761759477755565 75.91602367922157 75.9252211973872
3418 5 -0.003771636062307584 0.003737649509634492 0.03850373938507658 1.055309176267909 -3.583652658766154 0.7511997472269366 129.7437467291304 129.795403164949
3419 5 -0.003039081293925213 -0.003320101879321841 0.05138196836223428 1.227345090926377 -14.06966533146415 -29.90303114763294 -233.136923721122 235.4675603060939
3420 5 -0.004242594175131238 -0.001762904418823479 0.05336636745506156 1.254357295100096 -2.710256050729157 -0.2378876758534028 -131.6489294099603 131.6770393546101
3421 5 -0.008116924413363466 -0.001989521919556736 0.03520270248699475 1.111540945517729 -2.804531501505467 5.614917823449008 65.94916687442138 66.24715322591078
3422 5 -0.001241398092013363 -0.001150020067765844 0.04390482511410384 1.007620690361875 -9.479607387436532 15.59720945935996 -38.28318769061229 42.41153568186063
3423 5 -0.005277044732828137 0.003871865271403577 0.05013047988274783 1.189569419968885 -15.50414309384191 6.543829594045539 -316.399042929802 316.8462632345929
3424 5 -0.001049898281462219 -0.0003313326044884677 0.03484571759954713 1.117179739873021 8.857053672893738 10.59229705001156 56.24028180391221 57.91039158858851
3425 5 -0.00398158870839437 0.003793380234010962 0.0347586209136552 1.117133117122401 -4.16256710620822 21.02693127494088 44.31110292016273 49.22329373128161
3426 5 -0.001050337321263468 0.0003327538533673538 0.0348471015018275 1.11721529882858 8.858114576677107 -11.58279127029863 56.24701830229503 58.10640511478539
3427 5 -0.006797351786383545 -0.003507227041166975 0.04564765842963997 1.030710626187301 -10.14699446440516 14.79835169084023 -128.2048729493014 129.4544018462601
3428 5 -0.006887918036095689 -0.003334606905354041 0.03883031399564126 1.047117468191175 -0.3372530570615788 -0.9353446090440998 116.5151593002213 116.5194016287335
3429 5 -0.005698267711871579 0.001633681627726275 0.05339512372850048 1.254279602571554 -1.196847487663282 1.246247425406718 -132.1678241943702 132.1791183539519
3430 5 -0.001339065625982025 -0.001506199217794782 0.03601269184385824 1.104791789013974 7.18397090406152 -4.803352319435741 114.4922728098988 114.8179522750311
3431 5 -0.005404977885931726 -0.001544217543614682 0.03449717955900637 1.119608513452242 0.1212134828453393 -0.4406910773407358 76.84413436424325 76.84549360583183
3432 5 -0.005346265746012727 -0.003855454447778913 0.03862787043664538 1.052060980235381 -7.1392525339594 1.342889428822615 122.4357844730104 122.6511051653557
3433 5 -0.003787578451963505 0.003685713416799235 0.04995581184365226 1.185043124635339 -0.8451434406901892 5.918885117989323 -315.9343309418051 315.9909000843558
3434 5 -0.007706736261332199 0.002835823152366393 0.0379721914954418 1.064398163640142 -2.683335668440878 0.7701626081020828 135.6054618376352 135.6341945121169
3435 5 -0.008879457199765449 -9.13702708814924e-05 0.04855169355346263 1.126548573994089 -11.69282555219471 -3.039243429992259 -305.0531402643834 305.2922821742836
3436 5 -0.008381405765793019 -0.0001129777478127296 0.03591765248919532 1.103285835239498 -6.242799302769448 -2.806396324679354 105.0503535229968 105.2730980772031
3437 5 -0.008641302525612717 -0.00102247564953303 0.03734640100299066 1.077641444620553 -5.514362872489617 -1.250920834617624 143.0429383712588 143.1546548970997
3438 5 -0.003647914143086585 0.003111158898331131 0.05359561877553515 1.257346695418008 2.929245002925053 20.17856671611827 -73.32933219118952 76.11140512833686
3439 5 -0.008583848079704659 0.001604164311771747 0.03630053805247725 1.096985318754931 -7.954541223277444 -3.822040485351364 118.9282422417317 119.2552284902113
3440 5 -0.008076909850485888 0.0006951077445253116 0.03480444423389566 1.115591348756972 -0.5961176136891847 13.10249364637332 70.08184492859827 71.29863732609971
3441 5 -0.001687501682613541 0.002091274286341695 0.04520638885505212 1.025964567069664 -1.036709080973319 -22.28949855642009 -109.6307894991601 111.8785346606952
3442 5 -0.004949940047012929 0.003893834785447629 0.04951056275142003 1.168110291335065 1.609855726609002 15.49505197028794 -320.1729646678205 320.5517361912174
3443 5 -0.009026166829368271 0.001043585402155539 0.05320566617254833 1.251233704151273 -31.80925815154518 5.806740705616941 -86.20718136338954 92.07184835982304
3444 5 -0.006790085578321116 -0.003492259326686386 0.0494366651201661 1.16345278116844 -9.49815792620644 -6.793517610751289 -333.272741557212 333.4772663174792
3445 5 -0.003645929110929338 -0.003110010140048427 0.05359435059483392 1.257561959339613 4.818214257243445 -18.47256453021053 -69.31791526128437 71.89870795168781
3446 5 -0.00562342363688537 -0.004091088878057177 0.05307555005880921 1.251098354893865 -28.28262976520343 -30.29258246491999 -100.3528070526847 108.5736320760382
3447 5 -0.002330892764124702 -0.002912692030715299 0.05321119909079371 1.255157948343005 1.957681113581988 -15.11063159834658 -73.9664282930201 75.51950885082549
3448 5 -0.003647914143086601 -0.003111158898331137 0.03440438122446486 1.120023141639455 5.585853417073679 -14.64866740119953 44.76178486534748 47.42786732881471
3449 5 -0.005280509064854414 0.003652688627025715 0.03440438122446475 1.120102268392205 7.296467801003399 13.90952036963501 50.35871369540278 52.75142883695113
3450 5 -0.008806741461977151 0.001042502685852583 0.03598519936868429 1.101593528109699 -8.983349135366495 -6.25997736669118 119.4391145868729 119.9399431866445
3451 5 -0.00180089713112982 -0.00229973912447971 0.04310125478488573 1.003444238429597 -1.184765935638686 3.856097109815879 0.7312983227030434 4.09975029475802
3452 5 -0.004229447245498275 0.003815304148804538 0.04938545820752766 1.164493523642425 -18.48557682490612 17.42559358117104 -314.569858223057 315.5939853113171
3453 5 -0.008118610938090761 -0.001154318283941286 0.03674228501738909 1.089319587683955 1.89201768350628 -7.043031407227211 118.0350229550874 118.260097523746
3454 5 -0.006699633277429959 -0.002660761273455035 0.05314303867164282 1.252680029084956 -3.255880777749935 -6.396522957030985 -106.3339154894393 106.5758783632298
3455 5 -0.002968532724251715 0.0004187919732773124 0.03511854730559021 1.113991691094994 -1.696609181484363 -6.205195699612428 73.36171482128694 73.64322194136415
3456 5 -0.008935470220940076 0.0005792956701517836 0.04373335886529079 1.003926032831093 7.85748152877259 -12.57563804041268 -22.64646201730796 27.06933560322176
3457 5 -0.007121200822654749 -0.003303905945531987 0.04998386465289282 1.18257192063614 -21.62500913647438 7.544428417434276 -308.1574557587348 309.0074059953823
3458 5 -0.006694445329032788 -0.002641262852677473 0.03490156078347112 1.115174126601585 5.829157474874286 -5.834092233004151 70.80808061313837 71.28674483497466
3459 5 -0.00105033732126347 -0.000332753853367361 0.0531528984981725 1.254902670897819 5.464974982043699 21.59160678711119 -91.37487922563568 94.05015677128399
3460 5 -0.006416491489849933 -0.001348327702773457 0.05292762890072555 1.249119054187276 -40.3524474311253 18.81089861866515 -131.5613051135433 138.8904133614061
3461 5 -0.002602755848975495 0.002475278765619551 0.03524176227553578 1.114378504138156 -9.008323320484516 -5.48581984626601 69.05328195437012 69.85413271311734
3462 5 -0.0011091179782666 -0.0004545105558227458 0.04912355500457241 1.159144915749462 1.848061961437048 3.63748192247509 -327.4704811525948 327.4958971255389
3463 5 -0.006980398280738218 -8.378427206736812e-05 0.05294352502312706 1.249077454291068 -16.33057581917306 -40.89011178708552 -131.6291746104748 138.798157614505
3464 5 -0.008946679218024263 -7.148831212047262e-05 0.03910249361736097 1.040133345986991 2.006515383816695 5.092458787053167 110.9469390234218 111.0818730448411
3465 5 -0.001545748409851221 -0.001893856857906081 0.05326974699413229 1.256010291666102 12.94240827798111 -15.23170944286287 -60.67814395834995 63.88542915889344
3466 5 -0.001060901925879038 0.0003651305090677301 0.05309862188278064 1.254336729257171 5.456541714255073 -15.79668917300652 -91.23387422045373 92.75197594435149
3467 5 -0.005265695269309797 0.003651032338495905 0.05360388145307511 1.257463109882929 12.95640989902207 18.44766168752723 -67.81309578754512 71.46188312310072
3468 5 -0.002332356533870611 -0.002913123275527662 0.03473767576996864 1.117880125214937 1.144033618304294 -15.06071445112891 45.07374529875621 47.53710601157164
3469 5 -0.005410165834328897 -0.001563715964392245 0.05354741989610757 1.257232335326715 -1.696938375199075 -0.4842580948872094 -108.9888218527233 109.0031072703725
3470 5 -0.001613188618559769 -0.00191826200883418 0.0459229603250899 1.042393249593192 -21.9300112447021 -5.170734093803292 -164.1051711317366 165.6447073601754
3471 5 -0.006817080947669718 -0.0007555604586691677 0.05338020900461798 1.253456808266028 -2.366309368601399 -0.2717400117528391 -142.5517997771744 142.5716973398771
3472 5 -0.002883375315394831 0.003261590624981687 0.04642321292243384 1.055833453872377 -2.403881857203298 -18.15676740726282 -196.4011272276821 197.2532626522791
3473 5 -0.007876368297014101 0.002284973774521609 0.03437362254997259 1.118961026620081 -16.8859437429362 8.468513265668305 48.64742956631075 52.18642751165835
3474 5 -0.008234467592776497 0.002208134892420163 0.03588022566558629 1.104324532648364 -4.443685461402663 1.508444490214412 115.6969108981621 115.7920417672873
3475 5 -0.001544788107638616 -0.001891718095556841 0.03467901214505091 1.118529268921215 13.22415754293918 -4.676526098691064 35.03782086880593 37.74118612744896
3476 5 -0.005456516696794585 -0.003873768974510278 0.03652679850321459 1.094547654193192 -1.783554498193731 0.2703814857899524 133.522910666502 133.5350959323075
3477 5 -0.008891468910326597 0.0004155153250472772 0.03628254549996929 1.096869908103112 -11.20069083629898 10.11756700034525 113.439884270551 114.439625919228
3478 5 -0.007634072095848114 0.002902166062562194 0.04954835865385355 1.166457071050043 -8.68476838373644 10.85249530922789 -328.7377165258227 329.0314394141206
3479 5 -0.005262299186387787 -0.003650624598387128 0.05359704344313426 1.257020851661035 0.8378459028513406 -16.13056337946915 -83.31268644291505 84.86401347468477
3480 5 -0.006396581723271802 0.0007208546610633422 0.05356331601850908 1.257099289167666 -1.602827548027659 0.7165772569038737 -111.8031603285201 111.8169450421473
3481 5 -0.002091969976717643 -0.002514727988835747 0.04870353415519885 1.141423849837328 -7.411785911056117 -7.239930285500617 -323.5121845703728 323.6780572210993
3482 5 -0.004364520888294238 -0.003929421996544607 0.04658091610291941 1.059276417559452 2.451576303590925 6.003569241994237 -206.888385969861 206.9899932828395
3483 5 -0.007558313452890604 -0.00191714926261264 0.03483342315055432 1.115423794261475 -12.54170391815723 8.426016903888176 70.64559447761764 72.2432842355006
3484 5 -0.005618561303663944 0.004100696401385186 0.03489813698614022 1.115182377184248 -11.33883801271338 22.85474545882821 60.30096326494984 65.47606286382232
3485 5 -0.001544333344442062 0.001891906256680876 0.03469975648138996 1.118487414760813 12.30310809182546 4.863609247323715 35.04930314283727 37.46297925190009
3486 5 -0.008436643965299553 -0.002355850517502544 0.03477366056090518 1.114527633682645 -20.26996375653111 -9.700525571675611 48.80900054193943 53.73351059591082
3487 5 -0.00635135749117422 0.0007229942385063948 0.03446695990457861 1.119763513296719 -0.7946627234524035 0.8222840328516811 78.00375246273356 78.01213391609116
3488 5 -0.001556661632602184 0.001633364513849326 0.05170582331961694 1.237286615043585 16.19841079248445 -15.76939193615383 -219.5969095835133 220.7574799024211
3489 5 -0.001074597140253892 -0.0005140015839398116 0.03683367969880733 1.091352320253368 1.900386753528519 3.954386678214354 138.4354014361394 138.5049061029929
3490 5 -0.006988635764570874 0.003083988902376432 0.05354785046932543 1.255753152303747 -32.369161024006 12.45688403065706 -85.81642877577151 92.56022900240866
3491 5 -0.00790924291990013 0.002634751269926346 0.05017833925754606 1.188151377428599 -24.34976108156504 -8.007859063405201 -306.8005651022044 307.8694908862205
3492 5 -0.002356334428926916 0.002944954447814347 0.05309048557903691 1.253565970653034 10.67113153611661 9.49028482082451 -84.05963587437584 85.26406592213469
3493 5 -0.00881435604927161 0.001230420000818734 0.04182500379569996 1.00503239527116 11.19565395630828 4.152341335663184 25.62912756629088 28.27431318151636
3494 5 -0.001475374436118235 0.001795962542309441 0.03601292611465183 1.1050895943428 8.709595391897038 1.701060768799002 117.3260808285791 117.6612081453526
3495 5 -0.002340790079115106 0.002917216129404923 0.0347068946687529 1.118537339711657 4.831286689732528 10.21041135615389 41.70284517648176 43.20556824014552
3496 5 -0.005853578177241793 -0.003819793446366392 0.03596994654292261 1.103473646622255 -15.81252848847719 -6.973176497863701 107.1949205325774 108.5790598396157
3497 5 -0.00661881598968595 -0.003284283814883496 0.05262154528731778 1.246820461134343 2.263665419911126 -19.16261422521716 -109.6976443060285 111.3817899450792
3498 5 -0.008463829906432779 -0.00229911484577768 0.05319123755107009 1.251438241874804 -32.19473088349763 -14.9353385185824 -92.07153594248253 98.67488416072926
3499 5 -0.003556915474113145 0.003626969884407313 0.04646441086791814 1.056618907985061 -20.88769026236231 -4.556475112064012 -200.6274611395696 201.7633148846756
3500 5 -0.007878033004826691 -0.002283477860558448 0.05359561877553526 1.255927113734424 -14.29087404424777 -23.02718195990673 -82.66914551889965 86.99809084565142
3501 5 -0.003657241491328889 0.003116484839963247 0.03435423968919044 1.120773862377542 5.887273603087049 13.39270316694006 36.9815502412985 39.77008356598031
3502 5 -0.007036058027437155 0.003043768522571394 0.03437362254997259 1.120081894351024 -17.45313988978476 7.604863956856133 49.36119322213093 52.90532529081765
3503 5 -0.008617291062098912 -0.0004592465030994658 0.03433748432931705 1.119582623306584 -5.383005421454443 -11.99486195895425 72.94233212153647 74.11772578884424
3504 5 -0.001841221547789519 0.001264650970769597 0.05359862188278064 1.258503987409394 11.71427090044696 2.405898773833985 -68.77198995142527 69.80400485300204
3505 5 -0.001830217903372703 -0.001230853066190337 0.03434571759954713 1.121010024586763 13.31031545339357 -5.608865777768941 35.65881253642558 38.47303970691446
3506 5 -0.001830656943173949 0.00123227431506922 0.0343471015018275 1.121043518115951 12.38325405801684 5.853936350565911 35.69433477411496 38.23217345153765
3507 5 -0.001830656943173954 -0.00123227431506923 0.0536528984981725 1.258883863468242 13.33726140144178 -4.346146268538091 -57.15497168710208 58.85118790331557
3508 5 -0.001186284854145928 -0.0008639867382748049 0.04984525297809111 1.184382194406487 -7.308369217423358 -20.34630563211707 -307.5383670961427 308.2973104807363
3509 5 -0.00864342018598894 0.001582881374957806 0.05162657986163823 1.227574339552452 -20.58448119070978 -2.865350940290084 -234.1728326190183 235.0932722106621
3510 5 -0.001564712720625373 -0.001939276404644111 0.043861883027386 1.007103783769166 -15.45845035675114 -8.082964296011776 -38.17461173063143 41.97140669583524
3511 5 -0.008749017049391837 0.001368354451359768 0.04372454748185434 1.004193974506867 9.495358702931711 5.251189615493324 -22.84230605262249 25.28849096084778
3512 5 -0.008246689096638603 0.002226734945216525 0.05198319277989528 1.236554570882169 -21.15560528126366 -3.118221954121073 -239.4928920467485 240.4456867649892
3513 5 -0.003942082512880748 -0.003836513019309131 0.04587686102337557 1.039017503608634 -24.17226005013362 0.9606188196902093 -145.4222444323277 147.4206570334825
3514 5 -0.008950806719251917 7.557099563449169e-06 0.05360239652178461 1.254670168919262 -27.42216907076888 2.29948388115548 -85.28483051360942 89.61453731622237
3515 5 -0.007566598476620331 0.003067172636526221 0.0456371983980951 1.030150095650444 -2.178885243828912 -30.2730018845452 -116.6798348768983 120.5627888318269
3516 5 -0.003200011615451865 0.0007063359481082969 0.05336233463333454 1.254745746703448 -1.964264742867563 -3.235111245615041 -126.6603441379287 126.7168775573724
3517 5 -0.006932168528005093 0.003674834558689271 0.03486737831164807 1.115216601161505 -6.279025816920849 24.14837410264992 60.15787911965676 65.12711076952766
3518 5 -0.007955076347118012 0.002596371997634993 0.03738667122219485 1.076728293377028 -5.029776710780287 -2.275887397252597 136.1379607002664 136.2498538011419
3519 5 -0.006891526505153163 0.003523840693399019 0.04562825337216334 1.030605945613934 21.79453696242699 -14.00671418990554 -117.2687925963415 120.0964595681657
3520 5 -0.006880385262963582 0.00371641914747835 0.05321718522897269 1.252797768343104 -31.648333785872 13.06159732674285 -85.42077672722371 92.0267974713352
3521 5 -0.001796144517153601 0.002298236204136279 0.03633073921067698 1.100135274034591 7.994456938193554 3.375205493719353 116.4669937374487 116.7898282561473
3522 5 -0.006952002694104264 0.0005528760251903219 0.05356331601850908 1.257016928833238 -2.097379570293987 0.5733384546678666 -111.523611942011 111.5448059688919
3523 5 -0.00700436083091409 -0.002146178301113595 0.03533060270956069 1.111145369236469 -0.1773576838883715 4.395587115588532 75.17670094649985 75.30530530472758
3524 5 -0.007878033004826691 -0.002283477860558449 0.03440438122446475 1.118410482426391 -18.35620619996066 -10.77096957947272 48.19694005355331 52.68689706429116
3525 5 -0.001579769647111746 0.001957347172422792 0.05309348868628241 1.254136325599915 10.85791388566618 29.28312036462153 -74.22307480315152 80.52614647101697
3526 5 -0.005497990457190301 -0.003898969033227891 0.05188022137448164 1.236335527108868 10.15751913147212 -1.335865064115058 -241.8193724184496 242.0362960533576
3527 5 -0.00653139078331295 -0.001429040533863018 0.03492622148509594 1.115079389895689 -3.57342720543287 0.01413168751463778 76.54080152633986 76.62417294817394
3528 5 -0.008324252339355229 -0.002196860405709615 0.03598856595865865 1.101506169687726 -10.65731816014 5.299893112812854 118.6768734589231 119.2722414954919
3529 5 -0.002893157178775621 -0.003321048068710497 0.05359435059483393 1.257085163897727 -1.048092424842899 -17.56879320299653 -72.15097418130743 74.26657436325148
3530 5 -0.007037722735249751 -0.003042272608608241 0.05359561877553526 1.256141155357659 -20.39998855376789 -14.39418914955689 -86.45432463654551 89.98723499823896
3531 5 -0.002290804989515922 0.002868364542572153 0.03590667687338844 1.106880184628227 3.241132246887382 7.875179493838153 114.2987894529776 114.615603914642
3532 5 -0.005946154164974392 -0.001778609143757361 0.05354741989610757 1.257138006618856 -1.827810930174095 -0.5567281845703946 -108.9010285967656 108.9177894951119
3533 5 -0.005940966216577221 -0.001759110722979798 0.03449717955900637 1.119544471679341 -1.231340786130629 -1.188354332471892 76.30912168975745 76.32830693270554
3534 5 -0.008858250684918485 0.0009291800656915127 0.05196021974212577 1.234749405833517 -18.02016978064173 3.175487666649191 -242.1270451381559 242.8174545377222
3535 5 -0.002895142210932885 -0.003322196826993207 0.03440438122446486 1.11922506213772 2.409313221084573 -14.13491668817076 46.21014356522669 48.38365455706796
3536 5 -0.004669057721572202 -0.003934242431473282 0.0344807542365103 1.117650932351411 0.1344282927022537 -18.75754416086968 52.9204194553521 56.14654334189473
3537 5 -0.006943425115679977 -0.003670269451198698 0.03470836048635171 1.116011342572089 -15.01209514771452 -12.6922970323472 45.87135818450313 49.90630126920193
3538 5 -0.00289514221093287 0.003322196826993198 0.05359561877553515 1.25692518869785 -1.751872475449808 19.45313199715498 -75.56484809427175 78.04831624820191
3539 5 -0.002605196320741922 -0.003133287788940811 0.03934486892342236 1.038866974047074 -5.168043941590931 -0.3466647812131036 112.8013437757747 112.9202019670229
3540 5 -0.007055261290500824 -0.0001818559464914394 0.03489600183066818 1.115258887670969 -2.30092423744155 -0.8407293515568175 77.15952704114048 77.19840472057375
3541 5 -0.00371330630160171 -0.003720417284753207 0.03991285301244871 1.028377194484543 -12.30343228622979 6.425412868127904 88.05327893143537 89.14056487999672
3542 5 -0.002954554304847097 -0.003378570234406858 0.0399589102985155 1.027897242003729 1.040509916244964 10.55748073236737 87.9800679455419 88.61735392123984
3543 5 -0.00899789002267681 0.0004401423625758883 0.04183812999239065 1.005170659951969 6.987696278468468 -6.219845668856135 25.75059806264112 27.39722029710692
3544 5 -0.007037722735249751 -0.003042272608608241 0.03440438122446475 1.118849534630067 -13.72239892244077 -15.00833250633438 47.73638400197964 51.88753833428364
3545 5 -0.002706606969264377 -0.003130612586768433 0.04860890263624879 1.136636091036765 -6.851553302947679 -6.610222855402815 -318.7030303617732 318.845198161488
3546 5 -0.00695690544750574 -0.003665795150036701 0.05307412539121022 1.250281587407046 -5.027073997674528 -37.19398597163038 -100.0308165522436 106.8401999508824
3547 5 -0.008617291062098907 0.0006970343708920329 0.03433748432931705 1.118882047218154 -20.84853910546357 4.533882216330701 44.31579422858821 49.18442120117076
3548 5 -0.001891095789078991 0.002428254592017129 0.05349486680350177 1.256583762346538 11.47711402590472 9.002479633263903 -84.40321781636655 85.6543750410215
3549 5 -0.007052085278129735 -0.003363835701990099 0.05181097860608264 1.233303563237963 -24.0090075922736 9.93294934187881 -249.6518749135959 251.0003079202652
3550 5 -0.007618270818388265 0.002955232948758368 0.05354785046932543 1.254632736102203 -17.36786314469733 15.79391458438884 -90.92874496429837 93.91020747977466
3551 5 -0.001158163286031112 0.0008227092325280048 0.05359862188278065 1.258162872750231 5.513556237232357 7.851755088059855 -70.52420781723612 71.17382418131476
3552 5 -0.001147598681415542 0.0007903325768276286 0.0343471015018275 1.120502398781255 8.956185420470669 8.840131660038125 37.16808091376689 39.24063485552932
3553 5 -0.001147159641614294 -0.0007889113279487444 0.03434571759954713 1.120432794226703 8.954108763996855 -9.409732278853054 37.57555631625446 39.75728307861574
3554 5 -0.006906778462006682 0.0005550156026333746 0.03446695990457861 1.119680539025296 -1.864945083007574 0.5125730213662298 77.57225232432168 77.59635997862978
3555 5 -0.006707242790327616 -0.003535364656676532 0.03589357353087706 1.104138274464041 1.728320246330007 -12.32065872952679 109.4673024241229 110.1720292198421
3556 5 -0.002904469559175175 0.003327522768625313 0.03435423968919044 1.12003057578625 1.718425409324275 12.73578054017895 39.14129263378669 41.19701300942504
3557 5 -0.007665693081254544 0.00291501256895333 0.03437362254997259 1.118782662534662 -17.28351184931699 7.593188299502941 49.20249069398005 52.69972847072727
3558 5 -0.006321728036528135 -0.003948594353663944 0.05347850661567496 1.25384202503874 -14.27847839966409 -23.47732511993632 -107.0300587634036 110.5011005334087
3559 5 -0.001124495421716112 -0.0008453341884282783 0.03617939729835445 1.102989713289722 -0.2383425626447233 -15.23486376159304 110.7351348482474 111.7784772255867
3560 5 -0.001147598681415545 -0.0007903325768276377 0.05365289849817251 1.258592569573731 5.51995927973742 -11.21391856000996 -60.63647420010204 61.91125845385584
3561 5 -0.001867639156434037 -0.002397140933200791 0.0536168484959598 1.257888950039369 13.24821331019763 -6.329536346922843 -65.84300938323958 67.4602110204296
3562 5 -0.005941673396879071 -0.002430224924015408 0.03449717955900637 1.119074611606447 -5.348633016072361 -11.13117892059753 75.40773727013716 76.41228866815212
3563 5 -0.003160327179090935 0.0009498170026559524 0.03453486760678289 1.119717136176423 0.7042666769431473 1.01314540710369 69.99485609044275 70.00573072463411
3564 5 -0.00868372697153246 -0.001529738373676594 0.03626835106340398 1.096841019012561 -1.930753457530758 -10.28172456142648 114.9105488642466 115.3857699595284
3565 5 -0.009019810178080413 0.001155105835068291 0.03472430452724213 1.115098450082602 -21.92733177215842 8.45944250618393 45.03876525928069 50.8021694639346
3566 5 -0.004652355881328172 0.003932612845410662 0.03440438122446475 1.119093857702378 5.650956255250623 13.47674095689346 51.13207958913171 53.17937021559455
3567 5 -0.00766735778906714 -0.002913516654990172 0.05359561877553526 1.255244455794774 -18.06188501068377 -14.87736555493146 -87.49757013130234 90.57258125324901
3568 5 -0.005230659360698527 -0.0002023517408431513 0.05355053770740975 1.257259357561058 -1.393996477362945 0.5633485596409539 -109.9868762196208 109.997152364635
3569 5 -0.005946861345276242 -0.002449723344792971 0.05354741989610757 1.256942066703825 -4.51059032950126 -7.03557825001275 -107.9739138070444 108.2968644478856
3570 5 -0.004668932555771804 3.032312010600092e-05 0.05355053770740975 1.257317688791606 -1.401962047893857 0.5602293932971318 -110.0045092529649 110.0148690429729
3571 5 -0.006298655824840054 0.003956137848353375 0.03449375576167547 1.117986330923414 -8.230661948407777 21.47871441467836 62.16239601960952 66.28153926935497
3572 5 -0.00766735778906714 -0.002913516654990172 0.03440438122446475 1.117807465429866 -16.66586479071254 -14.27849053243535 45.9306480245412 50.90432957088668
3573 5 -0.007445376025311238 0.001016015971427583 0.05356331601850908 1.256612970237782 -13.18947882305561 5.16815993671242 -109.4843485226434 110.3969872785617
3574 5 -0.001866224091024877 0.00239519033197559 0.03435265497956246 1.120307652938117 12.39326654763827 4.329383173585119 35.5913294046453 37.935199263672
3575 5 -0.004637542085783557 0.003930956556880852 0.05360388145307511 1.256519840473314 6.958393237297877 16.98015108680785 -71.39860077886097 73.71909495208729
3576 5 -0.007400151793213655 0.001018155548870636 0.03446695990457861 1.118980217962621 -16.30453295736996 6.494254175544205 76.42813449925238 78.41729959192901
3577 5 -0.001867117894022683 -0.002396423419730444 0.03433329454550378 1.12031910555452 13.27907902598561 -5.620442354535056 34.68090264678133 37.55913098614699
3578 5 -0.004634146002861545 -0.00393054881677208 0.05359704344313426 1.256356208146121 6.142747970574812 -17.36508269095774 -79.83210711268235 81.92951101736534
3579 5 -0.008811474025104592 -0.00169697756928559 0.05359561877553485 1.254487356189916 -36.12086752029681 -13.48114439548005 -90.98558162759282 98.81717658758508
3580 5 -0.008811254501238402 0.001697470310001057 0.03438682019792508 1.117210300129408 -21.3810395533994 6.43398089116947 46.43779099343534 51.52682209143067
3581 5 -0.007430541520736883 -0.001081111333950571 0.03442904192608957 1.11926586072845 -17.24965106092676 -6.871812381101845 75.27192941865169 77.52828919517881
3582 5 -0.008944531897164886 0.0001188939338962851 0.03433748432931705 1.118790172275757 -17.16328188350945 12.00993704096803 47.0496035502573 51.50225263983319
3583 5 -0.008811336330439228 0.001697286711421141 0.05360326965076373 1.254480015420851 -33.48256471874545 9.977808744617812 -84.90728528549251 91.81441010016435
3584 5 -0.006294294822664823 0.003957502057337417 0.05366933475964727 1.256865254438123 -18.43921138609974 33.9622994989489 -70.70648934666022 80.57822248924923
3585 5 -0.006937168189529906 -0.0008557717105362917 0.03442904192608957 1.120000881625143 -2.273736936731535 -0.6679138729932709 78.52297306391034 78.55872508763609
3586 5 -0.008784288083971366 -0.001753713241010453 0.03436927933644043 1.117669458336793 -6.651272638501037 -15.78163352174702 55.0959772839303 57.69632654855736
3587 5 -0.006308247704702372 -0.00395306865482594 0.03430397926188696 1.118696965626369 -8.838207948751883 -22.46450985883586 38.78886823596545 45.68746460431137
3588 5 -0.002005929055613043 -0.001136571857928709 0.03795809021252927 1.067527627496257 1.451814918786519 1.931076752116533 133.3418129530596 133.3636978551123
3589 5 -0.002835633204637404 -0.001044771446464508 0.03743842223040941 1.079041480326181 6.993783121688208 3.843397898120513 140.1116896576855 140.3387697270005
3590 5 -0.002724839911102525 0.002092126046877011 0.04911726838046213 1.158134337593272 -9.484860664543577 1.447978294763043 -336.7493619062769 336.8860222200568
3591 5 -0.003115996126834592 0.001394112919137601 0.04861168615067488 1.137969494601058 -9.863036950657003 0.4299142434531866 -319.2269705867034 319.379590885377
3592 5 -0.001754999000557449 -0.002124638216185048 0.0371080421304622 1.085529581327016 -5.208120373833467 -3.281621825889537 138.3567002312394 138.4935740693898
3593 5 -0.002583903465828332 -0.002030872119481349 0.03708476656463274 1.086327270305865 7.824560495334607 -1.213910368607032 137.1811315794368 137.4094617802679
3594 5 -0.00531680804987955 0.003231139188207249 0.03984680800246004 1.028390784673419 -10.09940925927609 -0.3242681544048077 94.49212560162975 95.03086350200384
3595 5 -0.004805638733637817 0.002588236491031126 0.04010619511471777 1.024546059086935 -8.986044077613732 -1.483666608542544 94.07245218150646 94.51230879738333
3596 5 -0.008127947030006983 -0.0009696577590165047 0.05041278667865391 1.193799772136272 6.496911253884598 16.17772060685817 -318.7919653918819 319.2682973586529
3597 5 -0.008773664758086473 -0.0009165235168350787 0.04989336791253442 1.176451327559729 -2.812051379704068 16.12024732131896 -312.644820821494 313.0727614998895
3598 5 -0.001690306801184709 -0.0003552059609423308 0.03783815550364557 1.070163727780168 -4.059416458210538 -2.700740719536957 135.8284324006364 135.9159148548455
3599 5 -0.00115713078983512 -0.0009369541915030758 0.03758007211509772 1.075913286955527 -6.444280741357473 -0.9647034739732907 141.2732772976742 141.4234714801319
3600 5 -0.004632059775656125 -0.0009596601877462028 0.04657483284517636 1.060090217089068 -5.350244876670383 -10.5331506644993 -203.6612123684176 204.0035828276922
3601 5 -0.003947738752741936 -0.0008444252184426346 0.04614470171587133 1.046399581470893 -2.142079357555637 -10.09223575693779 -194.1428827382359 194.4168219173951
3602 5 -0.00387962410545254 7.515592517449781e-05 0.03602284573692598 1.102509329243308 -13.54992584075249 -2.714445029317717 78.80682203067491 80.00927384173379
3603 5 -0.003601580144553623 0.0008004086861502571 0.03583098890953833 1.105793147706434 -19.10751019078114 -10.28246707689223 80.35935767110988 83.23732600337149
3604 5 -0.0047957015290953 0.001288370048283634 0.03471244160394812 1.116453628663951 -0.4968898478611371 0.297735504305133 87.10333727868758 87.10526339456322
3605 5 -0.004235316337634433 0.001514491977287306 0.03524730921073101 1.111538118354738 -19.5429826902315 -10.21508512984412 81.85263324056542 84.77104284515536
3606 5 -0.001794588653091217 -0.002175004032704307 0.0399698241662916 1.027618090026324 -5.841685997492602 -3.656574768329814 90.40284845039484 90.66515781861709
3607 5 -0.002065963699436031 -0.001455452990882272 0.04008922845778051 1.025305526637785 -6.707068612225393 1.983768274922457 89.41475294628361 89.68789299778773
3608 5 -0.008774925406717402 -0.001156934859064808 0.04185610095762264 1.005062961611972 -0.2978718676862745 6.135998615684652 25.18211312597349 25.9206101037489
3609 5 -0.008071747399603233 -0.001280669940839828 0.04164929178332625 1.006510710920522 -1.793591700039803 6.872348191346582 25.3801254061873 26.35520643977865
3610 5 -0.005746483096377192 -0.00355368848495779 0.03528191305740363 1.111671306701822 2.793479704260086 5.322159760882895 65.49922364539515 65.77444193247074
3611 5 -0.005398838977705373 -0.003108749904125744 0.03497793379551667 1.114552139539969 -10.280859460079 -2.440724404652471 71.1690806240059 71.94922684590581
3612 5 -0.005334847692596144 0.002930956459818253 0.05299900518157559 1.250961317463729 -9.378453861246049 -19.45655359383645 -120.701501818709 122.6187808448167
3613 5 -0.005668538929230444 0.003380328443161766 0.05266833994122286 1.247978907602699 -5.864423275189433 -21.38958716019979 -117.9386763482288 120.005988508935
3614 5 -0.0056183038370897 0.003670189032393871 0.03710921287272359 1.083718109627859 -12.84998307541118 5.522881265346259 137.2688329605397 137.979552053404
3615 5 -0.006274006495801619 0.003462193739377466 0.03709479712862045 1.083735421557115 0.2803965083202482 11.33295118766922 135.8301716910462 136.3024209118937
3616 5 -0.008803639880606673 -0.001212060754867921 0.03548248759174009 1.106818619734186 -12.92792377343801 19.98687587429446 81.57214749451319 84.97424119798242
3617 5 -0.008921786977406039 -0.0005788524257859663 0.03545069258461671 1.107311809623128 -22.36472324790287 -27.83807982107766 86.09563683332726 93.20728628072034
3618 6 -0.003910807325978588 -0.0004352096529457259 0.02440696469187045 1.12607935902452 -0.04054192988496102 -0.004314768891679966 27.17970429095185 27.17973487009938
3619 6 -0.005213767692594899 -0.001176746106507706 0.02439363684120256 1.126081248111656 -0.02777353677305546 0.0160295928207239 27.17930952689133 27.17932844416426
3620 6 -0.005897110512608496 -0.0007828387912373483 0.02446245718515427 1.126070480637612 -0.02243633529568735 0.0129322418679178 27.17910789110554 27.17912022837341
3621 6 -0.004436282551345452 -0.001052234627508525 0.02438318896024728 1.126082960638402 -0.02164720698160981 0.01704348352223322 27.17932228182124 27.17933624614489
3622 6 -0.005915028005258324 0.0002895647635575742 0.02422439875291615 1.126107404524376 -0.00215083181047396 -0.04246309033163856 27.18113161834038 27.18116487190461
3623 6 -0.005295935904871964 0.001117526693416222 0.03017575041688436 1.125181381682514 -0.4678068046239232 0.6373855204776102 27.03571223309009 27.04727046225966
3624 6 -0.003898196155963385 0.0003843757495967994 0.02438244682927417 1.126083198930055 -0.04034192110587879 -0.01622963351700936 27.18004559493027 27.18008037909548
3625 6 -0.005937063502689333 0.000647716419457554 0.0301050972846148 1.125189531965637 -1.417385178234206 0.01100709228357791 27.0421097905835 27.07923196520778
3626 6 -0.006169526255437888 -0.0001097189629144594 0.03020490442207951 1.125173688329106 -1.247429214684704 0.6215070486468325 27.05744241889647 27.09331173756846
3627 6 -0.005883524645750027 -0.0008009583158224592 0.03018766540809766 1.125178642823508 -0.8743945592118376 -0.349738320835326 27.01403527816032 27.03044551515809
3628 6 -0.003905011840953538 0.0003999997663543838 0.01228344005152546 1.12792613895392 -0.05197637303954476 0.04441322658292423 26.43231835126309 26.43240676708364
3629 6 -0.005428144638632639 -0.001737002804186502 0.01168300245377399 1.128016350243994 -0.04888460793992291 0.04785522818327786 26.43934542394727 26.43943392500224
3630 6 -0.00612790004250922 -0.001383195685801267 0.01168412558893117 1.128015994769067 -0.006893505667786565 0.0283813974335324 26.4409393420104 26.44095547275125
3631 6 -0.005159594233153451 -0.001173281806050923 0.0122862671854821 1.127925739708553 -0.05237214570333372 0.04424434055482738 26.43231248172467 26.43240139553829
3632 6 -0.003905798318268421 -0.0004114825851892954 0.01228147092286156 1.127926611791244 -0.05192527621086914 0.03269881510914787 26.43240361738703 26.43247484514596
3633 6 -0.005859349637030032 -0.0008194746876656876 0.01228739032063927 1.127925384233626 -0.008018031608709017 0.02168382951132583 26.43217727921161 26.43218738956282
3634 6 -0.004461308650728544 0.001006304151179978 0.02425075094386937 1.126103589385532 -0.01316218104734815 -0.04811681321272354 27.18117092895285 27.1812167045494
3635 6 -0.005269322454643021 0.001134610824433195 0.02404765825518281 1.126134960840016 -0.01167454433952892 -0.04826523248849182 27.18192940916088 27.18197476697118
3636 6 -0.006176083303786218 -9.045221950704387e-05 0.01228632305460738 1.127925417854069 -0.01201912855952598 0.03058196122313377 26.43214586713922 26.43216629142471
3637 6 -0.004400546476827129 -0.001022759492818851 0.01228158350475658 1.127926602750781 -0.03976329222594563 0.04700523667951417 26.43223829556253 26.43230999979166
3638 6 -0.003885473674138177 -0.0004332207378853742 0.03031302767190261 1.125166428798237 -0.1618430481414078 0.01095443872639524 27.00539781374634 27.00588499291692
3639 6 -0.006778837744057489 7.264814669381646e-05 0.011667069320072 1.128018321463744 -0.0001872664061234749 0.02332430538465109 26.44815243896083 26.44816272433305
3640 6 -0.005524869449258195 -0.001718897933119914 0.02366607560987249 1.126193678829674 -0.03666847409109802 0.008587817566876222 27.17183418475199 27.17186028396399
3641 6 -0.003428497883779661 -0.0008154563677735317 0.01165497464490576 1.128020720094411 -0.0260589589592082 -0.005259418037259439 26.38845207347214 26.38846546437963
3642 6 -0.006208212269271792 -0.001324990617849557 0.02373489595382421 1.12618291135563 -0.02604357386322121 0.00230434182303048 27.17159617197732 27.17160875087714
3643 6 -0.003428036275090879 -0.0008112603717666335 0.02963839782857515 1.125270416361774 -0.1307140992949955 -0.03363096454026791 26.95413557764713 26.95447350544456
3644 6 -0.003923246042338369 -0.001426733275403087 0.01165508722680078 1.128020711053947 0.003351749354618612 0.03028129729923785 26.38868496728142 26.38870255419191
3645 6 -0.003444388787808889 -0.0008515229766315789 0.02363369015074037 1.126198934227894 -0.03043755747928145 -0.01869498727127344 27.16633734671293 27.16636083068294
3646 6 -0.006355284720248116 0.00110855712798109 0.03076222219596402 1.125081527968417 -1.773143490608179 1.399848988622718 28.71748336011836 28.80620533093364
3647 6 -0.005198307307113177 -0.001179873347437242 0.03007254477212686 1.125199057716412 -0.8955562557563612 -0.3363441689235678 27.01558666169123 27.03251877059447
3648 6 -0.003407464765719103 -0.0004067475198091053 0.01513413803285786 1.127496852312055 -9.843646485519988e-05 0.03747191368809448 26.61441851958152 26.61444489914169
3649 6 -0.003969864013175754 -0.001468547951194378 0.0236099144191172 1.126202535841776 -0.005532254492084342 0.01059309567975552 27.16651034736139 27.16651297595644
3650 6 -0.003423431590765262 0.0007995135762071247 0.01165286870472057 1.128020944427458 -0.07715008663686609 0.006571137844761147 26.48050819852384 26.48062140071129
3651 6 -0.004403625558335716 -0.00104901979614177 0.03019467824192118 1.125183414265283 -0.3778989831312908 -0.2477847089971786 27.00329358391781 27.0070744302807
3652 6 -0.004475029434786127 0.001003177257917615 0.03052878634835969 1.125129930692048 -0.5750142272737536 0.6411668679240918 27.0376924910708 27.05140572236122
3653 6 -0.005714157122430746 0.001578367401939758 0.03083287532823357 1.125073377685295 -1.971565108523128 1.201481957433276 28.64894871134706 28.74183171157639
3654 6 -0.004033140197422892 -0.0004070676980012161 0.01451470937966274 1.127590382092716 -0.02195223894031698 0.01786382066327443 26.5727740116575 26.5727890837884
3655 6 -0.004422798563354481 0.001015735353361069 0.01238934488800361 1.127909890788715 -0.06521865162782368 0.05996350146932761 26.43191941683638 26.43206789398364
3656 6 -0.003946188159288418 -0.001427059430023029 0.02952004839859371 1.125287401828819 -0.3197440164173735 -0.2581954222623217 26.95354128344184 26.95667429098618
3657 6 -0.003885473674137537 0.0003791831025789615 0.03031302767190261 1.125165931352037 -0.1656228098717181 0.1988407156187572 27.01183670276689 27.0130762891286
3658 6 -0.00340927963595426 0.0004035244185167627 0.01512958517974847 1.127497498716014 0.0001009429889892595 -0.01906763719737055 26.61443377749252 26.6144406080893
3659 6 -0.003555634129112323 -0.0008107989323708896 0.01588414973000039 1.127383337820166 -0.01251034019160296 -0.006108905955703161 26.69097178611798 26.69097541707102
3660 6 -0.004031120093420863 -0.0004091080456076052 0.01650766042144642 1.127288766146133 -0.01349706483488219 -0.001949464813973218 26.69486880741309 26.6948722906885
3661 6 -0.004032180656547608 0.0004002430550626233 0.0165057207265319 1.127289056594851 -0.01351665159311103 0.00351132023444856 26.69487774415698 26.69488139709048
3662 6 -0.004034955067658049 0.0004032042403246519 0.01451015652655336 1.127591028496675 -0.02192800603248957 -0.0001663381541491126 26.57271056195809 26.57271961005716
3663 6 -0.006507583343274987 0.0005030472713686622 0.02495010917627011 1.125995150113986 -0.04563908512554998 -0.02763220634726866 27.22585175698222 27.22590403197092
3664 6 -0.005939780885618485 0.0007152654277798184 0.02744098227080018 1.125607768387502 -0.09404839510605276 0.1341855437497259 27.33486776851279 27.33535891081097
3665 6 -0.005890605574782706 -0.0007766720651619163 0.02742352266356318 1.125610741816632 -0.1989013146296057 0.04784397182332318 27.33422538471152 27.33499091203084
3666 6 -0.005961905814934321 0.0006811852286111216 0.01228452506310012 1.127925397671564 0.008939510466652933 0.1030117172934003 26.43155703509564 26.43175927985614
3667 6 -0.005882480615664976 -0.0007802313135641505 0.01861622398033118 1.126968289276904 0.007049729072143699 0.02276663987009985 26.81062936744618 26.81063996060405
3668 6 -0.006179808674218858 -4.048574714097179e-05 0.02743168731876335 1.125609204436626 -0.1561735656413002 -0.05866225232618925 27.334411835184 27.33492092210804
3669 6 -0.005199484661353159 -0.001160177600456771 0.02741402035121333 1.125612799516522 -0.0810104770245942 -0.01792659986705419 27.3350013236044 27.33512724356382
3670 6 -0.006564660255205589 0.000844285594811982 0.01166527132856473 1.12801830128124 0.02189937259616804 0.1031989538028885 26.44648885797624 26.44669927460982
3671 6 -0.004003901008443252 -0.0003848148796598174 0.009509825152273211 1.128341350598641 -0.05495918728746114 0.1093839330139167 26.22265416138631 26.22293989286365
3672 6 -0.003373778121878647 -0.000379854392894462 0.008858925576216557 1.128439100382443 -0.1858024789155091 0.004520800661107056 26.46539737044358 26.46604996923968
3673 6 -0.006785180335663294 0.0001021576907657921 0.02953663840826137 1.125274513195376 -0.2033407062941745 0.175594041044705 28.42789456784402 28.42916407970066
3674 6 -0.006552717582914739 0.0008595930731378055 0.02943683127079667 1.125290356831906 -0.2281701018669972 0.1004754869238719 28.42173729992796 28.42283075390231
3675 6 -0.003558509562474225 0.0008088241066252069 0.01587765718197648 1.127384274672843 -0.01034370690719284 0.01711561950672976 26.67681570972929 26.67682320568855
3676 6 -0.004074900217837376 -0.001426790279717994 0.01587878048789319 1.127384168526016 0.006498863437407548 0.02283193069111816 26.69098976102984 26.69100031762925
3677 6 -0.004418631696921852 -0.001021330014544304 0.02739880163462878 1.12561550781874 -0.06674765477659966 -0.01528508437832616 27.33515996584513 27.33524573223304
3678 6 -0.006202945256846832 -0.001321964122381329 0.029509988796063 1.125281832932868 -0.6259282851709425 0.1921939310421033 27.76700746659654 27.77472643205212
3679 6 -0.006270496744911534 0.001243142166731914 0.02683814834888257 1.125701353340683 -0.0700366950200645 0.005887189123432566 27.48468638968059 27.48477625407816
3680 6 -0.003897076871970691 -0.0004063575897865422 0.01862679672425221 1.126966718035614 -0.01818143669609874 0.02701598546546216 26.81051266318645 26.81053243952817
3681 6 -0.003904257680386272 -0.0004061984092901681 0.0273960864059152 1.125616247316685 -0.08587885903581446 -0.03773263182828859 27.33504435670721 27.33520530219381
3682 6 -0.005182943580121866 -0.001162538328215577 0.01863147351886543 1.12696603240375 -0.01024614269870593 0.03238153428243615 26.81049481615731 26.81051632912729
3683 6 -0.003883779196791129 0.0003664145803487707 0.02138002112155881 1.126545908208075 -0.05602886614421576 0.04861355786618125 26.98403484268257 26.9841368011459
3684 6 -0.003901409159172151 -0.0004244179681025145 0.02138002112155881 1.126545969294544 -0.05451305633304658 -0.01652403736534186 26.9821163246686 26.98217645178145
3685 6 -0.003941218313166205 0.00141524916321381 0.01175877354119872 1.128004696262253 -0.09878959494791449 0.03272749982838401 26.47958895076558 26.47979345604534
3686 6 -0.003994013512214553 0.0003985775515158705 0.007450942123998591 1.128648462047217 -0.288586947305939 -0.4892312261215694 25.93012991126293 25.93635029902512
3687 6 -0.004550386182145916 -0.00102509939295471 0.01650229117933922 1.127289596851983 0.005958802528778094 0.02277457149878808 26.68958080571259 26.68959118782258
3688 6 -0.004403173402400753 -0.001019942926088047 0.01863309049147124 1.126965814406075 -0.01430244610390536 0.03159977659545141 26.81048266620566 26.81050510342466
3689 6 -0.006468351470812282 -0.001004642498292761 0.02685402934464757 1.125699083476175 -0.07259605206593808 0.04458301443444352 27.48097150426905 27.48110355590545
3690 6 -0.006757554570248432 -0.0002684561802718165 0.02686219399984774 1.125697546096168 -0.06529394619278478 0.02593177285696204 27.48076455201383 27.48085435570504
3691 6 -0.005167127408492092 -0.001804141039136796 0.03073579353964916 1.125094713111935 -0.6464935469058208 -0.8513545475361225 27.60911706713292 27.62980462649803
3692 6 -0.004424987121662463 -0.001041133924039592 0.02136390413532113 1.126548235233712 -0.05051122124191033 -0.01175394527467864 26.98231758351054 26.98236742237647
3693 6 -0.003423075257038314 0.0007904271888313752 0.0236220012333142 1.126200962981645 -0.05502298492281266 -0.03721640465996162 27.20853908059372 27.20862016879653
3694 6 -0.006172479053297032 -3.60036091114709e-05 0.0186018797438857 1.126970413414769 0.01080512184066617 0.01324202722832389 26.81072684547758 26.81073229295976
3695 6 -0.005200932661534765 0.001774295119377813 0.02477861620560946 1.126021996069746 -6.540844533551904e-05 0.008076488864662253 27.23487405417838 27.23487525179635
3696 6 -0.003992505242601064 -0.000412055906791233 0.007454723616292716 1.128647259830212 -0.2759333461080686 0.2503100630751677 25.85438206764837 25.85706608335735
3697 6 -0.005073984760265561 -0.001775351538792227 0.01924550292715334 1.126872482791168 0.009276938509841485 0.0009098758555059584 26.85180591748585 26.85180753543028
3698 6 -0.003273405777897354 -0.0004039784584557028 0.01924873317969679 1.126871856758399 0.03040351629956408 0.04585587023297658 26.86860660963829 26.86866294176427
3699 6 -0.004549617052002169 -0.001022573771820145 0.01451919616590763 1.127589799936385 0.001086951598251192 0.05096933433239378 26.57908511082481 26.57913400363103
3700 6 -0.004392918857620288 0.001645988446124596 0.024981708894296 1.125990624615263 -0.03239197976723356 0.01166679184104271 27.23447034650854 27.23449210852367
3701 6 -0.005246481156997143 0.001765675417940086 0.02951933256151239 1.125281508287766 -0.7705287197899838 0.1830636578224341 27.54762955387914 27.55901160870237
3702 6 -0.006502444558421545 0.0005025450930823839 0.02342488416580808 1.126230925263787 -0.03671486221102106 -0.03098928829106524 27.14159189059937 27.14163441417899
3703 6 -0.00551772791820998 -0.001700879153996112 0.0293948681600922 1.125302247825772 -0.3801487099695507 0.06242567158484739 27.78352527469152 27.78619597382101
3704 6 -0.003522269852265157 -0.0007842859309697678 0.00811270706851068 1.128550660575705 -0.2096227795051729 -0.06737631728263217 26.3339797871744 26.33490027908076
3705 6 -0.006176265586610484 -3.408728210652719e-05 0.02138950634004382 1.126544237766352 0.004214839780846261 -0.01560262699959542 26.98219321633292 26.98219805668852
3706 6 -0.003275220648132582 -0.0004061103605934043 0.02075328603280618 1.126641993049905 0.03046850562981022 0.01792492362178993 26.87744920214785 26.87747244900011
3707 6 -0.003257590685751559 0.0003847221878578809 0.02075328603280618 1.126641931963436 0.03046699385553052 0.007612959112290012 26.87744774488937 26.87746609102353
3708 6 -0.00429421458254445 -0.001632756136664697 0.01924711989975916 1.126872264793493 -0.02179192378567263 -0.004659903558023333 26.85123128607677 26.8512405333726
3709 6 -0.003275120898925215 -0.000406051439234996 0.02676044559595998 1.125715111726481 -0.003864349380350992 -0.003570848076454534 27.23272022813062 27.23272073641903
3710 6 -0.006467445404066505 -0.001001445913558199 0.01921901389873277 1.126876411362476 -0.0224663650475791 0.02336595736151082 26.84161566042314 26.84163523273861
3711 6 -0.005090916129369412 -0.001776244075145193 0.02679586260346975 1.125708921569091 -0.0808216955199106 -0.01824144766227756 27.33689990988688 27.3370254705967
3712 6 -0.005053361126198221 0.001294848823035972 0.0053262861402406 1.128954564549742 -0.6028624771460095 -1.402525099809875 23.42038651070805 23.4700878595054
3713 6 -0.005896130664190246 -0.0007820183094012878 0.02140224673628498 1.126542247078203 -0.001089878650923231 -0.0005373962861368095 26.98258190551442 26.98258193287707
3714 6 -0.003284618814939018 -0.0004169020454366157 0.02528022960311783 1.125944394284084 -0.004150185396805797 0.01059310796042957 27.22100385098535 27.22100622852385
3715 6 -0.005210161423315813 -0.001177533978181101 0.02134631639680863 1.126550819533238 0.002681751873394568 -0.002716207678227804 26.98272877971988 26.98272904969957
3716 6 -0.004313510884839925 -0.00163801865843797 0.02072926199941183 1.126645570653706 -0.05064239967048743 -0.0123533351208597 26.98390769377755 26.98395804332345
3717 6 -0.004443207709023432 -0.001638244940975138 0.01513325557699554 1.127497100861573 -0.01629079955050736 0.004226677842572026 26.64201187656062 26.64201719250539
3718 6 -0.004310063164938104 -0.001637396489232726 0.0267806438868852 1.125711629871309 -0.06690477560886668 -0.01588284620720702 27.33678275950763 27.3368692456601
3719 6 -0.005108147431032641 -0.00177465194374219 0.02528438481466156 1.125943541013994 -0.009352528941302696 -0.007669726110933571 27.206798324559 27.20680101312395
3720 6 -0.003986187751803473 0.001412355590414554 0.02349030534790941 1.126221353437122 -0.03919123349730511 -0.05491031518226824 27.20880109291203 27.20888472556615
3721 6 -0.004425574686911305 0.00165132598244148 0.02987236849298772 1.1252300572973 -0.8367845970889578 0.191835285012666 27.54144674181831 27.55482349555002
3722 6 -0.003904257680386174 0.0004062054311739012 0.0273960864059152 1.12561624999834 -0.08588861129343758 0.03659039078633743 27.33507972008034 27.33523914315358
3723 6 -0.004600837294151829 -0.001036833610854441 0.007272606662338034 1.128673511672067 -0.3711385713471229 0.1274096322048035 25.84878437489567 25.85176262295031
3724 6 -0.005051039941350378 0.001302640093133659 0.03268611782836578 1.124796791213247 -3.254065130653875 3.001280042633143 22.94563535203141 23.36875699469784
3725 6 -0.004557098229946007 0.001017177822996427 0.01658642400205987 1.127276733113954 -0.0229898501241023 0.01535549549180362 26.69715601077247 26.69717032548534
3726 6 -0.004330662289783193 -0.00165014046474301 0.02527393693370628 1.125945253540739 -0.03103438193963846 -0.01134527992815996 27.20704177966241 27.20706184519996
3727 6 -0.004372445659714631 -0.001673287487841324 0.03085792700944348 1.125079069660806 -0.6430961576897218 -0.8514341536889716 27.6093794046064 27.62998993654554
3728 6 -0.005244750797906209 -0.001161395190513839 0.009594020174917868 1.12832838391585 -0.01254661941939472 0.02964828922359233 26.21043319870045 26.21045297018446
3729 6 -0.0058745725442332 0.0009451544497752219 0.005296958307519814 1.128956419856498 0.6771595423552121 -0.9090940173684656 23.42248041661676 23.44989522034189
3730 6 -0.005859346552462748 0.0009610259275350662 0.03265739904424129 1.124782918196573 -6.3230932519479 1.757713871112211 22.89554755209242 23.81758098623062
3731 6 -0.004083427135872624 0.00142575887455901 0.01595836045750445 1.127371951191946 -0.01113857636738184 0.01830112247799761 26.676527488474 26.67653609152201
3732 6 -0.005909548798107952 0.0007252661685539485 0.0213082411916005 1.126556602872961 0.02739975713926418 0.04900884643853735 26.9844321749145 26.98449059026836
3733 6 -0.003982083549167799 -0.001387061581829213 0.008278061219965443 1.128525138938806 -0.2201217131145009 -0.08152526861188071 26.33339861716394 26.33444479514345
3734 6 -0.004907701976111401 -0.001417155476230183 0.005386811693320123 1.128947311175071 -0.2702704833989044 1.133086708423881 24.05657473709839 24.08476115108066
3735 6 -0.005253911114252728 0.001124622580923064 0.01213681348488465 1.127947466862148 -0.05648957212188155 0.05841707413120745 26.43275659791059 26.43288151130509
3736 6 -0.003426053536161501 0.0008086234667844736 0.02963229480111034 1.125270687788822 -0.1963692402507362 0.1548420741196896 27.06743233077735 27.06858751260667
3737 6 -0.005098685186493275 -0.00177441871257948 0.02071167426089934 1.126648154953233 0.002729844473440602 -0.002785436575644618 26.98496139437371 26.98496167621046
3738 6 -0.005278095856604858 0.001145566932233851 0.0274501077499488 1.125606716688134 -0.222456425930543 0.05162109912434665 27.33397812976538 27.33493208328503
3739 6 -0.00675744384169856 -0.0002572182091055192 0.01920466966228729 1.12687853550034 -0.01118767805542077 -0.006104444624355178 26.84219774896245 26.84220077457863
3740 6 -0.00675871295804578 -0.0002393734059223046 0.0207436247142482 1.1266432448845 -0.007245216642587531 -0.02939703704514051 26.96639410232329 26.96641109900922
3741 6 -0.005328764012665589 -0.001165514089183501 0.01451194004618155 1.127590887316523 -0.02783078610065725 0.04427044585620473 26.57133676252153 26.57138821688395
3742 6 -0.005938452479161336 0.0007153598913404793 0.01858846576996288 1.126972125117188 0.04869025367295605 0.1264687631702812 26.81041402279225 26.81075651977012
3743 6 -0.005321731678663877 -0.001172306537960512 0.01650545804811285 1.127289247401998 0.03953124369292665 0.03419827276602017 26.68043247964305 26.68048368268236
3744 6 -0.005222354669686851 -0.001781185258338495 0.01512599945726946 1.127498188241712 0.01041365138787855 0.01470762994495546 26.64219991238539 26.64220600719884
3745 6 -0.00619124217963103 -0.001324700200315543 0.02816278731751594 1.125495026125343 -0.1836562731808741 -0.09727990872486243 27.53248924021115 27.5332736297314
3746 6 -0.003272007644923815 0.0004026833571059095 0.02525571174052153 1.125948234189619 -0.004159977031642562 -0.03002399765968574 27.22109668288006 27.22111355849625
3747 6 -0.00444218207428849 -0.001607712165199319 0.00785284168085988 1.128588049654345 -0.204547481849512 -0.07369500901645219 26.35043224034985 26.35132918620907
3748 6 -0.005500121266201481 -0.001708205735610397 0.02815328500516609 1.125497083825233 -0.2066749328367865 -0.08474898185266604 27.53285481079448 27.53376092999423
3749 6 -0.006478578035625541 -0.0009873044332170651 0.02075636511048937 1.12664125419635 -0.01924239098869916 0.001909443915681976 26.96619284307783 26.96619977612065
3750 6 -0.0033746133380718 0.0004293831303456053 0.008863490730321466 1.128437925609572 -0.1789152929072771 0.2103822997706142 26.46536981904851 26.46681074578304
3751 6 -0.006463758438033861 -0.001016534720812596 0.02889433980692076 1.125378758553752 -0.3986312744007383 0.1368144124407677 28.09459458735563 28.0977556061735
3752 6 -0.006751961704820886 -0.0002832107511768689 0.0171074114078243 1.127197784421219 -0.011488868797885 0.03188302349545515 26.73904981893025 26.7390712954008
3753 6 -0.003942410291626073 -0.001426391977020319 0.02814111305728874 1.125500589581628 -0.1649529148574666 -0.004865327647376093 27.19937667721511 27.19987729318951
3754 6 -0.005608811715897909 0.001673443671185947 0.02684727382803118 1.125700301641316 -0.1176493688007882 -0.02428891836689629 27.48389113569251 27.4841536759663
3755 6 -0.004004736224636406 0.0004244226435802499 0.009514390306378118 1.12834017582577 -0.05497562184577315 0.1060840066390473 26.2224495203836 26.2227217310585
3756 6 -0.006277537659375332 -9.475303486481456e-05 0.009562385422695644 1.128332854833854 -0.003133950423569258 -0.0229828414812403 26.20598301661606 26.20599328206846
3757 6 -0.006759991907162463 -0.0002836522605734749 0.02890375040513728 1.125376393310662 -0.3350034045751791 -0.02055105879391142 28.09254882296053 28.09455372483278
3758 6 -0.00326846891676598 0.00037430482371723 0.006835119132932926 1.128742469624072 -0.8428429083075927 -0.1991707594396219 26.73618747200153 26.750210722488
3759 6 -0.003275120898925116 0.0004063524012290733 0.02676044559595998 1.125715114408136 -0.003862909441805671 0.002410913387004718 27.23272029300226 27.23272067369454
3760 6 -0.005074441608244246 -0.001759210354607929 0.009108474750315978 1.128400612062753 0.01854688824632232 0.00618450789505983 26.16044775215894 26.16045505775157
3761 6 -0.003428036275090494 -0.0008112603717661837 0.02813839782857515 1.125501329079573 -0.1145927013497368 0.05480901041011346 27.19913114437932 27.1994277609653
3762 6 -0.006776678748195783 0.0001443685779445234 0.02818036257093263 1.125491123502246 -0.342898170144982 0.1774235611567585 27.7608166504756 27.76350120889773
3763 6 -0.00653665095959541 0.0009001197528653135 0.02818965752296947 1.125489687453122 -0.3863472609050977 0.03957437044637024 27.75886793040339 27.76158459300159
3764 6 -0.003426731410209708 -0.000813381568234805 0.01014807723005663 1.128246364765567 -0.01773709374014185 -0.0007679064294323607 26.37223787153139 26.37224384740156
3765 6 -0.004541945880331192 0.0008272809467156759 0.004974742193770714 1.129002696649724 -2.191179490591426 -0.6470673135146611 23.88606756198898 23.99508673133126
3766 6 -0.006780422935901817 4.375442534529443e-05 0.01020788004389948 1.128236664307289 -0.03609084430588274 0.0148518828519699 26.27160380456404 26.27163279264254
3767 6 -0.005435458277994279 0.001150050760008352 0.009516201352882631 1.128340520591546 0.1010921017689697 -0.1004642315443675 26.18334103778501 26.1837289280159
3768 6 -0.004886692673599592 -0.00140852191455487 0.03268245405641708 1.124796084154264 -3.226659959762598 -2.224919379390605 25.08300851547637 25.38737711793369
3769 6 -0.004138760434081809 -0.001171355079765572 0.005330727283467018 1.128957980574931 -1.780455556969791 0.5238404044694071 24.03412807737052 24.10567865045805
3770 6 -0.00645107033872113 -0.001024512530216342 0.0171223553600187 1.12719571795486 -0.0196103515285194 0.05233277379352346 26.73859837939278 26.73865678338323
3771 6 -0.006477804679059559 -0.0009926485869142551 0.02540186958744125 1.125924993146923 -0.08400778204887331 0.01623327006328518 27.25123742602991 27.25137174669112
3772 6 -0.003278036275090242 -0.0004050584515340916 0.02888839782857515 1.125385782631623 -0.1565605182554454 -0.05137581043064024 27.00151180409738 27.00201456144678
3773 6 -0.003274888954388933 0.0004049602531197392 0.01313254047546881 1.127798686802858 -0.00756746174632216 0.01538588227689766 26.50230771518412 26.50231326171658
3774 6 -0.004422201142833593 0.001020586078067121 0.01862746970917839 1.126966512685021 -0.02972460049817717 0.004237435939633744 26.81056918333287 26.81058599587141
3775 6 -0.00494601667283143 0.001758655612599288 0.03190187650482286 1.124906811111994 -2.962726872275042 1.172509195882146 28.47753052838775 28.65523116866073
3776 6 -0.003275675431703816 -0.00040652209842394 0.01313057134680492 1.127799159640182 -0.007590906277622109 0.06119376248325512 26.50231882618733 26.50239056129293
3777 6 -0.003271840457466557 -0.0004064305438926243 0.01712807524169799 1.127194667763988 0.001232234033604701 0.007721009521200093 26.7169976841918 26.71699882826472
3778 6 -0.006305607774802019 -5.460993124177185e-05 0.01649595235888795 1.127290529559749 0.01068753906467577 0.06217885357539429 26.68829287420662 26.68836744675011
3779 6 -0.003272901020593302 0.0004029205567776041 0.01712613554678347 1.127194958212705 0.001284372964307297 -0.005946727430176541 26.71700456829902 26.71700526098859
3780 6 -0.003929540582001904 -0.001426320718152552 0.01018738160609106 1.128240425411014 -0.01846117601518914 -0.00164165886690302 26.3720985594557 26.37210507221047
3781 6 -0.003898891742205436 0.0004039143485388446 0.0186313495773616 1.126965983641859 -0.01807085532624046 -0.009347987351115649 26.81063916583519 26.81064688554336
3782 6 -0.005045948201168124 -0.001783827393104496 0.01313985439567034 1.127797705401159 -0.02926023129575096 0.02293058651231676 26.47148205954471 26.47150816258361
3783 6 -0.0061767748274436 -0.00133158143077016 0.01786611651344121 1.127082646253048 0.007292846958984654 0.02082269165246078 26.8106553474962 26.81066442541719
3784 6 -0.006427742500082421 -0.001062918478120467 0.0131437163512383 1.12779673011288 -0.04466191591194308 0.0290403365414783 26.47912407818793 26.4791776680461
3785 6 -0.005932543274870741 -0.0008143879396297944 0.00957889598180719 1.128330475178499 -0.0326344270108149 0.03624847933524362 26.21442467713397 26.2144700520764
3786 6 -0.003423860561468612 -0.0008105921165180639 0.01388512419991431 1.127685520199899 -0.02229833601018009 0.01912557859482531 26.57681606800256 26.57683230401969
3787 6 -0.006744476166838607 -0.0003338960099618234 0.01314264908520641 1.127796763733322 -0.03169207136902568 -0.0005842992918833823 26.47975847692912 26.47977744856049
3788 6 -0.006004716408702262 -0.000795911710281245 0.01651089631108235 1.12728846309339 0.01997814705545999 0.04352825537390278 26.68572764716302 26.6857706258211
3789 6 -0.006773014278956488 0.000105153391292328 0.013887415115423 1.127684581578564 -0.03434927912759609 0.04049251459863028 26.54555125810872 26.5456043651975
3790 6 -0.003940337416047889 -0.001426098190336993 0.0138896109861592 1.127684938043568 0.004515927726204846 0.05062452901096048 26.57657280430463 26.576621404141
3791 6 -0.003420025587231354 -0.0008105005619867486 0.0178735223885886 1.127081424461743 -0.006326348829783128 -0.01368515307381385 26.75339069756857 26.75339494574198
3792 6 -0.004286900444841801 -0.001633305079872424 0.01313517071494482 1.127798568443387 -0.05271493075450942 0.018556363072036 26.4704551989652 26.47051419302161
3793 6 -0.005599256575144087 0.001638558040240874 0.03157744951890736 1.124951729027777 -1.945607685438177 1.359486427718787 29.1342374227555 29.23076090043287
3794 6 -0.00593043929925745 0.001342669199116924 0.0190630063406569 1.126899683936457 0.06988358321657147 0.007361519514618806 26.6769068525609 26.67699940261992
3795 6 -0.004297203076621672 -0.001636007227541234 0.01712899976680982 1.127194594840299 0.0007623879184878171 0.01113602771381967 26.70453904099506 26.70454137378843
3796 6 -0.005418401354142846 -0.0009552705246220799 0.004996645209837474 1.128995168863996 -0.9339024668827833 1.502856223834567 23.83502653673476 23.90061172133505
3797 6 -0.003278497883779635 -0.0004092544475417031 0.01090497464490576 1.128133066936839 -0.01668462456566151 0.00165384694285827 26.37405669735426 26.37406202668
3798 6 -0.005478532133037631 -0.001719560820932421 0.01388703854715862 1.127685162381478 -0.06169974411491915 0.02766363297813587 26.52093879099198 26.52102498944105
3799 6 -0.00453810909817706 0.0008356727986398074 0.03304457956916731 1.124785172206281 -11.54401459641032 6.687240162932245 20.41359653749668 24.38643839502942
3800 6 -0.004087733007186529 -0.0004767952672083171 0.004940560799984369 1.129010739863699 -1.990751016304067 0.06327509235779299 24.15742795438808 24.23939806838609
3801 6 -0.006160571028075347 -0.001352459024333627 0.01388977736756941 1.127684542568125 -0.02577042920089831 0.00898002598563254 26.52262622687172 26.52264026687824
3802 6 -0.00547723779190049 -0.001713888445421587 0.01788136605197546 1.127080389379894 -0.0121211423397014 0.03138518771203395 26.81016881455768 26.81018992504866
3803 6 -0.005908142514216153 0.0002613837720920626 0.03301586078504283 1.124755112005508 -3.886842355808623 8.34587786779719 21.02853954708374 22.95562450395022
3804 6 -0.004414187962929706 0.001647895385843565 0.01910201027987241 1.12689407150429 -0.04154235720511655 0.0553199995602057 26.86857404777993 26.86866311208704
3805 6 -0.00630651249182826 -6.982234511739585e-05 0.01451338388047781 1.127590272893167 -0.02094903145423802 0.02473759036286192 26.57307250444248 26.57309227652388
3806 6 -0.005068548573139634 -0.001783214372547036 0.01713216663558346 1.127194245390314 0.05350402534757608 0.02098713839187748 26.7031269360783 26.7031887853308
3807 6 -0.004593736228956166 0.001048384982436549 0.009268452558686996 1.128376831996246 0.08832007559614495 -0.09811345873006823 26.18659048923638 26.18692322777731
3808 6 -0.006010802907703305 -0.0007984122925847075 0.01451467886659233 1.12759026750317 -0.03035093409866 0.04521137497507451 26.57065186255898 26.57070766180187
3809 6 -0.0064094539349396 -0.001092403351371069 0.0109536220911294 1.12812535656182 -0.06530806739238869 0.03593162939939086 26.35483971403861 26.35494512569367
3810 6 -0.003926122117661416 -0.001424085898288253 0.01787981615580764 1.127080520832204 0.02823883681426514 0.02723245747044094 26.75337188534095 26.75340064877727
3811 6 -0.006241622240667123 0.0012243674461804 0.005964358463447543 1.128866241582637 0.08039269011586822 -0.2568116199206816 25.73591497581719 25.73732182716846
3812 6 -0.00674365796973168 -0.0003655819870346287 0.01093763308830212 1.128127649636054 -0.03344861552956319 -0.03321405421128157 26.35638038905817 26.35642254168816
3813 6 -0.003266960647152491 -0.0004363286345898735 0.006838900625227051 1.128741267407067 -0.8492620419454657 -0.07468931698431924 26.73615899614082 26.74974808062466
3814 6 -0.004410722427577759 0.0009836745499008518 0.02118409572144189 1.126575664228758 -0.0457693553256101 0.03569803136926845 26.9843822980556 26.98444472637795
3815 6 -0.006742698178944158 -0.0003490290018795843 0.03101256990390324 1.125043131485274 -1.913017560115621 0.1348129534186644 28.21464329079733 28.27974375316465
3816 6 -0.005406269330053348 -0.0009502452757051724 0.03301586078504283 1.124762362677344 3.894163201942473 -6.245208452908295 22.73937147353412 23.9007562783067
3817 6 -0.003942513536701863 0.0009907845353341815 0.005330030096899071 1.128959546261775 -0.5952007708356482 -1.047355872742158 24.53662077013198 24.56617546748054
3818 6 -0.005909252856230415 0.001356181683739387 0.01967753263644158 1.126806447064283 0.05745007007646774 0.01544516117336527 26.70743430314379 26.70750055921177
3819 6 -0.0035246133380718 0.000835585050577403 0.008113490730321464 1.128550688019839 -0.1414145765460481 0.06143837896038747 26.73425857781996 26.73470318635703
3820 6 -0.00621212552231505 0.001253741030130405 0.03195016476554573 1.124876359406441 -5.116898237460838 -0.8215744768953039 31.62296212543318 32.0448024768479
3821 6 -0.006077726802279944 0.0006779550442876558 0.009533621773223316 1.128337655668488 -0.04807705288473777 -0.1991527071674475 26.2044845358434 26.20528540186201
3822 6 -0.004608732640780641 0.001023492988741228 0.007241431001552306 1.128679686610527 -0.3700160102598138 -0.3921282846670577 25.90414078095046 25.90975079075029
3823 6 -0.006456696569256297 -0.001040268354787584 0.03099533088992139 1.125048085979675 -1.67962153346253 -0.5198480914729678 28.21044097657638 28.26517911895799
3824 6 -0.005924884103292894 0.0002449117125057732 0.004945414361049928 1.128999650356637 0.6674978301846956 -0.9387659935527781 23.41451342396746 23.44282990223461
3825 6 -0.003938118052114411 -0.001425372720595018 0.01999082613254012 1.126758693482699 0.007109722916035633 -0.0003178008094730947 26.8951874145323 26.89518835613489
3826 6 -0.003424888954388887 0.0008111621733514834 0.01388254047546882 1.127685693766534 -0.01318623581816218 0.03130660075548695 26.52905005208973 26.52907180144733
3827 6 -0.006586802957981834 0.000827182917478874 0.0314537320505348 1.124957743476422 -4.05384658203121 0.5852303781187967 33.23678833578217 33.48821084476901
3828 6 -0.003982935680963163 0.001429900343710678 0.02940326380768576 1.12530456563598 -0.257353622844047 0.22811239888759 27.06734482217465 27.0695293988688
3829 6 -0.006580612078806431 0.0008164625044977649 0.01017911639442716 1.128241465141923 -0.09871139578907179 -0.2120730681468216 26.27713439412564 26.27817556248592
3830 6 -0.003275220648132099 0.0004062934798696839 0.01925328603280618 1.126871122364644 0.03039260665126708 -0.02850606738273119 26.86858909952181 26.86862141058523
3831 6 -0.003423405777897378 -0.0008101803786875286 0.01999873317969679 1.126757381818066 0.03055263883001548 0.02722405542298752 26.8953568038122 26.89538793580231
3832 6 -0.004117662213910155 -0.001162579431227711 0.03273869223019295 1.124803044103715 -2.2116067666507 -1.812492300918571 25.09371412258497 25.2561046342702
3833 6 -0.005504702417700477 -0.001088462506707188 0.007331862234788735 1.128663683726552 -0.07194264393906778 0.1550738791050464 25.90599680144865 25.90656082788036
3834 6 -0.004075512065437187 -0.0004716279314288615 0.0330720989588187 1.124785509810894 -6.555579303652744 -10.98128316428118 22.45992604019064 25.84593735331414
3835 6 -0.003284890871794835 -0.0004344704501978672 0.02286390614358254 1.126317869250154 -0.01948677784741069 -0.01103110211687093 27.1504538565781 27.15046309067124
3836 6 -0.003256336892677119 -0.0004330737678302021 0.03117738686194739 1.12503631551875 -0.6856651420193582 -0.26362477441923 26.24183416652305 26.25211410785738
3837 6 -0.003749438457076005 0.001283211756028314 0.006080030096899073 1.128854035259471 -0.1327273984823194 -0.7199685598144602 26.10471346158194 26.11497723913859
3838 6 -0.004548031649783865 0.001018101100400682 0.01451018011548834 1.127590918539054 -0.032433262080968 0.01461849479244452 26.56996517300395 26.56998898967635
3839 6 -0.005021906054098486 -0.001793217720640349 0.0109676231490829 1.128123620774098 -0.002656870459518471 0.005235322008407026 26.34993122040241 26.34993187443745
3840 6 -0.003434890871794859 -0.000840672370429693 0.02211390614358254 1.126433317745466 -0.03939680559312517 -0.0638459217177981 27.04724341755076 27.04734746510744
3841 6 -0.006101224516605146 -0.001402701843756125 0.01024037960583831 1.128231991577699 -0.02737381944182228 -0.002180942929571367 26.26801835012942 26.26803270374922
3842 6 -0.006767664631175412 0.000153948052721993 0.01783682832480133 1.127086836857271 -0.01233036391508953 0.04409199389014011 26.75681942636977 26.75685859657591
3843 6 -0.003274218068080119 0.0003942331448952741 0.01090089957605667 1.128133764107211 -0.01635832605360727 -0.03979665215273562 26.37407299575274 26.3741080939934
3844 6 -0.006153976100392642 0.0004851731378034571 0.007200975312888313 1.128683488460001 0.07946414510211908 -0.301160991034594 25.98528799733416 25.98715461140901
3845 6 -0.004276055214130537 -0.001633470505089006 0.0109443916028352 1.128127118541823 -0.009902204071860345 0.003693846916087842 26.35014522134062 26.35014734083835
3846 6 -0.003938676754547731 0.0009991763872583147 0.03268929166603896 1.124837650332358 -0.2956346456803207 4.182209481144047 15.85816920944283 16.40304260383476
3847 6 -0.003556779599590429 -0.0002497467083318447 0.00544056079998437 1.128945409258353 -1.175926194796817 1.010889996489321 24.77540365143399 24.82388622057594
3848 6 -0.005597672807523714 0.001680096486691557 0.02544311897905185 1.125918913129305 -0.04956840919252298 0.02739670176511509 27.28913953456744 27.2891983052553
3849 6 -0.00395846883428517 -0.00145738832636677 0.02209778915734486 1.126435583684634 -0.002488383362355388 -0.02004638966070082 27.04885267091658 27.04886021374545
3850 6 -0.006199839598110657 -0.001314580433766373 0.02612204369169725 1.125813295066318 -0.05559180540024891 -0.03572487907709607 27.33230983033863 27.33238971216089
3851 6 -0.005413432039640613 -0.00174970909464017 0.01025550379894899 1.12822990031505 -0.05370801922301009 0.01014106271762433 26.26744785431625 26.26750471917166
3852 6 -0.005625392675018757 -0.001716937742087154 0.01587469123694074 1.12738490645617 0.009469924741148834 0.01462472642217472 26.64105576665422 26.64106146391464
3853 6 -0.005503062531488873 -0.001704368176864057 0.01997162142142182 1.126761495779901 -0.03592063182490269 -0.008528979199826439 26.92178756272648 26.92181287743919
3854 6 -0.003434618814939269 -0.0008231039656687077 0.02603022960311782 1.125828238645535 -0.003799402562450422 -0.001209826613626247 27.23933285998065 27.23933315182223
3855 6 -0.00522118280482097 0.001137197085184604 0.02139264392623724 1.126543522201725 -0.006534829511521446 0.02950886654332354 26.98349071557479 26.9835076421638
3856 6 -0.004462628715240257 0.001027643747504319 0.02717859525684853 1.125649672128443 -0.08586988153385411 0.03656650393154577 27.33589146650808 27.33605079404254
3857 6 -0.005520361366382102 0.001064482700787634 0.007158831157480033 1.128690849408617 -0.04625253631160662 -0.4151681207838148 25.97215888810272 25.97551811176215
3858 6 -0.003408558548658464 0.0007725249409420213 0.02212673508875267 1.126431445507214 -0.05859966717650172 0.03849829729660297 26.96710244158803 26.96719359026799
3859 6 -0.005513525170097334 -0.00170267647532395 0.02607337926286928 1.125821075459344 -0.08496998793964977 -0.01902130347334844 27.33299009065678 27.33312878184234
3860 6 -0.006545622972514002 0.0008739641152799266 0.01387211493766007 1.127686811896551 -0.04127282006044813 0.01678028408335129 26.54608925497643 26.54612664319947
3861 6 -0.005521163430771515 -0.001719626883434635 0.02212591472863239 1.126431023498804 -0.04282016681295355 -0.02661541749921745 27.04729091473515 27.04733790548432
3862 6 -0.006287501365813535 0.001229534296719329 0.02881323821970942 1.125390800898068 -0.2449635190375651 0.2193138284160495 28.16556480721592 28.16748385267086
3863 6 -0.006258617938648636 0.001253894699558027 0.02543787145197916 1.125919623489184 -0.04369152529040628 0.03112191392926527 27.28923967992137 27.2892924025359
3864 6 -0.003544558657841087 -0.000244579372552389 0.0325720989588187 1.124859996479297 0.5097618526366204 -2.864560205441639 17.21906046668454 17.4631499355741
3865 6 -0.006759565470852292 -0.0002559096811793845 0.02547408321143473 1.125913751206554 -0.05913115216893531 -0.04733651996093888 27.25026302938116 27.25036829860721
3866 6 -0.006233780835878824 0.001277171439487395 0.02077366265339452 1.126638802670382 0.04064464020112053 -0.06613615537930521 27.13173072262266 27.13184177277192
3867 6 -0.006079121185385773 0.0006989883788702028 0.01449808370271488 1.127592503211154 -0.02129602599393242 0.02379380538448013 26.57302771275148 26.57304689885139
3868 6 -0.003556690681930045 0.000413359827514628 0.005440407036061278 1.128943835926659 -1.151798371291763 -0.2925913449683285 24.46220886365318 24.4910577899823
3869 6 -0.006432061944610976 -0.0001638500464212465 0.005341761704827939 1.12894785403789 0.9143530733546561 -0.5355721566142205 23.23267790332499 23.25683128969505
3870 6 -0.005772507645035331 -0.001624333691821998 0.008034736333616932 1.128560057143805 -0.1193427937871158 0.03713875990792273 26.14185404378953 26.14215283477456
3871 6 -0.006144704228726339 -0.0004180789284027991 0.007346612221705413 1.128661295499391 0.1061886025279101 0.0009364088622487485 25.95819591957454 25.95841313129878
3872 6 -0.006089204817032364 -0.0009690050887996023 0.005392992553615484 1.128941201834289 0.304669945691084 1.119681568051931 23.28476792018168 23.31366396957725
3873 6 -0.003363615602304189 0.0007057870482087607 0.006190407036061279 1.128838324924355 -1.001376040075106 0.32907931930544 25.7850487112753 25.80658412527452
3874 6 -0.006506953155366741 -0.001043450468619466 0.009054795529264316 1.128408254443632 -0.08348736686363555 0.03242419908594869 26.15560087845582 26.15575421933367
3875 6 -0.006635465777750865 0.0006886307445636198 0.006445447549939655 1.128795061678729 0.01082513472643148 -0.3365911100685036 25.82425120028768 25.82644692586416
3876 6 -0.005513152669522738 -0.001765766688699953 0.03144261689272604 1.124976762776204 -1.958709330355858 -1.383338073613215 29.99490599086787 30.0906057078905
3877 6 -0.006775593922635023 6.55989231421502e-07 0.006174394737789936 1.128833443633844 0.008050111843653899 -0.3463635173580774 25.82112295835706 25.82344716185373
3878 6 -0.006851947539871332 -0.0003238155638544864 0.009038284970152769 1.128410634098987 -0.03220809336265843 -0.06307149136479794 26.14619020172418 26.1462861117796
3879 6 -0.003276188511039463 0.0003878943127225618 0.02287673508875267 1.126316058098369 -0.01802457676732135 -0.06104274731175528 27.15041019892008 27.15048480362718
3880 6 -0.006415872190015943 -0.0001460518728012592 0.03245916707682178 1.124826000368764 -4.601702839064863 7.092811410936971 20.45591065381706 22.13431551702292
3881 6 -0.006480776415373035 -0.001004626899573928 0.02299447741894977 1.126297252388768 -0.030937696187096 0.003316757019093733 27.16803746260412 27.16805528026221
3882 6 -0.003256336892676479 0.0003793300726341336 0.03117738686194739 1.125035818072549 -0.7180363591596152 0.4668069569636903 26.2418225637105 26.25579433979118
3883 6 -0.004447273791478475 0.001635356046526596 0.01521031204421142 1.127485065277497 -0.04628838934102886 0.05137148036419541 26.61828386182866 26.61837368046498
3884 6 -0.006741753663929322 0.0001270321699902137 0.03160427262100932 1.124935190629809 -2.960802953567364 3.403293055898942 32.62623869971024 32.93660895484921
3885 6 -0.00395518706441658 -0.001439317410412302 0.02604771266532945 1.125825496288308 -0.009053973365616896 -0.007212430441810609 27.23950606824316 27.23950852778813
3886 6 -0.006308377405057142 -0.001340542914407886 0.01588012949991023 1.127384122147561 0.02514402107279453 0.009854232936192002 26.64075496543878 26.64076865363035
3887 6 -0.005179964488002816 -0.00177104890875339 0.008387053420326867 1.128507901053147 0.04125471178563421 0.02169467694039518 26.23746501169225 26.23750641448282
3888 6 -0.006207132671645948 -0.001324111214654822 0.02218184506810874 1.126422451043769 0.008468988829138775 -0.05693994174292381 27.04721584776413 27.04727710872724
3889 6 -0.003276053536161504 0.0004024215465526797 0.02888229480111035 1.125386551504872 -0.156602096464774 0.1261507106533022 27.00153025131656 27.00227905439055
3890 6 -0.00558703197058027 0.00167261350693931 0.02299576086401822 1.126297251265771 -0.08356233525811597 0.008672442757824883 27.05369505805281 27.05382549971904
3891 6 -0.004973501225596771 0.001751785624388305 0.006116775017794318 1.128846783424821 -0.8142642176233743 -0.4553734912018549 26.11817095692624 26.13482820620439
3892 6 -0.00433394405965201 -0.001668211380697744 0.02282401342572168 1.126323736803204 -0.02796063637134744 -0.03623164312812857 27.09567858034127 27.09571723092627
3893 6 -0.003544558657840548 0.0004183850764315369 0.03257209895881903 1.124860458965874 0.4137082306950852 3.225699701757829 15.76732494424953 16.09921827181739
3894 6 -0.005178264977294549 0.001730828594677953 0.0100582854347531 1.12825981956564 0.1561823385477505 -0.02221367999360876 26.31118101365056 26.31165393325814
3895 6 -0.004985080620066066 -0.001814884621416918 0.006204694739365442 1.128832386617735 -0.1695950778712967 0.343258056395792 26.39339226462532 26.39616911254553
3896 6 -0.004260356085229903 0.001615019294370202 0.01116471148547096 1.128093750927076 -0.1062753257344209 0.04556262947720887 26.46602012203832 26.46627271638759
3897 6 -0.006196986139746705 -0.001312769566281456 0.0199603819315355 1.126763167478054 -0.007259745422093903 -0.02466293844150861 26.9223851635226 26.92239743888902
3898 6 -0.006236759786414942 -0.001306165361316168 0.006206029618360314 1.128829562269308 -0.3866439441875749 0.5510362657524109 26.04758416251761 26.05628091668475
3899 6 -0.006079383859144106 0.0007020988714905314 0.01648098954653157 1.127292548952018 0.006249808889559929 0.04929962938657755 26.68955565815506 26.68960192178455
3900 6 -0.005087420185967462 -0.001778955287722233 0.02876971685860011 1.125401231146547 -0.2793892137570007 -0.07134219852699236 27.40572262883792 27.40723957006348
3901 6 -0.006077624627424575 -0.000962653725848997 0.03245916707682178 1.124836405781403 -0.3357726826997347 -4.843711037985105 20.76126130788775 21.32145049025378
3902 6 -0.004687076433155475 2.280768001964984e-05 0.004585119132932919 1.129052316919954 -2.074609899337667 0.1094640984730058 24.13038147709564 24.21964695971939
3903 6 -0.005111464354485004 -0.001794049883624099 0.02286972673552171 1.126316592317847 -0.006919403580350144 -0.03264334558412123 27.09559004634212 27.09561059333395
3904 6 -0.004310562175823361 -0.001635989115044623 0.0287727636273073 1.125402028600724 -0.2705197709312562 -0.06970681422697622 27.40583335614129 27.40725710338415
3905 6 -0.005248803238082199 -0.0002098671809295024 0.004585119132932919 1.129047415320111 -1.236643483544131 0.4565569469395848 24.13984485784351 24.17581107454194
3906 6 -0.006620916503763385 -0.0006831347792554345 0.006627136574417757 1.128766666651887 -0.03498934056763631 -0.04069352535993686 25.6143646826985 25.61442090532659
3907 6 -0.00709499989643821 0.0007160276008934721 0.02415059458916203 1.126118670853397 -0.136920202350277 0.002935070904669077 27.18429285589841 27.18463782785605
3908 6 -0.004336542928256436 0.001629162817106151 0.009810536640557466 1.128296130970341 0.1312733007157202 -0.01569633014380862 26.31977609762417 26.32010814725748
3909 6 -0.004953696148843465 -0.001805888017433123 0.03198134363389461 1.124896339497677 -3.750311468704659 -1.042253721462085 28.29024927252017 28.55677385198698
3910 6 -0.005369156092958419 0.001132305626936401 0.01425210554438108 1.127629694691228 -0.03532776324483507 0.0152983415409561 26.57010739607211 26.5701352862366
3911 6 -0.006117504491650092 -0.001380809035965524 0.03158703360702746 1.12495055053685 -1.180337340454183 -1.798262995091747 29.82180355133731 29.89927947445125
3912 6 -0.006329669623784395 0.001178763540236007 0.01090707144732253 1.128132430288185 0.02107681265559928 -0.01937177214310999 26.63091365705331 26.6309290432575
3913 6 -0.004321127994619857 0.001636527054239684 0.01720295895412823 1.127183163774971 -0.02558099864748355 0.02352036296952983 26.7110865876507 26.71110919239295
3914 6 -0.004269010900103886 0.001576644968762141 0.006515231071324434 1.128789404522498 -0.3974493506186184 -0.5350942794811521 26.36427033067848 26.37269500721028
3915 6 -0.004240010750032251 0.001584115538799565 0.03151033824562441 1.124977008779045 -0.5565058354614918 0.7135457685822922 27.25834970628869 27.27336567090855
3916 6 -0.006236456927903295 0.001263815915878038 0.0228383877582749 1.126321336505761 -0.01891923151899177 0.04600286932395123 27.0560783117298 27.05612403526719
3917 6 -0.004578332470957649 0.001678260906427262 0.008408041860184061 1.128505806343359 0.06236920995492335 -0.1587435750494765 26.47819444187769 26.4787437455566
3918 6 -0.006533638057039715 0.0009053115531739433 0.01782341435087851 1.12708854855969 0.0096509159613193 0.1114311637181605 26.75571963511866 26.75595341671645
3919 6 -0.006763582390566111 0.0001789519687769571 0.02209715131608957 1.126435531753312 -0.02417334948835932 0.0362214633617376 27.04914457569601 27.04917962937395
3920 6 -0.004139332466637888 0.00146050048780276 0.007903979607875177 1.128581912583149 -0.1078506661395959 0.010688582376637 26.73482411392843 26.73504378927906
3921 6 -0.005649307096426416 0.001621552548846954 0.006394552112884253 1.128804054710231 0.001761236997392289 -0.3163296414553355 25.6576490999072 25.65959907866816
3922 6 -0.006255639199935334 0.001876175302902838 0.01915187685839741 1.126886253737456 0.03915503358916567 0.04532105096000956 26.69514389286548 26.695211079426
3923 6 -0.005236671213992699 -0.000204841932012595 0.03342738686194738 1.124717306987295 6.015663176776585 1.089203558490534 25.02305816235019 25.75903739747692
3924 6 -0.003946210421221 0.001425794206537143 0.01787225567860027 1.127081509559867 0.003924574685091128 0.00767531287817068 26.76667178783615 26.76667317599365
3925 6 -0.005643334967480088 -0.001690159942325381 0.006627565320627624 1.128768604741679 -0.01849232052435477 0.3068077006975659 26.2925264043765 26.29432291685718
3926 6 -0.003422901020592844 0.0008091224770088667 0.01787613554678347 1.127080980516705 -0.009052432376475223 0.02276246071272307 26.76661219470184 26.76662340411489
3927 6 -0.003423286810703346 0.0007993435474422395 0.01014856731531246 1.128245887163067 -0.06653572549204501 0.07102242936090715 26.17081444955426 26.17099539836491
3928 6 -0.00675709121187296 -0.0002494947434369099 0.02292252406317176 1.126308342410162 -0.02562994609099281 -0.01191692313438328 27.1682394914423 27.16825419440046
3929 6 -0.006368708360545173 -0.001233579003513817 0.008343652411085393 1.128513834783282 -0.07790153401701279 0.02053901308667804 26.12239006762886 26.12251429984135
3930 6 -0.004674944409065977 2.783292893655726e-05 0.03342738686194738 1.124733494171393 -13.66369091940267 -7.062271992443176 24.76454563600707 29.15227016535918
3931 6 -0.006767119499798999 0.000179389165465984 0.01993329729884885 1.126767282304068 -0.02244288785499693 0.01899563927522677 26.88201817882846 26.88203425867155
3932 6 -0.005096586977297781 0.001729993321583417 0.01141414921101589 1.128055859972484 -0.0590425484875494 0.0329728542574791 26.47064305219159 26.47072943513626
3933 6 -0.006496865602063579 0.0009383054194374329 0.02201588616764626 1.126447896859921 -0.02223260991102434 0.04117197772390708 27.04935192730719 27.04939239812995
3934 6 -0.004269395205224393 -0.001641891451672672 0.006546950154755015 1.128782089784895 -0.3916955176945734 0.2937722945606573 26.27588124276775 26.28044258804763
3935 6 -0.005143505059937369 0.001751312544933112 0.01743251720666218 1.127147973573297 -0.1142057079100913 0.03782060719437648 26.71060484330938 26.71087577069442
3936 6 -0.003756298756872218 -0.001348738058964406 0.006084508775761145 1.128853266575016 -0.9186998865048792 -0.1191891795420566 26.83379228626015 26.84977884460389
3937 6 -0.005383895206531567 0.001128990417952448 0.01632345820833777 1.127316439181587 -0.04940528686853374 0.02301611804835318 26.70527772370556 26.70533334231769
3938 6 -0.003935501779445095 0.001389784910494102 0.02193080968863576 1.126461201527897 -0.05103293311086012 0.02982351208639885 26.96845594583018 26.96852072146928
3939 6 -0.006302907371544223 0.001206552162143941 0.01312555091593621 1.127798973868805 0.00888392996073618 0.08184466609169447 26.40008773537053 26.40021609587393
3940 6 -0.004239519003615917 -0.001634665229846113 0.03164286971079917 1.124958765032768 -0.863474516942991 -0.6312880052171818 26.56874226705667 26.59026473054048
3941 6 -0.003937965536514702 0.001426059033427513 0.0138825640644038 1.127685583808913 -0.001231670979889415 0.0172777030380477 26.52909230087774 26.52909795572639
3942 6 -0.006523773452603016 0.0009141919620723831 0.02616908136788889 1.125805759039582 -0.09699442125714776 -0.009088328857304784 27.43713230486211 27.43730525452499
3943 6 -0.003362196250351082 -0.0007679529459448156 0.006194342292278498 1.128838696039043 -0.8356038614370613 0.0005674983878437812 26.86644234175642 26.87943374102634
3944 6 -0.003426053536161657 0.0008086234667846569 0.02813229480111035 1.125502100634477 -0.1008797622318465 -0.01180399503619013 27.26268209724146 27.26287129405075
3945 6 -0.00374560167492187 0.001291603607952443 0.03193929166603897 1.124919467006376 -2.80760424615443 2.185815735986999 25.0603162898538 25.31165511344971
3946 6 -0.003736708806314692 -0.001341732792583781 0.03198869223019295 1.124913680069658 -2.261983463019014 -1.732997468724546 25.32583868204236 25.48564212183814
3947 6 -0.005569591046558178 0.0016210339146955 0.01080366090798916 1.128147919788845 0.05156844374497947 0.001831189655847164 26.63033527547108 26.63038526836676
3948 6 -0.006508904166134576 0.0009365805602152077 0.02004460038643848 1.126750474983341 -0.05769265771259658 -0.08427971446581689 26.88344372301755 26.88363773602219
3949 6 -0.003422007644923968 0.0008088852773378868 0.02600571174052153 1.125832081232725 -0.003579337559442863 -0.008035988106690043 27.2526948224283 27.25269624226514
3950 6 -0.003407590685751101 0.0007909241080891434 0.02000328603280618 1.126756586337842 0.03058130323350624 -0.00635394790243173 26.90173137722653 26.90174950967345
3951 6 -0.004914233059345424 -0.002010258379715615 0.004801692560387203 1.129039335393903 -0.09570703096077747 4.801993175883076 27.32355589637314 27.74247654985457
3952 6 -0.006587378294762954 -0.001037688634060434 0.01513417654064973 1.12749678411975 -0.01790948454691296 0.04488089772332855 26.55399168740939 26.5540356552375
3953 6 -0.00677080348933954 0.0001583447899894426 0.0262024219708909 1.125800515745942 -0.07836834862589748 0.04809658022792557 27.43761116456229 27.43776523875094
3954 6 -0.006319951398027854 0.001429839513374321 0.03323001218229391 1.124635160233074 -21.70513746835886 14.07860873716662 44.00753795072752 51.04883556927918
3955 6 -0.006730768079020963 -0.0006202048476432594 0.007888292212286275 1.1285813845999 -0.03127024804694565 -0.06248442362360153 26.20532565963241 26.20541881098254
3956 6 -0.003351483578215867 -0.0007645559923225958 0.0318220989588187 1.124942310599516 -0.5344039348072914 0.6703493643185269 24.63142661026863 24.64634116238817
3957 6 -0.006291711215027277 0.001224861552007385 0.0170790346215451 1.127201515515907 0.007200990554777346 0.1085701229225935 26.76490819501861 26.76512936665225
3958 6 -0.005805051470124393 0.001655224061851103 0.008979370150186353 1.128420293120888 -0.0641625712367493 -0.009594458646052208 25.954199064668 25.95428014755172
3959 6 -0.005594912670862631 0.001649989514455883 0.01297783933772074 1.127821043059388 -0.04704192396002156 0.04442021656729901 26.4021233600123 26.40220263568093
3960 6 -0.005059892209432239 0.00195174591955054 0.004741167007307681 1.129044934057159 -0.885781320782544 -4.225859241903049 26.61328163073724 26.96125468218349
3961 6 -0.00554541484259184 0.001689102356118051 0.02085806538803126 1.126625721999146 0.06302037635113432 -0.05239023294182883 27.13078127878336 27.13090505496499
3962 6 -0.00590160852831084 0.001596592612379597 0.00768778039790749 1.128612931773334 -0.2804088081745233 -0.1324882156714667 26.41243944098828 26.41426015338811
3963 6 -0.006883087878887908 -0.0003090986865931222 0.01513288155453522 1.127496789509747 -0.01228195308481758 0.03447527329542624 26.55422042537342 26.55424564528542
3964 6 -0.006904978355281853 0.0001293488120988989 0.01586389056160132 1.127386194003917 -0.01670487797544932 0.08834248427208656 26.64128098623324 26.64143269486287
3965 6 -0.005622392537713308 0.001665806367562942 0.02882508637815558 1.12539010263705 -0.5466618096163499 0.02441315522394717 28.15932132897012 28.1646376302702
3966 6 -0.00653522326232138 0.00101728304939542 0.007729924553315771 1.128605570824719 -0.1248331630958126 -0.04298569577938047 26.38007892527582 26.38040930676458
3967 6 -0.005273300694584046 0.001746266409359318 0.01544541825271733 1.127449295105829 -0.03553639900858584 0.04722770005232846 26.6176731579884 26.61773877767988
3968 6 -0.005069703048673893 0.001954511940731319 0.03325873096641839 1.124703631268186 -3.0990033968476 5.616566688238101 25.8857768819784 26.66876615444867
3969 6 -0.00398442457101574 0.001430061783115075 0.02791480365204368 1.125535522764579 -0.1107062820199255 -8.190177199692952e-05 27.26363839478507 27.26386316003631
3970 6 -0.003979806362855281 0.001430261964773395 0.0258634047797008 1.125854081202891 -0.02406612196555129 0.01611348261551653 27.25292544215814 27.25294083174106
3971 6 -0.005159074651453571 0.001759033927129361 0.02225766200802631 1.126410730948695 -0.006437602355373003 0.02966318909107428 26.98065061557372 26.9806676897954
3972 6 -0.003891638105452188 0.001404394109910482 0.01030647438824859 1.128222122148137 -0.03158678469091355 0.02919934937313665 26.16942459606413 26.16945994888044
3973 6 -0.003351483578214688 0.0007108122971256659 0.03182209895881903 1.124942275639892 -0.4207546758956904 -0.6879604301306127 24.1850956616608 24.19853665440118
3974 6 -0.006323045365708808 0.001418993284531384 0.004711839174586896 1.129045086648649 2.554253232026067 -2.707084373508399 26.39224146743583 26.65338487048218
3975 6 -0.004366244236591252 0.001627082683857822 0.02254911380323095 1.12636620457453 -0.05926235956295433 0.03616432064186259 26.97614402694143 26.97623336286288
3976 6 -0.005719507564360154 0.001649738088192978 0.0148566404060821 1.127538230700077 -0.04240398825906125 0.04575914286876673 26.61292440325814 26.61299752547445
3977 6 -0.005596222562414737 0.001651753098469302 0.0169215032833513 1.127225405745476 -0.07029819582212425 0.05676949478395796 26.76648360808722 26.76663612323886
3978 6 -0.005209857102481558 0.001766693328162959 0.02821063116056425 1.125487937492736 -0.154059583489404 0.1275621748769425 27.4784770364416 27.47920498678906
3979 6 -0.004905355780923112 -0.00200665006695721 0.0332550671944697 1.124691756620088 -4.218315158642707 -8.447632367310135 31.18213087586619 32.58039228355774
3980 6 -0.005424932437376867 -0.001548373428107513 0.004411526076904555 1.129087193082827 0.01300039876493948 4.776505279458638 27.39086680569354 27.80422191075141
3981 6 -0.006447319994410059 0.001183128346130407 0.008996790570527038 1.128417428197831 -0.08002045065846215 -0.01872771820283609 25.95466151476083 25.95479162593604
3982 6 -0.005424932437376868 -0.001548373428107513 0.03358847392309545 1.124658035143169 2.77826505336833 -10.10082864353637 26.92373750945447 28.89001795553021
3983 6 -0.005201143292464468 0.001770695253659945 0.02618345437411019 1.125803996980335 -0.03331824642535822 0.03592661758706219 27.32821552033158 27.32825944609513
3984 6 -0.00636874735978126 0.0007301973579313171 0.03358847392309545 1.124607354042009 -18.20376254321809 18.83649859915482 40.5094512288858 48.24112653194688
3985 6 -0.004391306715817249 0.001645136739809302 0.02843577265861909 1.125453851482132 -0.279185806632442 0.1420235172445942 27.47803105210035 27.47981633661816
3986 6 -0.00542897980702914 0.001773363318957692 0.008274442494288646 1.128525662735455 -0.2209000127536435 -0.09789958388423235 26.4945013042197 26.49560304094736
3987 6 -0.004548476963565209 0.001484178043230243 0.004389623060837794 1.12909306615714 -2.700638521413516 -3.949742951842633 27.76221324147135 28.17151756426871
3988 6 -0.004391290651710513 0.001649167404994999 0.02640064748607259 1.125770536508405 -0.08423459804311891 0.0414263903974297 27.327333912678 27.32749513563821
3989 6 -0.002938310682824448 -0.0002178496118172777 0.004855441667051451 1.129041755083822 -6.420894245655744 0.9540968673163021 28.36334190177363 29.09668963272327
3990 6 -0.00430575225891569 0.001635592700202455 0.01323846890088195 1.127782328680032 -0.06297767461553933 0.05183594227658624 26.41159322410086 26.41171917516507
3991 6 -0.005127663179405055 0.001750718715658068 0.01347842520111079 1.127746072567209 -0.03910751020242987 0.04752302433465488 26.41044973641038 26.41052144723113
3992 6 -0.004556772205500575 0.001487544646237467 0.03361719270721994 1.124692012261219 -11.51060616001027 6.89713453527065 20.66432096062766 24.63896669368107
3993 6 -0.006704863065325346 0.0007219580402528196 0.00833400707003761 1.128515436863782 -0.005592313442736688 0.0249096316085734 26.16297770477651 26.16299016061332
3994 6 -0.00521824234189908 0.001775879369060444 0.02025212129848534 1.126718472181266 0.1696955394403502 0.05521051097112328 26.8773744436319 26.87796684572374
3995 6 -0.006429472656787508 0.00121642084012678 0.01510261856441591 1.127501039220003 -0.02097793678754341 0.05463623080938554 26.61231888154128 26.61238323496014
3996 6 -0.004036956196156079 0.00175814114559881 0.004389623060837794 1.129111097686315 -4.799283430007088 -5.107119914973561 28.90960624939703 29.74695158772805
3997 6 -0.003652322352178956 -0.000886839908935343 0.004355441667051449 1.129106136204951 -5.830019004703467 2.179578638215621 29.4882692382521 30.13797782371961
3998 6 -0.006678754439623938 0.0008860576148312022 0.01584892774924494 1.127388213396185 -0.03536861970860632 0.0420173268581692 26.6422251644614 26.64228177369343
3999 6 -0.005960920768022362 -0.00176326660747263 0.004411526076904555 1.129094295009832 0.6548966665886019 5.131413449317591 27.72307993533762 28.20158603222282
4000 6 -0.006909679753691233 -1.22777905796034e-05 0.008346737820191014 1.128513443599573 -0.02356729875585394 -0.07741359084147907 26.18840647744073 26.18853149967132
4001 6 -0.003703349779074236 -0.001581399721492598 0.004745608150534098 1.129053376916183 -4.474581385639432 4.373382621317564 28.47114030638899 29.15054346792253
4002 6 -0.006373356924768503 0.0007187505472619352 0.004360295228117009 1.129088317148787 2.738729592688861 -2.4565860254814 26.61393730171351 26.86702650800788
4003 6 -0.006537677638507978 -0.001379049730526625 0.004807873420682565 1.129029539779661 3.000729375826519 3.953688487036909 26.17801252895557 26.64440596833848
4004 6 -0.007059535297339461 -0.000119180025203595 0.0330317802148744 1.124663254296701 -46.86758948610359 -0.2516183947657908 44.63121104146365 64.71923404276491
4005 6 -0.006538229472989688 -0.001377723616492927 0.0330317802148744 1.124689437467058 -30.48833006731294 -26.11053189822173 41.47827584104861 57.72127435398139
4006 6 -0.003507102881694289 0.00146462337009034 0.004744910963966151 1.129056643098358 -3.833488792533656 -5.577689785287743 29.5744190057783 30.33896041713896
4007 6 -0.003652233434519113 -0.0008866978220727947 0.03364471209687132 1.124708935324321 -9.1169493257489 -9.568338052036438 18.90089415788146 23.06329677330974
4008 6 -0.002938221765164605 -0.0002177075249547294 0.03314471209687132 1.124788907764033 7.515467299649565 -2.784643474335018 22.00681648717685 23.42085523441741
4009 6 -0.002938221765164064 0.0004452569240291951 0.004855287903128358 1.129040181752128 -6.808275537345221 -0.2140370755980494 28.36330237812234 29.16976773056214
4010 6 -0.003121368944582856 -0.0006597913500588706 0.004355441667051449 1.129121246012053 -6.034465486654766 2.120760541415506 29.55742353865285 30.24158866903262
4011 6 -0.006924168330613722 0.0005622187220582969 0.03358847392309545 1.124524379770586 -42.72997902348542 11.74417126302833 52.07524985159534 68.37841993720625
4012 6 -0.006928777895600965 0.0005507719113889149 0.004360295228117009 1.129097481069609 4.370476279556215 -1.984873082198467 27.52907792950977 27.9444254854456
4013 6 -0.005960920768022362 -0.00176326660747263 0.03358847392309545 1.124593993370267 -28.2272921885069 -27.24186946781082 42.9607152475458 58.17664936189863
4014 6 -0.007063593027844994 -0.0001319529499066748 0.004756642571895019 1.12903608326612 4.967938840906111 -0.2494858685162061 26.35949348588626 26.82471912915498
4015 6 -0.004045251438091445 0.001761507748606034 0.03361719270721994 1.124659098549923 17.16619750234048 22.71111602689579 36.13299552277543 46.000722747859
4016 6 -0.003694383582992082 -0.001577649321871644 0.03331130536824557 1.124726469617142 -3.497062055935724 -0.4701019026878681 23.12049616690189 23.38819748988155
4017 6 -0.002938221765164065 0.0004452569240291966 0.03314471209687164 1.12478937025061 9.46691674125951 3.099726995384632 22.00682553564059 24.15639025574762
4018 6 -0.003515398123629655 0.001467989973097566 0.03326190480409158 1.124724964820422 14.27311500790994 24.12362596652342 38.24261436627221 47.41485732730995
4019 6 -0.006924052327761503 -0.0008002989086733695 0.03344330629177895 1.124561407505586 -52.04232309528402 -15.28751590239151 50.65106426666874 74.21348830883785
4020 6 -0.004233114175875648 -0.001874775410137656 0.004390166483482649 1.129107912883861 -3.685907843966284 5.650744151939864 29.35371492179126 30.11905386652585
4021 6 -0.0057425266902083 0.001815662368146136 0.03364153825919846 1.124587121811242 -25.42881896783975 9.015627314744101 39.85371442802299 48.12717448269672
4022 6 -0.005741011092902011 0.001816262949972581 0.004351543946469886 1.129101985101172 1.202930357908789 -4.544074633398794 27.93868914856848 28.33136084024584
4023 6 -0.003121280026923013 -0.0006596492631963223 0.03364471209687132 1.1247207731505 6.78362561594363 -4.989890085250547 24.25899378044556 25.67908407244824
4024 6 -0.003121280026922471 0.0008871986622707867 0.004355287903128357 1.129121373175691 -7.925892940194972 -3.582628406572843 31.20904149851053 32.39844558701493
4025 6 -0.006923500493279793 -0.0008016250227070674 0.004396347343778011 1.129090950156598 5.912621028455372 2.492459379506605 27.91157144951763 28.63961001770365
4026 6 -0.004224236897453337 -0.00187116709737925 0.03366659327137425 1.124649898244107 -7.888537762391691 -7.579908892985916 28.6657777304941 30.6824193920352
4027 6 -0.003121280026922472 0.0008871986622707882 0.03364471209687164 1.124685124611714 16.1366268955898 23.21386196543338 38.98506897515969 48.15713569052488
4028 6 -0.005235794954767642 0.001761778644414175 0.01882964053463437 1.126935218720495 -0.1230297169562753 0.05149990097104436 26.84853442974752 26.84886570372001
4029 6 -0.005243808134671527 0.001134469336637731 0.01835509996394036 1.127007659901226 -0.1142083819755924 0.01798437489633413 26.81128434769827 26.81153362576233
4030 6 -0.004506710180235447 -0.0009977540295775644 0.009549129528307635 1.128335411244089 -0.1384926516356402 -0.00054505732746294 26.23140714662367 26.23177274611047
4031 6 -0.004336400990573483 -0.001595569193671654 0.009063584103705745 1.128407639390992 -0.1741825193470095 -0.07742035299401009 26.13617903153579 26.13687410211089
4032 6 -0.004417821793088181 0.00164848362586737 0.0199099647479387 1.126770561837234 -0.02452501631059587 0.06743959640441535 26.91699090679891 26.91708656322752
4033 6 -0.003934533916537732 0.001408184077641224 0.02030736063268926 1.126709953682147 -0.03461342499869938 0.07351694871595069 26.90636257442623 26.90648527432417
4034 7 -0.00272508586074531 0.008037695418603576 0.003484917943321196 1.129414252033674 -4.740083179465994 -2.900457466368485 -1.239722223967808 5.693676602606512
4035 7 -0.00512592315996989 0.009507127659329243 0.002496207653318465 1.129384630346028 -2.543564779939824 -1.982526665946017 -0.2244826598003625 3.232727367949299
4036 7 -0.004124857290496367 0.0046092299814836 0.001492836561657155 1.129318160546939 -2.09655458570849 -4.393938073103065 0.6489329062814493 4.91155238575085
4037 7 -0.003619933916601713 -0.0103984999065622 0.002990698658345314 1.129416459669117 -3.032813992673055 1.432674657926836 -0.3581428423375324 3.373245274974362
4038 7 0.0009805089471604804 -0.009123052630958833 0.002168033156667885 1.129461757995778 0.1965306173361817 1.138803899908935 -1.571806771854914 1.950916485667007
4039 7 0.006347018257046353 0.005942918574292846 0.002474283220561127 1.129439985327255 -0.1101951743808526 -0.9036042147034767 -0.05127394901271305 0.9117415045582117
4040 7 -0.01061706161697337 0.002033860209846353 0.002492566308135963 1.129266439100002 0.5677043289555045 -0.4969558650705605 0.1019643765608942 0.761347536300145
4041 7 0.006692266172102999 0.005391039171282331 0.002982891823462889 1.129438054263808 -0.2227645940484814 -0.7059086057053977 -0.1673312018509363 0.7589010179749414
4042 7 -0.005862017716136124 0.008954073134970167 0.002506859786058171 1.129368719744892 -2.280571075250973 -1.780849844899839 -0.1942672416661667 2.900029372357415
4043 7 -0.004268390581737557 -0.009907940997715227 0.002504850669819376 1.129400686264057 -2.940999971069969 1.362814405680084 -0.3369603726205618 3.258878062597511
4044 7 -0.003268378543150364 0.004178075259851066 0.001465762248507492 1.129322714130302 -4.062884471691512 -4.118084114390102 0.7101332361106277 5.828373376554825
4045 7 -0.0041646599424788 0.00449492306217467 0.002492836561657155 1.129310864778877 -2.097771288394512 -4.394734578115815 0.75270100963581 4.927564834723733
4046 7 -0.0002712526750480641 0.00979004628349809 0.003503163597645245 1.129526102204584 -5.6990821018569 5.112860965548736 -6.584952502464454 10.09863770597057
4047 7 -0.005126997758123079 0.009518139654232453 0.001496207653318466 1.129384130168636 -2.536162594742074 -1.981135459483149 0.006886946368932486 3.218239556934916
4048 7 -0.003308181195132797 0.004063768340542136 0.002465762248507492 1.12931541836224 -4.070003555145536 -4.11597014300058 0.5975281274839429 5.819207765676011
4049 7 -0.01020288933680947 0.001569403690060147 0.00299988260744966 1.129262640089088 0.9473186875013343 -0.7913141373468942 0.6130227136839039 1.378182719071273
4050 7 -0.006022741954379844 -0.00790632729471589 0.003076135308689473 1.129353737015189 -2.022459115121245 2.452061978265359 -0.1747369602699582 3.183313026215929
4051 7 -0.00242714920474823 -0.01047885814081896 0.002577553932684781 1.129435256485556 -3.669486673874152 1.104740456540393 -0.7789129888279134 3.910535688396399
4052 7 0.00116967404704136 0.007377846433668228 0.00350984695714963 1.129473006245542 1.118074705111 -8.654601135833394 -2.572727057513429 9.097864385614869
4053 7 -0.00159363939396824 -0.007644869235228215 0.003523877556210437 1.12944664554589 -7.937310514373049 5.093750710264447 -1.627350407768051 9.570551909349813
4054 7 -0.002247815825066403 0.00850140442930798 0.002971695103880042 1.129427700691018 -3.784483680442525 -1.97219208927559 -1.436138058062577 4.502704841131913
4055 7 -0.01034511073828424 0.00317651587262296 0.002499669127452817 1.129273745710614 0.2575995290636577 -2.038152649923844 0.1670420770057915 2.061146961586149
4056 7 -0.005863092314289313 0.008965085129873379 0.001506859786058171 1.1293682195675 -2.2796147947668 -1.783386062498222 -0.01827265026930774 2.894381341527142
4057 7 0.007221361354352125 0.005862995557997382 0.003509392708264721 1.129440778826383 -0.08945223166925495 -0.6201059693648471 0.01868031031829435 0.6268030543847999
4058 7 -0.004608366303528648 0.008951325331537216 0.002985446217131314 1.129387011191501 -2.791838879142033 -1.914072538930286 -0.4730649589413585 3.417868994966639
4059 7 -0.0009133248915411146 -0.007121119706145584 0.003523877556210437 1.129448165412438 -3.281125186520925 8.273612791681833 -1.670466590290933 9.055877083175403
4060 7 -0.002407227996840805 0.001293550863467778 0.002458747039403487 1.129273938684957 -4.308620214744814 -1.263928681010085 6.866020478057117 8.20389913825659
4061 7 -0.005127898311947349 0.008504922465241815 0.003496703183449469 1.129374806751286 -2.976058346301544 -2.174883191720687 -0.3926013603120489 3.706909225532656
4062 7 -0.00782979359145965 0.004312277471058799 0.002515958514675534 1.129282173695816 -0.02585052948220982 -3.415254280324447 0.4347469852414479 3.44291083101574
4063 7 -0.003239589947104754 0.003482282564218051 0.0009625905740926785 1.129309233156446 -4.072645559242345 -4.091572170863148 0.7458276976288406 5.8209675858184
4064 7 -0.008154321884612846 0.003446982295368913 0.00252808262617852 1.129269755237491 0.8178507802021815 -1.900962162823581 0.5591043121129413 2.143626524137895
4065 7 -0.006297456019971103 -0.007376097268908015 0.003561983297215411 1.129343399737069 -2.057305278212952 2.584520959447041 -0.02965157000096743 3.303503112332036
4066 7 0.006876113439295479 0.006414874961007897 0.003000784105362959 1.129442709889831 -0.07515742760417775 -0.687625235378685 0.0269793562471434 0.6922463354306612
4067 7 -0.003140616083096164 0.0005361374025626463 0.001461361444167694 1.129273355079288 -4.185439417844126 -1.141147356237138 1.140961480836086 4.485745591297177
4068 7 -0.00564875644153562 0.008270992956286935 0.00299609834987102 1.129364395740717 -2.258576081616545 -2.139151383335267 0.1272119952230808 3.113409296736323
4069 7 -0.007148241157242056 -0.008337476715889068 0.002508053775127873 1.129347725992099 -1.977331759066218 1.98333092575517 -0.04555063345381455 2.800985060059551
4070 7 -0.005319465006176223 0.006894067706140971 0.00249125265367617 1.129346964506841 -2.192713406290958 -3.297328253955238 0.02762915175067137 3.959940538251308
4071 7 0.0009907736756431713 -0.008878599327015797 0.001677067658897123 1.12945765133154 -0.01094010825773162 0.75946925380585 -0.7736850887069714 1.084205630834216
4072 7 0.0007767309283781207 -0.008428719041470776 0.001166936530402236 1.129453022490185 -0.04936640203955253 1.02124956263731 -0.92890495094633 1.381394990120433
4073 7 -0.004096068694450757 0.003913437285850586 0.0009896648872423411 1.129304679573083 -0.7365127669263901 -3.597948571811836 1.998916868729957 4.181310037457349
4074 7 0.007159655231939874 0.001654966475972941 0.002454085866850191 1.129429751394704 -0.5926158487242363 -0.3125941752992868 0.1167357546450564 0.6800999183963625
4075 7 0.003021643925059742 0.006736187923079799 0.002484483319020966 1.129440838262966 0.2011935239275029 -1.708835540454691 -0.494733272438717 1.790351571409751
4076 7 -0.002359896653616473 0.001155292038164753 0.001458747039403488 1.129297027071743 -4.495427497524102 -1.386939611066629 1.140985587484959 4.840900534104152
4077 7 -0.00718569229724635 0.00406585080002944 0.003006658418951685 1.129275770196738 0.2085288679863914 -3.296305173593108 0.6547788696489076 3.367172026252754
4078 7 0.007064089596644829 0.004839745411192108 0.00248178044072624 1.12943660177113 -0.3984213129919393 -0.4190788784736404 -0.06813218797576935 0.5822444882240713
4079 7 -0.003377113365036994 0.003390741675583547 0.002962590574092678 1.129293191724541 -3.272688035997352 -5.689797934699428 2.346844615496558 6.970793869277391
4080 7 -0.00328682903334742 -0.01089142125292573 0.002498000263070507 1.129423126891934 -2.404897957487304 0.9591277949786406 -0.786538348717443 2.705938448492566
4081 7 -0.01111092833928077 0.00175190191917421 0.002994880977093298 1.129266080698247 -0.2047734043460226 -1.003204086958696 0.5692045045483092 1.171471021927634
4082 7 -0.003244319019595247 0.007974067189697535 0.002981621126770665 1.129400542884297 -3.295974850597386 -3.210711626507134 -0.1636641257239223 4.604226896060568
4083 7 0.005866757370042415 0.009135484273750541 0.002461082376743345 1.129452932382273 0.2788920684493563 -0.4487168074749835 -0.1738227313605786 0.5561851320308318
4084 7 0.005038968648614329 -0.009756707712250215 0.002584311588419139 1.129454949744173 0.2711252481644212 0.4725186109547675 -0.359350757536794 0.6526221761732509
4085 7 0.000728867020070494 -0.009567615545685901 0.001480573822408441 1.129460641006224 0.1727278982644523 1.145117480055431 -0.9014362460324948 1.467554522199606
4086 7 -0.006528102051716134 -0.007471241336288045 0.002577392118831847 1.129343203317537 -1.460762543532878 2.499508128613377 0.3378740892850344 2.914708732241213
4087 7 -0.0009036993031144407 0.008978353088032423 0.00317150147797149 1.129499680928633 -10.79970043901168 -5.479078555795633 -4.391567157842564 12.88175816784378
4088 7 -0.003164849626805851 -0.009756931868991743 0.003498222009680793 1.129420813790994 -3.122594182173819 1.112603331064357 -0.7072410590286841 3.38949413842498
4089 7 -0.004576225368665299 0.003691516295109366 0.002989664887242342 1.129278438208565 -2.381482663531263 -4.561948046705805 1.737110257442498 5.431425384192884
4090 7 -0.002615807697151566 0.008957358653830173 0.002460438137561886 1.129422003791127 -3.379627238602803 -2.055522867181404 -1.137387714723691 4.115908811309605
4091 7 -0.005463401285387075 0.006122350154539933 0.00349515430380515 1.129330378674092 -1.821865844959255 -3.724751766072042 0.3837868807054519 4.164164171317879
4092 7 0.007316174854987333 0.001949979804491956 0.001454085866850191 1.129431149040047 -0.5937692619824972 -0.3095907442447727 0.004523547738610982 0.6696482867008734
4093 7 0.003888321900293934 0.006604273059534677 0.002466027758969575 1.129440065784928 -0.2992451111687511 -1.487662059326083 -0.342779486170203 1.555693998013693
4094 7 -0.002243665437301275 0.008997928014445048 0.003486777160558845 1.1294397522928 -4.811197099406791 -2.969497251284298 -2.479519027922208 6.173616935359175
4095 7 -0.007823725602812213 0.004170374744659295 0.001515958514675534 1.12928353668305 -0.01607652616214313 -3.383288866560797 0.9896476564205086 3.525096380688944
4096 7 -0.004315295499381699 -0.009264258046105025 0.003514152011474062 1.12939702447134 -3.515153668219384 1.520279184365767 0.1040557058065146 3.831237619819858
4097 7 -0.0007836070210205921 -0.008005886971027616 0.003479477196142793 1.129475750716273 -4.464113141890945 5.620212957653239 -4.769175254409203 8.617431893565849
4098 7 0.002371622381657105 0.008150435256651777 0.00350984695714963 1.129468117177199 3.262043099869887 -0.7740245538443287 -2.895386579489409 4.429819707397811
4099 7 -0.003300776158902105 0.008527412436052878 0.00247036416045251 1.129404821002113 -3.068615225894482 -1.843600066953372 -1.129016103033724 3.75365661353984
4100 7 -0.008148253895965409 0.00330507956896941 0.00152808262617852 1.129271118224725 0.8204238560090216 -1.898619806437569 0.4723384798164273 2.121545689449331
4101 7 -0.003347964244187945 0.0003462291891617447 0.002461361444167694 1.12923640509368 -4.386683132589457 -1.337238089859764 9.45065917153876 10.50457773503087
4102 7 -0.007128480664757898 -0.00826778259477865 0.001508053775127873 1.129347271004937 -1.980918182774535 1.982477193318925 0.0825796847376343 2.803760345180703
4103 7 -0.003813306291941695 -0.009266372960144773 0.003012374021154854 1.129405040385935 -2.923223095648174 0.9056075507133554 -0.7079789653820537 3.141113260973468
4104 7 0.005288585761637783 -0.009211331893785072 0.003076956543475807 1.12945354215391 0.3836809567242321 0.7373100401615309 -0.006171236594190044 0.831189061547926
4105 7 0.008422021440796035 0.002865820133709642 0.002465157123935096 1.129435037639151 -0.3069531804708094 -0.2176834447794495 0.1420668867796352 0.4022304531626746
4106 7 -0.000594162974193549 0.009616178464996093 0.00298994075820409 1.129504434566465 -5.164990724398208 6.221588050716953 -5.718362133214944 9.903784758491577
4107 7 -0.004533523296369928 0.004274974828984691 0.00349515430380515 1.129291329282224 -3.087361303234274 -5.681973482325255 1.421671602597216 6.621009939290769
4108 7 -0.002043154407330471 0.0007019349807927705 0.002964236455966296 1.129256855544595 -3.296516476768756 -1.665113839901177 8.090557946932538 8.893635526268859
4109 7 0.001060154240278744 -0.009831472215100702 0.003490965497770762 1.129504855398884 5.23292842971354 -2.422345683766237 -5.61846738606209 8.050992133296896
4110 7 -0.004233592112382997 0.003821896397216081 0.002989664887242342 1.129288638141178 -4.383937306390178 -5.736637339834235 2.494801547479587 7.638844744884302
4111 7 0.0005903315950290477 -0.009607929806874436 0.003490965497770762 1.129527267692567 8.282277047319784 -3.890832643331783 -5.944477552566124 10.91198905424391
4112 7 0.004123923597932793 -0.01006709163089918 0.002583800456280979 1.129458638978098 0.780019146899783 0.5279967746530357 -0.3135345062140175 0.9927307541126857
4113 7 0.006558100398770638 0.005590664036571647 0.001474283220561127 1.12943866491921 -0.1169172279231888 -0.9104164607190607 0.1827493427791186 0.9359086987626858
4114 7 0.004762441628239365 -0.009871949830683114 0.001073669327786093 1.129454398758948 0.3215431962526439 0.4586600811628786 -0.06053793311052501 0.5634038857285234
4115 7 -0.004486428430173187 0.003603860607489853 0.0009896648872423411 1.12929350669403 -2.334767527860489 -4.533976461768198 1.10867195422866 5.218930490734001
4116 7 -0.00585926054791776 0.00662343806220695 0.002994549470226701 1.129335697664514 -1.964995162114316 -3.197450885146907 -0.1512987037131953 3.756033738906601
4117 7 -0.0007928039833271158 0.008711967265503367 0.003684724317412645 1.129516209415811 -9.160320208718984 -2.074622447269697 -8.696490162874943 12.80017444326293
4118 7 -0.007483568538455101 -0.004826932683484893 0.002489100706455436 1.129295939931764 -0.5683502677341629 2.544234573644178 0.3546441362022122 2.630954970329686
4119 7 0.001838368674267205 -0.005556686001526091 0.003500184171939087 1.129424010042845 -1.13573041490093 2.489084530917061 -0.4286694816261025 2.76932896237685
4120 7 0.007633104176259155 0.002267013265485336 0.002973785488389346 1.129431907244376 -0.5274875070429592 -0.2923810031134685 0.1696970627862392 0.6265196039920147
4121 7 -0.009611553948137683 0.003136534055409901 0.003006985426766513 1.129270734687656 0.6994218505954372 -1.933145378434782 0.6406145144659996 2.15328329195176
4122 7 0.005919449975457946 0.009021620704853153 0.001461082376743346 1.12945194727677 0.2792174440970304 -0.4501282080612857 -0.0386097888602593 0.5311012150017888
4123 7 -0.002519586451693217 -0.01024799169921144 0.001577553932684781 1.129429601279011 -3.842778143445056 1.132499359720492 0.01100417883531004 4.006197667546896
4124 7 -0.004403923705895383 0.004301626060674107 0.00049515430380515 1.129313693535752 -2.040842745085906 -3.790963254749883 0.7658175570167918 4.372975879154694
4125 7 -0.001983813585930762 0.001238810857508635 0.003472879509169025 1.129255130421468 -9.548580688022879 -4.254803171274212 1.044822828928734 10.50573167017982
4126 7 -0.006802816117307391 -0.006941011310480167 0.003063240107357785 1.129332866039417 -1.422831859591886 2.33007750372576 0.1470011801026956 2.734103330342539
4127 7 0.000278939756913497 0.007799824795679339 0.003486741492695512 1.129488758167137 1.281569202363402 -8.709579899224924 -6.235624570071788 10.78805892736558
4128 7 -0.008699333449542955 0.006715465939404253 0.002990746270084598 1.129315147863024 -1.112605634963255 -2.033421849375077 -0.1472993291727074 2.322583218927295
4129 7 0.004038227374322268 -0.009995179137711042 0.001583800456280979 1.129457476664085 0.7716413337938999 0.5170654846129059 -0.1619786588771233 0.942880771534153
4130 7 0.007051238385921395 0.004835412725113094 0.00148178044072624 1.129436391105418 -0.4021521181459089 -0.418797893620152 0.0091802921959657 0.58069120847032
4131 7 0.006259469623365082 0.002085199176357001 0.002476016223574797 1.129426842693306 -0.82252130960671 -0.2182019136476533 0.1202376639134055 0.8594245026178787
4132 7 2.787524885489029e-05 -0.006974894142004757 0.003484699105247369 1.129454996123885 0.0149296423528703 8.508532753855746 -0.5258119206728494 8.524777457129218
4133 7 -0.001400301945077693 -0.009270608674931119 0.003572030318278796 1.129483148389985 -10.8510859273048 4.634832697062026 -6.96564690086859 13.70211577381712
4134 7 -0.001617193612550793 -0.005680333977527072 0.003523877556210437 1.129383934238486 -3.404960916252669 4.389214134374519 -0.8199253423587872 5.615268214933588
4135 7 -0.001143584355003013 -0.007744801401570417 0.00300335475235323 1.129452295797667 0.5412421148044075 6.378552902966836 -3.101455260592105 7.113220430735929
4136 7 -0.006508341559231976 -0.007401547215177626 0.001577392118831847 1.129342748330375 -1.397331387758384 2.550045313692155 -0.2301210166538985 2.916885632211848
4137 7 0.004237953870067611 0.007125695387391008 0.002977741826050862 1.129445880397498 -0.2388644578677303 -1.420062513312476 -0.2553393823128329 1.462474605286426
4138 7 -0.00249906489130773 0.002226197140706945 0.002435470083261703 1.129281145234748 -4.56579812754461 -2.249275181886924 6.666393406115448 8.38728516448808
4139 7 0.002095046934100704 -0.00836084584326223 0.001690977890164327 1.129454149717011 0.5294903320616025 1.098250759594051 -0.8539304622026564 1.488526780737673
4140 7 0.0052870974626036 -0.009477747992429968 0.001584311588419139 1.129452640355945 0.3018108035800205 0.4569564381151229 -0.06912787447153595 0.5519760959692279
4141 7 0.008669642215988793 0.002587283704410224 0.001465157123935096 1.129435603508305 -0.3086867098489885 -0.2146430197906884 0.02220114399462518 0.3766324489166189
4142 7 0.00641598924641254 0.002380212504876016 0.001476016223574797 1.129428240338649 -0.8242453530315942 -0.2144300156267613 -0.01565686414543415 0.8518249649961774
4143 7 0.0002873626770059925 -0.009228018800128936 0.002970442693913554 1.129509619563847 8.282147645301208 4.004053486957182 -11.58372237219722 14.79219516978886
4144 7 -0.004035217017423065 0.0008377786872405165 0.001440788097670912 1.129255563830463 -3.479093174749406 -1.134221624944816 1.463055492474967 3.940949046504094
4145 7 0.005835568842092971 -0.009881624984192393 0.002999722008576424 1.129454047236803 0.6143576288513145 0.4200415062624288 -0.1014510185534443 0.7511074971510741
4146 7 0.0002082938031676981 -0.009912594779431256 0.003490965497770762 1.129528209584199 2.481910456223969 -8.516479397469796 -3.586018515846765 9.568167517149623
4147 7 0.001481979615951943 0.008129341367800632 0.00350984695714963 1.129493132566745 4.997281399739808 -4.527901815153904 -1.429229568597786 6.893287560780682
4148 7 -0.0006712338973812139 -0.008864411331525757 0.003479477196142793 1.129515492070581 -11.86350706037369 4.634965416061956 -7.234572864352078 14.64802883357506
4149 7 1.717441627730609e-05 -0.008315424020697683 0.003479477196142793 1.129514761373929 -1.39184218592069 12.7210225597213 -7.303546792830124 14.73443027030587
4150 7 -0.0105780794880615 0.004115454772921617 0.003032943171534019 1.129282024255484 -0.2749814095350569 -1.511595093356193 0.2135453947037599 1.551172504090885
4151 7 -0.005450268436720133 0.006567588192705883 0.00149125265367617 1.129340197439316 -2.191311607063471 -3.298492256706082 0.3146069886552363 3.972514982238807
4152 7 0.0004626568072142237 -0.007239679451754316 0.003172158439506812 1.129459228118681 2.562085511743796 5.85168997685849 -1.598370265596172 6.584933200928887
4153 7 -0.001566317275430305 0.008434049738514731 0.003684724317412645 1.129464004572983 -12.17576817792443 -1.596182201759027 -9.423409622610608 15.47894625803965
4154 7 -0.01039920960153668 0.001926514350505893 0.001492566308135963 1.129266964544189 0.5665846096041676 -0.493265564619951 0.4399550533636295 0.8705684844171309
4155 7 0.001296326134642869 -0.006758415627113754 0.003172158439506812 1.129441340608985 -0.2950239521533576 3.580356156792268 -1.362532826901382 3.842197944693682
4156 7 0.001487445430105884 -0.00596571491411504 0.002984883277186456 1.129426463110215 -1.133888379816676 2.660346994312964 -0.4057530495028274 2.920237066611914
4157 7 -0.009234258353685881 0.005676478351855267 0.002487545015949793 1.129301190340455 -0.8709066509175574 -1.920261220478851 0.08064792608832415 2.110067685518574
4158 7 -0.0009315693756448545 -0.007575725097487836 0.00300335475235323 1.129452274331316 -6.451573292233268 1.161444201704001 -3.173462694814587 7.283036183770426
4159 7 0.003805279780612914 0.006650291272278614 0.001466027758969574 1.129439208876884 -0.3015386410498815 -1.485870022259035 -0.03947805647184701 1.516671946083618
4160 7 -0.002707488549427951 0.004786231480533131 0.00247210287450695 1.129343777534706 -2.998312570939384 -3.593433669407625 1.11234638798969 4.810401053587861
4161 7 0.004084123964164769 -0.006590424229150946 0.002548965516290006 1.129439013818462 -0.4084175418873068 1.312264693612851 -0.337519350539463 1.415190031978985
4162 7 -0.002673118541440178 -0.007807883778995587 0.003498222009680793 1.129410578877248 -4.52470413802747 4.572965159690083 -2.054292913902029 6.753153134982973
4163 7 -0.0007067823927512304 -0.009710862315962181 0.003572030318278796 1.129523157351706 -6.51959991395929 -6.461907837379907 -4.215363855045046 10.10102610467422
4164 7 -0.009997073134705431 0.00360747647100158 0.003509300095723848 1.129275824720557 0.701357226904421 -2.051592425242507 0.5303055704843808 2.232074693447837
4165 7 -0.007234061107710734 0.004157618197017659 0.001006658418951685 1.129285733447742 0.1532478933353058 -3.313772127715034 0.8173360726830387 3.416519996566926
4166 7 -0.003379266280292407 -0.01066055481131821 0.001498000263070507 1.12941747168539 -2.417537819234416 0.9652085851230134 -0.3188783058843082 2.622556023078918
4167 7 -0.009693730296273875 -0.003704183009725966 0.001478103632098557 1.129280197728723 0.8399751645084631 1.804406461008872 -0.3911825801680329 2.028414347353248
4168 7 0.002938601805378723 0.006782206135823737 0.001484483319020966 1.129439981354923 0.2322061322774555 -1.72120052043312 0.0176173427146209 1.736882635692701
4169 7 0.001137244095995156 -0.006307629967255682 0.003484699105247369 1.129432753470022 -1.118672310538968 4.073719478863909 -0.7605670848911319 4.292444574069842
4170 7 -0.002983890654677611 -0.000245386693513263 0.002966850860730502 1.129219321953319 -5.325889728129232 4.259157427783219 5.776630547077486 8.937280563362782
4171 7 0.000632260364526864 -0.008902610050062008 0.002657902028172998 1.129477555464595 2.607021686914663 1.924353013820514 -7.539283312745567 8.206125118939342
4172 7 0.005624574784880554 0.007704568989902771 0.002461122667735913 1.129448266702134 0.227280708809242 -0.9046660858759407 -0.03910871231261105 0.9335988104692919
4173 7 -0.007376907242234063 -0.004588328178468475 0.001489100706455436 1.129294849120062 -0.5683708400457612 2.544223961795426 0.35352637155469 2.630798714263971
4174 7 0.005585951729069517 -0.01042700080265754 0.002507077053519756 1.129455454827065 0.4276079413088603 0.3991559115534035 -0.288862557667475 0.6523921906496317
4175 7 0.001545607865953939 -0.008784750290841838 0.001197590462754331 1.129454737810213 0.1065194696243906 0.8631926378434063 -0.8837553321910543 1.23994814996928
4176 7 -0.0005835559688140821 0.008673688115475602 0.002658242970667001 1.129483902913226 -5.306580494942716 -5.309245056190559 -8.548572374338832 11.37655348755938
4177 7 -0.003876642158709126 -0.008840010377414749 0.003012374021154854 1.12940010249638 -3.031953912671388 2.995637134804364 -0.2285607840282627 4.268351719806821
4178 7 0.001167755881055439 -0.01029126087507182 0.003490965497770762 1.12949384222089 5.319202271405205 -3.564664255625529 -5.369688714907153 8.356691986333937
4179 7 0.0004316098956595245 -0.008294680243187573 0.003166936530402236 1.129505220047118 -2.724579457418101 13.78374698860204 -6.749780404909608 15.58764093056041
4180 7 -0.002451733548083398 0.00208793831540392 0.001435470083261704 1.129304233621534 -4.753660415229862 -2.450716251897934 1.641151511509541 5.594343194189114
4181 7 0.007767808575933009 0.001554677843856478 0.003474896871125994 1.12943076359138 -0.568605967752669 -0.2512617122323295 0.1138541102340817 0.6319873044730137
4182 7 -0.0005172688356399883 -0.006891328638749675 0.003008576661457806 1.129440121144825 -3.362889841186618 8.267725858767202 -1.611813840561971 9.069854619359184
4183 7 0.001046377723802135 0.00697414982405366 0.003057357034359263 1.129451297247443 1.261873605211257 -6.029603379670855 -2.021068034648205 6.483298382177377
4184 7 0.006860092541382547 0.006179589666205947 0.001000784105362959 1.129441660673227 -0.07029196846102007 -0.6708096853962324 -0.05692743020665711 0.6768805855994476
4185 7 0.009420900423196097 0.002043387114962943 0.001480467148876435 1.129436263498364 -0.3126727371848961 -0.2132071997114923 0.0221418750745865 0.3790934096226546
4186 7 -0.00150327447556771 -0.005162224465282272 0.002502924438695703 1.12937388799664 -3.121556497358106 3.518006232260172 0.06228225866091158 4.70365410039513
4187 7 -0.002314104609164236 -0.00999251840341818 0.003572030318278796 1.129441430743695 -5.378221556812552 0.7476503760075609 -2.28034053066528 5.88932942996928
4188 7 0.007500727421487539 0.005880226853258558 0.0005093927082647207 1.129440794643556 -0.1636974035566303 -0.6794955256584292 0.02837666269612905 0.6995114325776078
4189 7 -0.0005885163671238496 0.006750317993289772 0.003232234394622278 1.129429905015874 -3.257975535636002 -5.303379081233941 -1.409331059558254 6.381727689701908
4190 7 -0.004984953452494494 -0.005294617481006241 0.002536395667840662 1.129323425637713 -2.124913174379376 3.342111630608395 0.6160757952093535 4.008056328888327
4191 7 0.005274856880977447 0.01009079004969961 0.002500995720189455 1.129456687890084 0.3681082624931957 -0.5436174454379514 -0.1929835130045439 0.684299829162494
4192 7 -0.0006205966951460104 0.007491540404699919 0.002203893830638985 1.129438364799596 -2.378341943469916 -3.722049710882625 -3.62689963984455 5.715292245183462
4193 7 -0.0008706833296093586 0.006178384499937381 0.001533279229967478 1.129404374782977 -2.683546447341498 -3.564925565257201 -0.2204034682480677 4.467515361997015
4194 7 -0.002052150759293385 -0.005417373074287289 0.003009357385403422 1.129369425210545 -2.999885498409081 3.604644166455242 -0.08430303050777785 4.69040292206093
4195 7 -0.0003422385895835292 -0.009938881116091119 0.003062995816049558 1.129509457925208 -4.243060890914564 -6.981416594775508 -5.778772595854087 10.00689542807407
4196 7 0.01102234675225969 -0.00190058396455043 0.001290508043985622 1.129437853166895 -0.1058025785145102 0.09456736980559043 0.006441370260604924 0.142051625485598
4197 7 0.002909484211997091 0.007711106780006706 0.002996197386102254 1.129453998992569 0.4790851337524658 -2.350972075503523 -0.9388814296854523 2.576449224065585
4198 7 0.001744765746727236 -0.005088321987629429 0.003044049193301889 1.129416748230208 -0.8116838034846393 2.215926489015109 -0.1241846819722396 2.363172155555889
4199 7 -0.002802781151534228 0.005311847689100092 0.003004022883851462 1.129351284363533 -3.414891701285359 -4.691281980563851 0.3409630329967308 5.81256120333722
4200 7 -0.009315707437128987 0.006574085524126432 0.002483429970770864 1.129310226533437 -0.8388282144789475 -1.798493723216173 0.111193326202592 1.987605695716811
4201 7 -0.004622714703347105 -0.004136635790673669 0.002457788590286897 1.12929769608444 -1.705071544294238 4.866175272591651 2.021573715991956 5.538383432368501
4202 7 -0.002667685897445518 0.004900538399842061 0.00147210287450695 1.129351073302769 -2.985479485434782 -3.549824288240618 0.3864073057948596 4.654422718372987
4203 7 -0.0002740196398931904 0.00931151349243927 0.002476682250899601 1.129488656551058 -1.926334351764479 -0.450303191469926 -9.895082372935258 10.09089649962826
4204 7 -0.001681362982982757 0.008203911975906721 0.002656419421292686 1.129435424484023 -4.695080332399233 -1.786530116776985 -1.597671208624174 5.271434574828744
4205 7 0.005670732831763043 0.008365210685696237 0.002969731270637676 1.129451182340807 0.2517181706892408 -0.69183758604135 -0.005900063863120397 0.7362310056417409
4206 7 -0.002450645018116898 0.004624277062862341 0.002968931200092136 1.129343482204472 -4.063617775064229 -3.267639600318111 0.01218525538291743 5.214461281842431
4207 7 -0.005314983375653909 -0.001127090198914089 0.002945295475614325 1.129185882487187 -0.8443987982459625 1.81305260019549 8.896718579008482 9.118759265142904
4208 7 -0.001957174496500381 -0.00854892557656365 0.003498222009680793 1.129452333090152 -9.058170316443951 1.991140845220142 -0.5514930903391495 9.290814602385632
4209 7 0.001454181551406052 0.006683696990732453 0.003057357034359263 1.129442562396424 0.1562229468123293 -4.085960590551053 -1.986449438826555 4.545927950337685
4210 7 -0.005479292462501092 -0.0009186740817370853 0.001416079075914814 1.129242281170398 -0.5556120990721712 1.325204011575309 1.474791115148805 2.059096721927489
4211 7 -0.002842470557220427 0.006962362258899958 0.00298808961773601 1.129389261078549 -3.324506703011755 -3.324050834519799 -0.1686089433680176 4.704262720621112
4212 7 -0.01161620544150324 0.001220535592106054 0.001500066027638222 1.129267496374398 0.2923659896758026 -0.6783969961168367 0.1926132383674337 0.7634135287338368
4213 7 0.000313269014194496 0.009425038676655707 0.002989905090340756 1.12951165335165 10.70011441174327 -1.494989718038696 -8.601796327153849 13.81008119944539
4214 7 -0.0009665149502390715 0.004351522671573082 0.002443353437833536 1.129367595652342 -2.985887524699655 -3.529278602755116 0.06764344473166492 4.62340863450737
4215 7 0.001393842502565915 -0.005497350900218378 0.002528748298549258 1.129419201297577 -0.9759984690444566 2.122562501450214 -0.3070050102203811 2.356288747254914
4216 7 -0.0001455992470554604 0.007756114399453959 0.003171465810108156 1.129473405918982 -1.777093743057536 -11.89113774364502 -7.720416425205198 14.28852857324824
4217 7 -0.01110059930396505 0.003827010586444001 0.002525626872220322 1.129280374831743 -0.2368728442171829 -1.162298578152721 0.5759871232650011 1.318638652273801
4218 7 -0.004650434725473717 0.006142533661136471 0.001495029161669433 1.12934348595438 -2.768164160041545 -3.065206365670992 0.3950497989078802 4.1490103910096
4219 7 -0.01050236379804797 -0.004100323536271492 0.001456010233791723 1.129284329746714 -0.3500600209315648 1.486758033431953 0.1936092522039696 1.539635025182279
4220 7 0.003659804580559658 0.009930558971285494 0.002508706616753896 1.129462506952278 0.8883944598383051 -0.6715169382990838 -0.4893216157666397 1.216394409042743
4221 7 0.001902895665505472 -0.0069296944469908 0.003687459334259444 1.129447740697012 0.8042090256264387 2.921903082944295 -1.046330572530392 3.206100037433358
4222 7 -0.003072234516661144 0.008360836322790138 0.00147036416045251 1.12940282033526 -3.051210306299029 -1.836575447509979 -0.3401228511694123 3.577509924731098
4223 7 0.003814001721279834 0.009792281311549259 0.001508706616753895 1.129459582048265 0.8883718635271336 -0.6889142267517966 -0.08365452371135559 1.127300074986723
4224 7 -0.008066566327262728 0.0072577199804626 0.001490141436506148 1.129326818820752 -1.589437964760622 -2.464832879774593 0.1189076104425816 2.935277361487576
4225 7 0.001523787039358112 0.007634120132517583 0.00350984695714963 1.129476871044218 5.10455480079623 -6.120897591689761 -0.8535854070422628 8.015639406148512
4226 7 -0.001677212595217629 0.008700435561043789 0.00317150147797149 1.129447476085805 -5.895908222092086 -2.76723897750561 -2.685433272011846 7.044919955569942
4227 7 0.002253096999616201 -0.006587779393850158 0.003187643506198531 1.129441450337205 0.01402873331009506 2.506772098556184 -0.002509508360062383 2.506812609089533
4228 7 -0.001905185049375841 -0.007983175034549631 0.00302209956589123 1.129437595549431 -7.955868477241881 5.042161988800493 -1.668122369601737 9.565661137027661
4229 7 -0.009605647882395577 -0.00338071188715083 0.0009873937382996619 1.129277061254041 0.3204114404628817 1.093345420300924 0.5481387055693583 1.26432738632672
4230 7 -0.0006074644698225921 0.006772665812830976 0.001032428020530829 1.129417761466428 -2.315871702781852 -2.793081080733662 -0.5666079117566045 3.672275615059852
4231 7 -0.001869113563425848 0.002043564565048158 0.002940959499824512 1.129288328016719 -9.694145176649531 -6.233879323511966 1.077896168354565 11.57581799596991
4232 7 0.007727445436053901 -0.0004116891777048255 0.002462790639236426 1.12943030703992 -0.6120989278007576 0.07693533442291288 0.1136807549894667 0.6273017273629794
4233 7 -0.002387266054910605 0.008790782540567433 0.001460438137561887 1.129420003124275 -3.377435759723546 -2.058502350375773 -0.4080137685502708 3.976302236109391
4234 7 -0.008340362398788189 -0.00503820004556679 0.002490878058822065 1.129296120734177 -0.6222194103636852 2.532100352121219 0.3651371307901419 2.632871875372478
4235 7 0.00403885299933723 -0.006806962883974994 0.001548965516290006 1.129439596188788 -0.3821622945642866 1.363694601711069 -0.01247344538198135 1.416286190345105
4236 7 -0.005101599642625926 -0.005177679354744938 0.001536395667840662 1.129321880553022 -2.147738604096152 3.266318331378443 0.1355664627111866 3.911520780877403
4237 7 0.001646527468753597 -0.006416500573973112 0.002672342611445899 1.129435050249178 -1.329057137515204 3.314069556465448 -0.3928216817843758 3.592180225650031
4238 7 0.007071939623411638 -0.0009781777887168525 0.00247385658152717 1.129428150922381 -0.652608147488238 0.04107445232610726 0.1238158410125398 0.6655184950755028
4239 7 0.006208043356453038 -0.005889218022509176 0.002471720901079763 1.129438258423113 -0.09218783488622662 0.8365444473394269 -0.02876055245673682 0.8420999813876343
4240 7 0.006631173573823151 -0.0005103173416374925 0.002966263191877585 1.129426322531492 -0.5384376592063744 0.02907347532275261 0.010848098752673 0.5393311237686272
4241 7 0.004740341793315768 -0.005572199690233951 0.001484733830674436 1.129433676563643 -0.5544579073358079 0.8629411807385481 -0.004503325114435531 1.025724783925361
4242 7 -0.00547209398541287 -0.0007262929250593911 0.002416079075914814 1.129209192090924 -0.6320259104486978 1.35096569940915 9.221636583995137 9.341474528131844
4243 7 0.004443418305763971 0.006621549099147772 0.003491391397098238 1.129442741981452 -0.1752118094689624 -1.441493270965043 -0.2035552024358741 1.466300361063038
4244 7 0.004071856952019848 0.005938713752273117 0.0009796773300169499 1.12943454832686 -0.526035706960168 -1.080466302071482 0.07672546024003354 1.20416269297722
4245 7 0.0005492693325786697 -0.008539002581458833 0.003166936530402236 1.129506629889163 8.282125724000327 -4.703349825486617 -13.85184168624518 16.81037251787874
4246 7 -0.0109817148698547 0.001564658998285327 0.0009948809770932981 1.129268309345829 0.2962538760259034 -0.6758224504285436 0.1923370143894302 0.7625587653865454
4247 7 0.008037244574499369 0.002283490164704932 0.0009737854883893455 1.129433870758873 -0.4535657571612091 -0.2611965691888957 -0.04302206499528987 0.5251632526193445
4248 7 0.004643318032245069 0.005398932656463828 0.003473499115198168 1.129435765360345 -0.2902981088377647 -0.9556768385570107 -0.03476706475934294 0.9993998001506132
4249 7 -0.004242565178514845 0.0006478704738396149 0.002440788097670912 1.129218613844855 -3.816472434539391 -1.325343733545634 9.438049924063295 10.26639100291621
4250 7 -0.0008043753484111611 0.01095208225380526 0.001498002406180887 1.129455842502499 -2.342280321936719 -0.2452435720345889 -0.6452177873870903 2.44186967492472
4251 7 0.004622451938011168 0.005520318957388051 0.001453176445215118 1.12943405320297 -0.6331899814145607 -0.885642748800905 -0.03796144051103305 1.089373077523521
4252 7 -0.007222406879439526 -0.004151869835929759 0.002987843896313062 1.129281037928413 0.1296501364651517 4.23755727040312 1.842973102340369 4.622796841067306
4253 7 0.001134251968399727 0.006308034471720022 0.003547510077209633 1.129437010837979 -1.221711834290906 -4.923317822687802 -0.8425946508115736 5.142140015092752
4254 7 0.003299944611760866 -0.007107314864251738 0.001559885882191843 1.1294419437878 0.3309361683470539 1.816708218762275 -0.09686172970651094 1.849142962109843
4255 7 0.001401137302102682 -0.00925864129943307 0.002688555960525092 1.129479270784622 -0.02592673750030957 2.756066491128446 -6.946270097557976 7.473101295142905
4256 7 -0.004618018713117975 0.009545959431061738 0.003488743033681845 1.129393961511271 -2.590013559687818 -1.628347801728417 -0.2097374169894329 3.066541469937416
4257 7 -0.001754682932263326 -0.009055055086311214 0.003070252327959589 1.129456879811658 -6.675538792167941 -1.522557428608061 -1.844749960621917 7.091128380332933
4258 7 -0.0005066783453150693 0.003206281450222106 0.001415381737565913 1.129359704820941 -3.749157104194037 -1.700569279339974 0.09649230949487846 4.117939488573763
4259 7 -0.009399989911679897 -0.004147072238947581 0.0009896212486796905 1.129283928477101 -0.1212317282375003 2.278351931190044 0.3530040092421286 2.308721829244457
4260 7 -0.00516719368518518 0.003584049998169189 0.002510762086654348 1.129274904209404 -1.421471408182768 -3.999213666112137 1.802346018559966 4.611154094380076
4261 7 0.004720099719230569 -0.005366541778146283 0.002484733830674436 1.1294327792445 -0.5551634059761804 0.8648526144020995 -0.05645616617056182 1.029253977729451
4262 7 0.001979125804289671 0.01064644242281101 0.001495678492671656 1.129467287807892 0.3850562191551041 -0.1903704219195987 -0.4216288109547485 0.6018970374399467
4263 7 0.006232918567684364 0.002697245965869397 0.002995715845113951 1.129427523255991 -0.7301816811576235 -0.3783061398554757 -0.02157747083953635 0.8226459810868556
4264 7 -0.004071817811219192 -0.004242407373868078 0.002968856048854631 1.129302286401855 -3.170356012677912 4.035613747668797 0.9155043771026251 5.213011013990902
4265 7 0.003403599975496865 0.007701572630874445 0.003486350428952624 1.12945444368411 0.8763342218777844 -2.495226637051442 -0.7786151079977145 2.756874883829058
4266 7 -0.008023748908385675 0.007204390027694717 0.002490141436506149 1.129326318358731 -1.589826977366966 -2.459376793438679 -0.06796469392264044 2.929283740044399
4267 7 0.0003620721037981776 -0.007990015270630754 0.003166936530402236 1.129482697274677 -1.686535566338287 11.4293522853966 -6.862045278164723 13.43734204669239
4268 7 0.007671456541989415 -0.0004834722616805752 0.001462790639236425 1.129430556980917 -0.6126208266999018 0.07279343963612744 0.03213501403781373 0.6177668017041221
4269 7 -0.0008869691744344892 0.006404585494514746 0.002733085604058926 1.129414656474772 -1.973644961830702 -4.711868843745642 -0.1414248303380931 5.110477807275633
4270 7 0.001429907976660851 0.005871800826647015 0.003035796010128345 1.129428180739044 -1.244673140439442 -2.768941655763382 -0.2267071765952073 3.044280746493794
4271 7 -0.001459546471456507 0.006649272833565542 0.00267049347017049 1.129410811765778 -4.802380383973532 -4.011540330524038 -0.1678139339512343 6.259670493901645
4272 7 -0.005035181491101332 -0.001633190037502602 0.002945295475614325 1.1291995730681 -2.494724181032225 5.369623523736127 8.290524710056726 10.18770364184925
4273 7 0.007712723069703444 0.005130042843750856 0.001008281325528072 1.129438586664499 -0.3697134231441101 -0.4322593144763591 -0.006641962774634772 0.5688411429160229
4274 7 0.005834080543058787 -0.01014804108283729 0.001507077053519756 1.129453145438838 0.4385223452803884 0.3932425894676728 -0.09686624379466144 0.5969293514883814
4275 7 -0.001802668652102315 -0.005195804450986553 0.001502924438695703 1.129369939276348 -3.125001090922788 3.526001083738282 0.1811277007067904 4.714989152135504
4276 7 -0.006578151049738715 0.009123183042502321 0.003010156602608703 1.129361857706733 -2.207568196968689 -1.780725228815791 -0.223371912408416 2.845036853199205
4277 7 -0.001923004563540707 -0.004146983517938056 0.001497903328522168 1.129345813102988 -3.209361755895367 3.844083015832128 0.1986778941634897 5.011631472728423
4278 7 0.008958420915566956 0.005421786727688073 0.001000764343810471 1.129441165739233 -0.1256010010046928 -0.3750463679036379 -0.08193041861213265 0.4039158118037112
4279 7 -0.005881121925270957 -0.00760254082435695 0.001076135308689473 1.12935149799095 -1.931806255046815 2.439805842747654 0.1838556829741139 3.11742375520324
4280 7 0.004925609598866474 0.01013035893668231 0.001500995720189454 1.129456775273734 0.3732317545207213 -0.5499919895031744 -0.0766797178147491 0.6690836347007939
4281 7 0.006673076435343941 -0.005751982240870222 0.002989253839571604 1.129438121755831 -0.1911551593508538 0.7484928972725884 -0.08096422770683791 0.7767477829914473
4282 7 -0.002538217840215445 0.007484517090306252 0.003484917943321196 1.129407580064511 -4.250139710826847 -4.467583600599914 -0.6747906229657836 6.203090614745133
4283 7 0.004357943205118873 -0.002245268030810641 0.002458342093180272 1.12941737010551 -1.036208233479446 0.4948079801240106 -0.09549798627330972 1.152250973402607
4284 7 0.008433606384454197 0.004953995435699752 0.001499652961073823 1.129439463927097 -0.2990038143177444 -0.4620729121553821 -0.01298012269117217 0.5505298726766727
4285 7 -0.008233701102567152 -0.004799595540550372 0.001490878058822065 1.129295029922474 -0.6211130119645381 2.532230086486685 0.3263168336940217 2.627632634234115
4286 7 -0.005135575569559216 0.01010176175885377 0.002999504469868997 1.129391580665799 -2.495667489918437 -1.841233589718567 -0.1487960039827685 3.104937616594729
4287 7 0.0001638933343003574 0.008281936385089339 0.003486741492695512 1.129515431816684 1.564550346681646 -9.949474381479963 -6.503653875092782 11.98905217196243
4288 7 0.001413208356769152 -0.01095903081244592 0.002507874333850939 1.129470528913853 0.5072936763054497 -0.1206025777114508 -1.532204787871186 1.618500345302876
4289 7 0.004530794048509369 0.009939733193931431 0.003009644614083785 1.129459745180114 0.8245260188816826 -0.6531522771410789 -0.5150221512590665 1.171195487198858
4290 7 -0.0007453729558320825 -0.009270608674931123 0.003051507514421589 1.12950470267123 -12.22426093226195 5.384269588656274 -6.964346270367082 15.06403111112462
4291 7 0.007286679386465413 5.617126937453447e-05 0.00295519724958684 1.129428478649031 -0.6057543838067592 -0.07084179957834315 -0.002413248007080818 0.6098874960470565
4292 7 0.001051410764102904 0.008186102954278693 0.002996588449845141 1.129487135331768 0.4159813912341926 -2.321652746588137 -5.035610073169169 5.560618742783592
4293 7 -0.009145241723116137 0.005652437309376259 0.001487545015949793 1.129301963719908 -0.8698483281050611 -1.917775635724376 0.1298453831310406 2.109824477629751
4294 7 0.007015950729347153 -0.001049960872692602 0.00147385658152717 1.129428400863378 -0.649403749596912 0.03979895448560453 0.03174521617173609 0.651396150985302
4295 7 0.004263990089883503 -0.004829172365060996 0.001484263701179643 1.129427548193068 -0.7336235917056152 1.269290030821582 -0.1963824383960168 1.479143947951134
4296 7 0.007310585330425164 0.001175402762335498 0.0009551972495868398 1.129430016101806 -0.5970794600247009 -0.226886828898874 0.0962864852608501 0.6459509284419857
4297 7 -0.001458436721773393 0.006175361491286303 0.0009857691527578453 1.1293947743538 -2.646415793387599 -3.556250053208842 -0.1937862331084908 4.437114388494124
4298 7 -0.009539565517293796 -0.003113662038492382 0.002987393738299662 1.129271016815369 0.9038571280437527 1.93210459921706 0.677901395029423 2.238199319009381
4299 7 0.00646512265569717 -0.005253059457770467 0.003502082597227189 1.129436302354431 -0.2024356727412603 0.596306270552274 -0.1957344254628045 0.6594492665925277
4300 7 -0.00784302018376235 -0.004096759105918011 0.003498911354880796 1.129277204775144 1.217749358465465 3.683657076484767 0.7861682763859758 3.958573419298302
4301 7 -0.001395553630648563 0.007166923091432456 0.003169642260733841 1.129426235242935 -3.794211784277247 -4.891682918730904 -1.029128592561543 6.275644229987845
4302 7 0.0005858294173914907 -0.007643418900346054 0.003687459334259444 1.12948378173786 -1.897779692173193 10.50384936580375 -7.20359156186423 12.87727264018598
4303 7 0.0005459311261617083 0.009075246034188678 0.003486741492695512 1.129525190601602 7.095793273617375 1.379444824094661 -9.819803300686864 12.19351003890249
4304 7 -0.001625402266686483 0.01143956410860084 0.001471195732725476 1.129445774249551 -2.247702426256561 -0.2622204998819492 -0.6297991236609645 2.348951409399967
4305 7 -0.002016648354983223 0.01088289606876464 0.000963134084748679 1.129437967126718 -2.309516584313711 -0.2934347526286502 -0.6769047469675243 2.424493935595113
4306 7 -0.004971171801527336 -0.0004034688286610174 0.002946277514233721 1.129181519297548 -1.09117731556615 0.9599678352631101 8.817163396278644 8.936138793428729
4307 7 -0.01087767680753629 0.004172592789644795 0.001525626872220322 1.129284660580489 -0.2465819875673295 -1.123095613873506 0.03114895665105189 1.15026809570422
4308 7 0.002449789158835379 0.008495327353447364 0.00300890895981974 1.129463537041145 1.099386136639479 -1.783638943391237 -1.448727121871137 2.54731781124027
4309 7 -0.0009800526691250877 0.008216749576696806 0.001458436596575553 1.129436991761253 -3.084233604968149 -2.115824654047792 -1.07599428718252 3.891911433054548
4310 7 -0.0006311795202285294 0.003792178044479106 0.002942502228396888 1.129363412059572 -3.224429403932934 -2.952088784466257 -0.178336061876729 4.375337349654819
4311 7 -0.007888985928000594 -0.007839170199789147 0.0009939017636538116 1.129334907736003 -1.617406643935332 1.930862590157231 0.2573495352026381 2.531889290072507
4312 7 -0.0004592189180230536 -0.008424157690494705 0.003479477196142793 1.12950834429621 -8.781676645674947 11.03426699289836 -6.207767799948863 15.40809118086472
4313 7 0.0003810750921274091 0.002873623322423356 0.001438105467534359 1.129374229498655 -3.368414845771295 -1.899228568957087 0.04219661024088701 3.867178336238331
4314 7 -0.0009307038068558478 0.01078829496404849 0.002498002406180887 1.129462428496703 -2.301802768580532 -0.2066442695017556 -2.328126590424406 3.280422421061667
4315 7 -0.001628899150771337 -0.00433733991044897 0.002979046882485266 1.129352701148995 -3.421390805890296 4.648936460182554 0.1039864335532008 5.773156713255623
4316 7 -0.009591826037570307 -0.003641834855519743 0.002478103632098557 1.129278562723759 0.8148700564450294 1.800393139076234 0.5467111304476363 2.050444274853338
4317 7 0.006874345745726597 -0.004827951798652386 0.001525046840816286 1.12943548892363 -0.4903803535768227 0.4748247771178575 0.0422523104285383 0.6838981780029116
4318 7 -0.004272381550653316 0.006261786212306239 0.003503171674414813 1.129349586082399 -3.069886325928118 -3.54641826542105 0.01633958650015569 4.690581152641907
4319 7 0.004105371115952781 0.005149453241191078 0.00296178504811688 1.129431986373164 -0.8308727438253002 -1.5949407885989 -0.06268629122843025 1.799476370135557
4320 7 0.002372941577976794 -0.007055593533661894 0.002681030933608526 1.129446110711844 0.811064159257449 1.763707382660025 -0.4926895777526974 2.002805987135948
4321 7 0.005632673518938527 0.00803207560657257 0.001461122667735914 1.129449076640464 0.2258787252554879 -0.9095434474500611 -0.2737406288192226 0.9763321223788193
4322 7 0.01124779818001182 -0.001399493020679154 0.0008073680927548333 1.129437817666472 -0.1005772170374651 0.06127642011223732 0.04025767236211676 0.124463876015446
4323 7 -0.001106325023984489 -0.005293014338612148 0.001017444609502719 1.129382986812749 -2.601778334248858 3.184013259361342 -0.2637486824580825 4.120285706580792
4324 7 0.001892660094706596 0.01079840148722254 0.002495678492671656 1.129472829549611 0.3741153382922515 -0.1950822035705019 -1.403844737061871 1.46587837089977
4325 7 -0.006372437528522703 -0.0005626986726494674 0.001415347369735696 1.129239483901488 0.3396381593866354 0.8998275682175391 1.487192304313145 1.771097027789295
4326 7 0.003114449155218424 0.01097990874663479 0.001515809080157572 1.12946485970974 0.5073875194699056 -0.2234677462831141 -0.4208703749329308 0.6960688191830344
4327 7 -0.004664689575571147 -0.004621471750408853 0.0009744123706252502 1.129316863225829 -2.093455034375538 3.467999686567577 0.05277721611880042 4.051217254298559
4328 7 -0.003310603847535913 0.007206931804570189 0.002484792801185479 1.129384590849376 -3.317615523255264 -3.330750657258626 -0.162767672816115 4.703930911087773
4329 7 -0.0104004595393444 -0.004037975382065269 0.002456010233791723 1.12928269474175 -0.3518618609229292 1.48648570256958 0.2670600370611184 1.550731303776064
4330 7 -0.0003808291526643813 -0.009498627475060063 0.002542473012192351 1.129491003244731 -3.713217987993799 -0.5584433326128379 -10.28020628563053 10.94451863067617
4331 7 0.002554045798213652 -0.008296178581043225 0.003493387427409996 1.129464882943233 1.418862686665656 2.338923746174818 -0.8630489501389175 2.868551743366052
4332 7 -0.004765496837885684 -0.002041931159478679 0.001428671695275971 1.129259387112468 -1.369836981161487 3.078148913855734 1.274792699629127 3.602297949622791
4333 7 -0.00686195647407449 -0.006788549722472209 0.001063240107357785 1.129331332932823 -1.404192764567869 2.192266305329307 0.09380309944391142 2.605108039028756
4334 7 -0.0009575641883649084 -0.00627069702745655 0.003523877556210437 1.12941228161572 -3.713698029012645 5.819230438503634 -1.23578167659671 7.012998809304889
4335 7 -0.00514985498897973 0.01019174538481898 0.0009995044698689966 1.129390276879548 -2.362241289816606 -1.41611431265201 -0.2779547401501812 2.768180358174707
4336 7 -0.0009844487099630221 0.006980066221708516 0.003684724317412645 1.129432451973563 -3.46784246047885 -4.908871471384124 -0.9381958046532446 6.083022424842595
4337 7 0.001780954933884132 0.005462729075080896 0.003488285932918712 1.129424947239053 -1.245531445324746 -2.68810282253665 -0.2520191294649126 2.97334138763757
4338 7 0.005294781350856924 -0.003150271991901685 0.002470042342657294 1.129424785928123 -1.04518075607285 0.5031823909281319 0.1314397712889999 1.167420980144553
4339 7 -0.0005797168026088558 0.003038180081669453 0.002415381737565913 1.129355097249108 -3.752304041270193 -1.69956307978718 0.3932423123501445 4.137987408938166
4340 7 0.003623591138631733 -0.004958857311950665 0.0009821811039524534 1.129425169344039 -0.7633429457405283 1.279694347672712 -0.2279651618470711 1.507407772068751
4341 7 -0.004468603806471785 0.009027031395202431 0.0009854462171313139 1.129388022815859 -2.509342626447714 -1.989383475370064 -0.02129943043602793 3.202327387185745
4342 7 -0.005537071597432707 -0.009894380216407043 0.003020109240060565 1.129382830826649 -2.518006252156177 1.814922014327235 -0.2129879765202 3.11121540272116
4343 7 -0.002248537578346619 0.004514322399169195 0.000968931200092136 1.129351016217589 -2.814071409517521 -3.579538363074642 0.2105314145993273 4.558115429332632
4344 7 -0.002232915540598213 -0.007575045093631158 0.00302209956589123 1.129412956815442 -6.19489797218607 4.296054557900804 -1.709654744397162 7.730185314421322
4345 7 0.00518145662537834 0.009461464830374989 0.000977701535058294 1.129454176976538 0.2930951437588893 -0.4649774019438995 -0.03053729776859753 0.5504918475041666
4346 7 -0.002975455683104815 -0.006712154945647477 0.003011215664094502 1.129381886017067 -3.06866224207777 4.355042496355225 -0.526573463206197 5.353537401864927
4347 7 -0.008512073290848483 -0.004456989457021868 0.002989621248679691 1.129286168624267 -0.6072149914818664 2.524729891881124 0.3508698212213439 2.62032072546135
4348 7 -0.002744724538304563 -0.006217369545089276 0.003009357385403422 1.129375697563199 -3.682727468754821 2.975859082025539 -0.8222464830928614 4.805653770732318
4349 7 0.0002388994936209106 -0.007586275822039016 0.002651635635649605 1.129458143655498 0.7563163926368903 2.685741714299749 -4.202981410473114 5.044826635126682
4350 7 -0.003649697172061378 -0.008013426040568946 0.002985560117564857 1.129391607443146 -3.212300637511131 2.518068028308158 -0.4069917365289925 4.101851320385106
4351 7 -0.003978459060205148 -0.006001512326393658 0.002972817937077048 1.129349227691307 -3.139120571006706 3.668545523464644 -0.2548943187731135 4.835005204836159
4352 7 0.004881033908290025 -0.002800201546508852 0.002967959745430105 1.129421632949845 -0.8092252511043667 0.2373567927103634 -0.06153554273101406 0.845559209688994
4353 7 0.004960094311537437 -0.003322540369835369 0.001470042342657294 1.129423791655695 -1.042549578859622 0.5009033023774467 0.04236604723982205 1.15741462953936
4354 7 -0.00327197247373386 0.006678935313239584 0.003503171674414813 1.129375981369703 -3.442501262778821 -3.469832873418553 -0.0456670845532405 4.888009880953743
4355 7 -0.001775138452202344 0.006911237216536391 0.003484917943321196 1.129411839480768 -4.413423109843471 -4.859059837811198 -0.8157989257137445 6.614702861136387
4356 7 0.0008522382506017262 -0.00843026891166181 0.003687459334259444 1.129522732835962 8.282243796225156 5.006278369376721 -3.742571370192252 10.37618551649796
4357 7 -0.0005355133197437282 -0.007345934030091926 0.002488053857600599 1.129444230063703 -2.869157527792295 3.95914431591822 -4.347782230755942 6.542942683505019
4358 7 -0.0006904181200510778 0.01129919399329212 0.003011225245622042 1.129470464078222 -1.077777839768094 0.5102494857474792 -1.299583915708683 1.763768115022341
4359 7 0.006661834579400037 -0.005463578024164592 0.0009892538395716039 1.129437037626899 -0.3461165536133147 0.6036023228417708 0.1023242571821498 0.7032799488347572
4360 7 0.0003007326039197373 -0.007508296015692269 0.001651635635649605 1.129441921705211 -0.9851948325258475 3.263411907158978 -0.9368507080911815 3.535273028080515
4361 7 -0.004339736767036109 -0.00408416445249594 0.001457788590286897 1.129306678641682 -1.71462482848707 4.855086442520496 0.6505974110630018 5.189901700234073
4362 7 -0.001839131293010287 0.006393586958669477 0.002985769152757845 1.12939641600361 -3.694200964135893 -3.783194255831254 -0.3714359688732656 5.300721103750883
4363 7 -0.007963998137856296 0.007894530511876423 0.003004580216966471 1.129335881924584 -1.518071216014461 -2.092261601116233 0.08352297873720566 2.586324595323298
4364 7 -0.002611657309386438 0.009453882238967242 0.00297552019424069 1.129434055392909 -4.015731947335389 -5.812478487952892 -2.525957775623048 7.502764285914609
4365 7 -0.005575567141255246 0.008212002382996852 0.0009960983498710201 1.129363702962568 -2.267633469870862 -2.009378589701532 -0.2272974474299842 3.038326513072232
4366 7 0.002113971237542895 -0.008172487785993512 0.00318084676166944 1.12946388714818 0.2538709002125318 1.631493753902803 -1.333635411447953 2.122452758877458
4367 7 -0.002626099988822813 0.004179378354881329 0.003468079990655487 1.129329302615642 -3.752595608060694 -3.949990642376807 0.7422000945507397 5.498659914274739
4368 7 -0.001195217861986627 0.006769642804179898 0.0004849179433211965 1.129408161037251 -2.346308985678258 -2.797529629007002 -0.5907799581292378 3.698696911126103
4369 7 -0.008164655217335844 -0.005355238549332911 0.0009919667039412689 1.129303573843447 -0.7946431831794811 2.298147926005901 0.04916281461079411 2.432151035754008
4370 7 -0.0007034262265766534 0.004132474660637285 0.001443353437833537 1.129369197304043 -2.977401345164579 -3.559261761035071 0.5019724977540195 4.667466062250022
4371 7 -0.0005160603382766272 0.007437933474756154 0.001519169513226341 1.129432518213636 -2.538058184736494 -3.375989231437868 -0.8129674319505346 4.301157830782847
4372 7 0.0006309303416252806 -0.005157905521998371 0.002522131179902452 1.129407031250186 -2.508353082256114 3.035545492417545 -0.1945817285876361 3.942617616622284
4373 7 0.00416507832910936 -0.006184638283308559 0.0009826512334472465 1.129435552636308 -0.4547946525917028 1.144272590675564 0.1000396722504358 1.235397051081696
4374 7 0.002960120054030405 5.480721832668104e-05 0.002416435052540253 1.129399712790911 -2.468211430193343 -0.3216250055286607 -0.4287608216907561 2.525736754005712
4375 7 0.004638323305043292 -0.002652594635503863 0.0009679597454301052 1.129419871982937 -1.108089317124758 0.5754682854441261 0.00384634045020561 1.248615423824675
4376 7 0.003441867503417575 0.01031054227782883 0.001022356187801271 1.129461847863902 0.5191990826730204 -0.2372512249922729 -0.4254928117581443 0.7119690752179421
4377 7 -0.0005113789178688947 -0.00575936130159307 0.002502143714750088 1.129402364853606 -2.420240365554675 3.061744801267345 -0.4913585222925354 3.933608756927581
4378 7 0.001592723039936851 -0.005565053300683083 0.001528748298549258 1.12941940107004 -0.9759392853940791 2.121623438033649 -0.2979502333666926 2.35425526295525
4379 7 -0.005244393228869224 -0.001591166923394053 0.0009452954756143245 1.129253643893205 -0.8904931772563063 2.039743542378546 1.752234756973075 2.832641604749796
4380 7 -0.00625603438471494 -0.009420058311672124 0.003020109240060565 1.129368518903342 -2.223429135895894 1.627127894804 -0.2076390858127407 2.763023036161156
4381 7 0.005960530473297193 0.00179089297035631 0.0009771276063114454 1.129425261971584 -0.8518681086204539 -0.2309348746426058 -0.04966421765540709 0.8840117223917956
4382 7 0.001082319477668873 0.005485171415685303 0.002510218247869746 1.129418577996075 -1.32130287117128 -2.920392621696135 -0.2502920752685534 3.215148591459644
4383 7 0.001749837559667176 0.006247463345659447 0.002545642967277975 1.129433732297489 -0.8878756371634846 -2.010096294848711 -0.37370641070546 2.229005774563031
4384 7 0.003926485632401293 -0.009394724036091507 0.003076445411337646 1.129458394173938 0.7876664214403875 0.5212808989777883 -0.3231016614355662 0.9982719322540429
4385 7 -0.001084589025994471 0.008270356506640569 0.002143160913988198 1.129442838347213 -3.079063973095074 -2.10808080938875 -3.606708995384597 5.189700321474576
4386 7 0.00156441900112587 0.006495289442608831 0.001545642967277975 1.12943330043698 -0.8944112929449509 -2.009085654157813 -0.4423738559016583 2.243232345316795
4387 7 -0.002914638836096738 -0.007066001643493303 0.003011215664094502 1.129389792779409 -2.827366743512372 2.476059426104829 -0.5224126662843978 3.79444172149431
4388 7 -0.004197229507558901 0.0002402683001159145 0.0009462775142337207 1.129253887503302 -3.140180393599861 -0.8435646562391882 1.940889232969745 3.786738074948253
4389 7 -0.001299270087161512 -0.003748605537009108 0.001012423499329184 1.129350533690436 -3.55800430229434 3.425724554415409 0.6283488879951106 4.978936197915613
4390 7 -0.002544450273376516 -0.007477654071798006 0.00302209956589123 1.129402438613148 -3.238627139805942 2.984127330842729 -0.6541760454187594 4.452153184221079
4391 7 -0.008529286739116694 -0.007851133697545936 0.00150482198052527 1.129329301422441 -1.232535912365023 1.879196452952457 0.1592546716483421 2.252972732746759
4392 7 -0.001026925727051587 -0.009135020006456884 0.003051507514421589 1.12948220136514 -10.98630353552667 4.634828811042 -6.942215147270366 13.79763945874007
4393 7 -0.01085585426152806 -0.00349559170710576 0.0009653003399928278 1.129279333848334 -0.1879645936735126 1.400170388034106 0.2691281812864767 1.438136913497805
4394 7 0.00216377506748502 0.008502518606463427 0.00300890895981974 1.129468858654744 5.103691002143462 -2.123383409209355 -2.278094330879961 5.978806965294422
4395 7 -0.005442191974438822 -0.00757629592625089 0.003076135308689473 1.129355988452281 -2.143974497419197 2.435177529473043 -0.1939198010007475 3.250280162517456
4396 7 0.00176637204711419 -0.006884314713784847 0.002165730038855895 1.129439710623817 -0.8715427450029428 2.000423868633586 -3.099785213571947 3.790771792240402
4397 7 0.0115728824148216 -0.002434789670251857 0.001260076347435861 1.129438406918834 -0.0845234202616974 0.06758381002614919 0.01300763535131914 0.1089999015037125
4398 7 -0.008989499401221616 0.0004862994255446242 0.002976959484161108 1.129240530817197 1.787249944009294 -0.3211246832891167 1.147516073702179 2.148063445055481
4399 7 -0.01152756689549262 0.001300432653654477 0.002500066027638222 1.129265793171002 0.2963084835853879 -0.6722322780552462 0.4631318548080244 0.8684388683390092
4400 7 -0.002951875690038063 0.00366830610759353 0.003468079990655487 1.129307371308177 -5.209175705633776 -5.771530039880588 0.8162142247668109 7.817434118310231
4401 7 0.007534664689455581 -0.005028166812781771 0.001022964243589096 1.129437539258039 -0.3098629854816157 0.4848411470749154 -0.0552230330409841 0.5780446272103438
4402 7 -0.001751730725131169 0.01127577681884407 0.002471195732725476 1.129452360243755 -2.141637597341558 -0.2348310367814937 -2.322912514338613 3.168229752314963
4403 7 -0.00276072510139958 0.01058074399088854 0.002451877118430524 1.129431872297447 -3.155608030854479 -0.7193307193282247 -1.235036007618646 3.46419004505774
4404 7 -0.004937332054162493 -0.002168187032799937 0.002428671695275972 1.129235502986388 -1.467244170049175 3.181702246909549 7.192191552299223 8.00022836970901
4405 7 0.0002987256573405128 0.002212805759928357 0.0009636832297929585 1.129366346702186 -3.412133717789055 -1.657614449277229 0.2959339856228652 3.804986083334897
4406 7 0.01014194665263948 0.005176678288542658 0.001002291852417224 1.129440945096166 -0.03010587776479847 -0.2454227840088011 0.02854171812004758 0.2489042716786192
4407 7 -0.001455130010410614 -0.008083107200891834 0.002501576762034022 1.129443245801208 -3.675328038269411 3.373184981051321 -4.506278497379048 6.72257086249154
4408 7 0.0007564965316718608 -0.004732275327248853 0.001522131179902452 1.129400780226005 -2.521168519716928 3.030249175484767 -0.06414154254923662 3.942437685977846
4409 7 0.001505966304370675 -0.007492341475502409 0.001665545866916809 1.129443983724604 0.454093097658268 4.250771721183752 -1.305189103211927 4.46976278588691
4410 7 -0.001047568202032351 0.006724695731448503 0.002218003547380123 1.129417074508958 -2.303284743195714 -3.591731853459186 -3.803856983037855 5.716203833209359
4411 7 0.006414918316919507 -0.006002015003816235 0.001471720901079763 1.12943886724788 -0.09264827736212559 0.8348949760225203 0.01782096064292961 0.8402088495868458
4412 7 -0.001936182597483214 -0.003831480834495822 0.002497903328522168 1.129336265438132 -3.207878006727646 3.818761925599603 0.6647802943161064 5.031436851453781
4413 7 -0.00767260136629986 0.008290645293620953 0.000991478186792205 1.129342112069027 -1.655225792273175 -1.767181389243878 0.08519327396165237 2.422800111405105
4414 7 -0.002361133374340176 0.00635935313821554 0.002488940827172659 1.129385359668808 -3.02045525654491 -3.635213554242974 -0.1895223578668694 4.730100027047317
4415 7 0.01109162036934551 0.0004412295861563017 0.00251452280866814 1.129437602096278 -0.1077054522157886 -0.05044698999783499 0.009562299741589069 0.1193180657452893
4416 7 0.002396197714663761 0.007663098066286131 0.00350984695714963 1.129461936579223 3.197555334501206 -3.338149859310572 -1.986449276997273 5.031260809230157
4417 7 -0.009091947256617355 -0.0064704247453077 0.003009340024627295 1.129311441959429 -1.03360501933745 2.079052791208098 0.05811494806437001 2.322536800961027
4418 7 0.004449919641191625 -0.001925392741871967 0.001458342093180272 1.12941660341103 -1.036022972793072 0.4942224914171816 -0.04775272224059317 1.148860215021387
4419 7 -0.00700033184922675 0.008831866717736872 0.000991478186792205 1.129354296400927 -1.793441105618918 -1.876258718232585 0.08644447880646937 2.59696946939765
4420 7 0.008875458330538013 -0.002982096728326845 0.002526526342125056 1.129435641683289 -0.300148798447422 0.2479514193376513 0.0252373756419666 0.3901360438235368
4421 7 -0.006431154542190654 0.004295523870826302 0.002501812722756835 1.129284741675971 -1.432510070930365 -4.064639077217811 0.4152796986958564 4.329645846892318
4422 7 0.0003080366348336228 0.002705521953870703 0.00243810546753436 1.129369621926823 -3.381518784678429 -1.893226201114604 0.4305142108415238 3.899271371096966
4423 7 -0.009579921375358543 -0.006140993959022596 0.0009987931082838159 1.129305901120486 -0.9119078352587162 1.896486296710212 0.2151524611234693 2.115307721146817
4424 7 0.009200908843577747 -0.00657695106001599 0.0009785512723438556 1.12944221731637 0.03875987133167069 0.2916214056245489 0.01956330337583435 0.2948357079511575
4425 7 -0.002463790236544573 -0.01085423913250699 0.001079331923003989 1.129432857149573 -2.983415312750356 0.6263973045777679 -0.6808253226990737 3.123565851965329
4426 7 -0.008809222525513785 0.001050824609482706 0.002474644815203773 1.129246468036865 1.989219572989766 -1.601131713935416 1.785511460465874 3.115873625548753
4427 7 0.006960330700467429 -0.004885574608019532 0.002525046840816286 1.129435868520499 -0.4864763578055146 0.4805066763325329 -0.03905260774755996 0.6848875957963769
4428 7 0.009134734484471347 -0.003771062496835511 0.002506776661344121 1.129437292310125 -0.3133631977544982 0.2868298678415125 0.0257195435665172 0.4255929530833121
4429 7 0.001096685340986938 0.01106500073752997 0.001014083849701872 1.129466295471271 0.01779457023340142 0.2337541480395961 -0.81671400018865 0.849693713381272
4430 7 0.001196993300744508 -0.005200693162374321 0.001028564126610171 1.129411872604928 -1.024706023507345 2.15376952081758 -0.3254373689831788 2.407208978162411
4431 7 0.01124177565033212 -0.000195583875530145 0.00300032416646345 1.129437599114963 -0.121812283470453 -0.004706197695214271 -0.02212455921082564 0.1238946198238881
4432 7 -0.0002741179466311615 0.007335002224977571 0.003684724317412645 1.129467364169445 -1.122536882477955 -11.21019832549261 -8.016967113538323 13.82752317839155
4433 7 -0.005454933087856779 0.007285707718750896 0.0009960983498710201 1.12935277822684 -2.228333843264437 -2.697877412470238 -0.2549498539002478 3.508420396383324
4434 7 0.002483210757201557 0.0004998737026284702 0.002926052704790087 1.129395806051136 -2.325934051058697 -0.616421736606911 -0.5807931237817877 2.475331416167946
4435 7 -0.002197492918422739 0.01075328462504147 0.002963134084748679 1.129448509920768 -4.341939690492843 -1.311002421772945 -1.646653317398732 4.825208262186397
4436 7 0.001433366434892154 0.005076099664119182 0.002962708170660113 1.129415344496084 -1.376980627949232 -2.799002259257552 -0.3376626977748215 3.137595479749566
4437 7 0.001681252889077119 0.01144257352910455 0.001507536742058174 1.129467836766986 0.08305790541924034 0.2132265647936183 -0.7475276062914581 0.7817683197432317
4438 7 -0.003403862219409719 -0.008546647138486765 0.003498222009680793 1.129404830676097 -3.194590365255469 2.499120396183557 -0.3891611634881389 4.074611241280715
4439 7 0.009622462597332068 0.005728256668119394 0.002511684560681945 1.129441857535724 0.06476731519807399 -0.2847127768026485 0.01656896405705599 0.2924563231707693
4440 7 -0.00636523905143448 -0.0003703175159717733 0.002415347369735696 1.129206394822014 0.3999147150894846 0.8604554794972762 9.372996021475979 9.420900691024533
4441 7 0.002618476592977577 -0.0004815254515136937 0.002999145403423707 1.129396817805279 -2.301407818211954 0.4519687015602312 -0.6903483737332259 2.444858795520358
4442 7 -0.006479298908832115 0.004853022821388173 0.002980715523344829 1.129295860022991 -1.396360636505817 -3.969849870480568 0.4980688007545653 4.237641272172835
4443 7 -0.006226152540852102 0.006046557616056331 0.001480110689766379 1.129323771835305 -0.9108061382473209 -2.745172525415402 0.6282656088499764 2.959773249934563
4444 7 -0.009120998816749021 -0.006306810357148104 0.00150004991842619 1.129309901848631 -1.027112107877858 1.997082218698456 0.05209738141639701 2.246332746398291
4445 7 0.001806170545837412 -0.006501231454391481 0.001478270704596452 1.129431323257317 -0.9315262335717751 1.971787985510063 -0.2879475403191497 2.199682424717281
4446 7 0.002730018042346282 -0.008744428120153106 0.003003518555904883 1.129463410310004 3.313231625539432 1.169115560920163 -1.632973316393502 3.874395030364551
4447 7 0.004818998955288648 -0.003501940857023663 0.002984079529240556 1.129423255461328 -0.8092264135976723 1.064406319715376 -0.3040135392425459 1.371215677403435
4448 7 -0.006234736840113471 -0.006989543331651533 0.0005619832972154113 1.129340082593397 -1.832979811146835 2.265836405515756 0.2810688378992682 2.927939428381417
4449 7 0.001526062259831507 -0.009807592457726267 0.003001096626265648 1.129488922590192 1.715349850760394 -4.897829063074277 -2.264164499864373 5.661942734083845
4450 7 -0.005398393555746431 0.007682189800379276 0.00299609834987102 1.129359737895122 -2.228690754771269 -2.653390592425001 0.2238453356136784 3.472412828372863
4451 7 0.0007300228044292098 -0.00659800935122795 0.003484699105247369 1.129440080314681 1.145690138809631 5.454213836795099 -1.605429006829812 5.799866961200344
4452 7 0.001469292345374056 0.005878199899459768 0.001035796010128345 1.129424336251809 -0.9307484568521581 -2.076383925301256 -0.4751770869586253 2.324533535820168
4453 7 0.009393784111280067 -0.006071034618575747 0.001466394981212506 1.129441338224336 0.03892627791382185 0.2680422123542311 0.01147887162932407 0.2710971176716148
4454 7 0.00965260105222885 0.005662756642138638 0.001511684560681945 1.129441749937366 0.06473836566052799 -0.2838413018467414 -0.01305421101336715 0.2914229796149074
4455 7 -0.001321975769615248 0.004147776827434611 0.000968931200092136 1.129359612527396 -3.249181469073404 -3.475711147689313 0.2151065548472661 4.762774299825683
4456 7 0.0008891048430769233 -0.00704879501108602 0.003172158439506812 1.129448667453644 1.198773719044242 4.496038155472589 -1.918421785529082 5.033066627030593
4457 7 0.0005748654098713881 -0.003162696394771114 0.001530003366347784 1.129377276997522 -2.490832298490883 2.30895143630832 0.5617967335003937 3.442545256667999
4458 7 0.002790425248592836 0.008307697482450697 0.002495259388772365 1.129457758606905 0.1717922201408293 -1.699704995879197 -1.004861849617171 1.981983091939399
4459 7 -0.002998230571503817 -0.003343087564148675 0.001487712494891534 1.129310623743726 -3.44151428920083 3.883283352061683 1.028072842572149 5.289692237248524
4460 7 -0.004122477111360785 -0.008306789279496933 0.002499712129038918 1.12938687926343 -3.014649077793238 2.700995690273577 -0.2100397829240515 4.05309801158655
4461 7 0.01132646240659159 -0.001965248188136354 0.001760400513899311 1.129437989040408 -0.08360497508073729 0.09214841766588357 0.07910099818970442 0.1474384300349961
4462 7 -0.003301767871337759 -0.003475348235549123 0.002487712494891534 1.129298352041041 -3.515232951504411 3.846645760262825 2.215211182735346 5.66221748897074
4463 7 0.0100773574175863 0.005217898997351763 0.003002291852417224 1.129440987966956 -0.007906993573079337 -0.2531602695961683 -0.0244409651391894 0.2544602197324847
4464 7 -4.517215352481938e-06 0.007412760424124951 0.002718975887317789 1.129452755716062 -1.726856135266695 -3.552305253320644 -2.642050090737969 4.751982050328702
4465 7 0.0009235617060387848 -0.003686019517710493 0.001037432074655083 1.12938883227762 -2.350219509681674 1.688504059279445 -0.00471384340855118 2.893890101958126
4466 7 -0.0002875733922334962 -0.009617781639720201 0.00154247301219235 1.129457822155925 -1.867274732635122 0.3540449535319855 -1.337960929103995 2.32426379829568
4467 7 0.002011045715327301 0.004417126543825411 0.002411084775445764 1.129412030057307 -1.936153461216939 -1.635700868761168 -0.3005120623654802 2.552354806267249
4468 7 0.01064558011598782 0.003922459764722996 0.00299911005444434 1.129439434532246 -0.06260025195215672 -0.1772830026077744 -0.02107343990635042 0.1891881191501945
4469 7 -0.002839348615556951 -0.0002446445451834943 0.0009668508607305023 1.12927971619983 -4.265143644926992 -0.7724377095953687 1.520326791989703 4.593419628284329
4470 7 0.0007021762363079052 -0.004635794072861531 0.003037432074655083 1.129399343822239 -2.536128134609546 3.15894971381407 -0.08366091434039921 4.051901819905359
4471 7 -0.006499561298388166 0.006263328946490224 0.00248011068976638 1.12932404564489 -0.8931958625968347 -2.733453345109283 -0.02796477507272059 2.87582128573632
4472 7 0.003741831153980668 0.003922486426704768 0.003448376604785651 1.129421307724096 -0.9208763881992328 -1.003262083011194 -0.2408481612129214 1.382951903108156
4473 7 -0.009950409763150583 0.002254710567498724 0.003497685331042665 1.129263227413936 0.6815866908846897 -0.8401867375502854 0.3243268003677663 1.129452099286785
4474 7 -0.006589165514316105 -0.005805210508707665 0.001552172648790051 1.129317860774726 -1.498647858392391 3.330598042132965 0.03591793074001565 3.652412739474098
4475 7 0.005610312725595717 -0.003037405443883875 0.000988045410643928 1.129426526189226 -0.8388428365765657 0.4804141580044825 -0.06568705540857919 0.9689013659476513
4476 7 -0.0004565490883359153 0.006188434202842251 0.003547510077209633 1.129417753522883 -3.180017086493954 -5.449811907741542 -1.362786562616737 6.455241724010321
4477 7 0.002049022467076844 0.006854179442409229 0.00350984695714963 1.129448633652181 1.493677002389075 -3.273205619278089 -1.416894546214491 3.866850936955295
4478 7 0.007391295417220305 -0.008433519648133162 0.00248973028823301 1.129447014357181 0.2497622695490532 0.3868433320878786 -0.03847592713677723 0.4620707216868228
4479 7 -0.002445954357398512 -0.009683257795378262 0.003070252327959589 1.12943224468699 -3.759233495916951 1.009605260896973 -0.8899728003657034 3.992892541134259
4480 7 0.004243748015798304 -0.004623514452973328 0.002484263701179643 1.129426650873925 -0.737145491562585 1.276293340273382 -0.03808908574938457 1.474367303154291
4481 7 -0.003453622720157994 -0.003699253177607175 0.0009688560488546312 1.129312317095629 -3.531008188415798 3.832467051223976 0.9376056770875131 5.294801878359902
4482 7 -0.0005539461348441553 0.0049468524390894 0.002975273447178049 1.12938692214634 -3.128557632570317 -3.879970171437137 -0.01180384301696268 4.984193086374753
4483 7 0.006741142885864904 -0.001034790919847569 0.003485962813416739 1.129426698883187 -0.5427631339187869 0.02265353647466978 0.01711160678899024 0.5435051143669701
4484 7 -0.008930648754517448 -0.0001748198188070641 0.002413113628383117 1.129245684848825 1.600028545175638 1.063932587548119 1.3007759321633 2.320358145183412
4485 7 0.001834465244979255 0.008492717912306833 0.00300890895981974 1.129481254438739 8.122189968190366 -2.36012858186231 -1.970100262178562 8.684553635353497
4486 7 0.003512320193465972 0.00517213597266577 0.003488285932918712 1.129429567116812 -0.8366131642997587 -1.601727911646045 -0.05770819942751488 1.807977910790622
4487 7 -0.001668270978115974 0.000684088726150776 0.0009642364559662962 1.129312423157101 -3.942336754737643 -1.652379912142248 0.5225641736885474 4.306443054009811
4488 7 -0.004973502950665626 -0.0003746959309118335 0.0009462775142337207 1.129245124997325 -0.9449824226450523 1.003666477525292 1.991275931638532 2.421883154311752
4489 7 0.0006757704863847155 -0.00792692009790707 0.001166936530402236 1.129447458856263 -0.5559889700020979 2.545748137155602 -1.216752361485067 2.875837899078232
4490 7 0.008503091852903464 0.001614965633151225 0.003474896871125994 1.129433058666903 -0.4920275653124346 -0.2512622227996812 0.1330010432227411 0.5682544387260483
4491 7 0.002926755433157404 0.008717996579974756 0.002985412431622735 1.129465084523343 -0.3594049056951572 -2.464670121924573 -1.322112169666165 2.819884977321736
4492 7 0.007461556445590749 0.0001720859821182621 0.0009551972495868398 1.129429879745451 -0.6079727814182821 -0.006038645652160374 0.1116314355189368 0.6181657913398421
4493 7 0.003484691532575222 -0.002024581185784835 0.001464433118672405 1.129408705084005 -2.054572496185812 0.6009255065360244 -0.3379028149470497 2.167154336644697
4494 7 -0.005175117512642876 0.0035191603412241 0.001510762086654348 1.129281227031026 -1.469181655564142 -4.02636730888666 0.9682420839278394 4.394043829572746
4495 7 0.006897346384009342 -0.005434822316696 0.002989253839571604 1.129437306816854 -0.4741376770999181 0.4918169113540043 -0.04505197886229632 0.684631354773434
4496 7 -0.002068109415413338 0.004318382960997 0.002968931200092136 1.129344770714449 -2.081465796407173 -3.798733972231286 0.8920820658116957 4.422520781809837
4497 7 -0.004490077339502452 -0.005986072623621145 0.00253480123429246 1.129342096897579 -2.045571103980931 3.161936168206294 0.6383506990402338 3.819645675742453
4498 7 -0.0005048053910463754 0.010689127822181 0.003503163597645245 1.129489140321534 -6.898033862233413 5.442644171356043 -6.915292904483969 11.18152595558053
4499 7 -0.004234101707932279 0.00667106104041245 0.0009998748578642824 1.129359156554185 -2.382258578070433 -2.889649628942363 0.01575907409133381 3.745060648274352
4500 7 -0.0006371366408590128 0.0003438862632473811 0.001472999511639836 1.129333074995233 -4.565848203053403 -1.378779702956919 0.5073062588825279 4.796390614088197
4501 7 0.006226353611169008 0.003108124967704718 0.0009957158451139514 1.129428851273006 -0.6758473344552668 -0.4737268678435298 0.1087964567826423 0.832480290346617
4502 7 -0.0002393061148389498 0.005406949716143096 0.002522783524387682 1.129400976338445 -2.885187144928737 -3.235621769727692 -0.2645700601980738 4.343218900165063
4503 7 -0.007498231218683456 0.002805279276406056 0.001018782530454672 1.129265194793112 0.6623530148457315 -1.253810858385308 0.8408894869871488 1.64858979561492
4504 7 0.007189702991537672 0.006879198969630556 0.00248416494704801 1.129444304533501 -0.03682253110881426 -0.4609906154453056 0.04305115655698594 0.4644584463725419
4505 7 -0.0002796794416045744 -0.0001068484196574952 0.001000120002470811 1.129339867552586 -4.535445414891572 -1.58936139829919 0.4083915338547313 4.823185504496873
4506 7 -0.001833026600132864 0.002109581325647054 0.0009409594998245125 1.129322024070473 -3.679319647316281 -1.64597458688387 0.2048533842600402 4.035912575470128
4507 7 -0.0004934433777775312 -0.01058770779606266 0.003062995816049558 1.129482200523701 -4.039413153328879 -5.972450918889879 -5.834453512961115 9.27512136830237
4508 7 -0.004894822246665926 0.01073763789517757 0.001507558788897939 1.129398129341039 -2.246834808271143 -1.065218021541744 -0.2084871271171063 2.495280138832046
4509 7 0.00635462037641821 -0.003073551312438553 0.00152383841188861 1.129429368523921 -0.4809788883948919 0.4504368939027567 0.006468283258158343 0.6589961495780207
4510 7 -0.003740105764049346 0.006923504858909815 0.002999874857864283 1.129371311140529 -3.570316153313298 -3.447848094433085 -0.06632412690973637 4.963790165458857
4511 7 0.003209552084782962 -0.002568157522653134 0.0009740507709222384 1.129407390405096 -1.801388402613596 0.8398074275559035 -0.006018186593578047 1.98753941118628
4512 7 0.007322153523129021 -0.005663793038293979 0.0004871712423444145 1.129439087961307 -0.2524679051166722 0.6167774710733598 0.06087045860433036 0.6692232098996206
4513 7 -0.002919886279015023 -0.005861358851522549 0.003485479829192984 1.129365668623475 -3.148980950714362 4.174494167561249 0.03676378084562561 5.229133212928016
4514 7 0.001307122404923384 0.00524374439154867 0.001510218247869746 1.12941516536935 -1.317120934353842 -2.936177706745331 -0.1339001968820709 3.220850251723365
4515 7 0.0002051406592522956 0.009898779953295109 0.003503163597645245 1.129529380766216 0.6088613560612628 6.552626512408825 -4.55768777805164 8.005007448105786
4516 7 -0.006364889775138211 0.008440102863819089 0.003499395166421551 1.129357533702558 -1.939122761952706 -2.123238081728421 -0.01436640943700728 2.8755075084835
4517 7 -0.003884697654985418 0.008278707172834134 0.003496703183449469 1.129394191010814 -3.519334370269331 -3.162695371924931 -0.06826060723465716 4.732125942518272
4518 7 -0.007248480285479314 0.002065653230166699 0.001493544738208785 1.129253639841584 0.9022490856456608 -2.32502525421629 0.8641134007177498 2.639410505130255
4519 7 -1.954598484239849e-05 -0.0007521132627046271 0.001492691294163512 1.129346778757276 -4.909028369453423 1.240166363339092 0.338750275045375 5.074576227597685
4520 7 0.007091529546956398 -0.002211065613415292 0.002529349204311007 1.129429594724118 -0.6130674042012568 0.3503547069386497 0.03156574233856544 0.7068213769104037
4521 7 -0.006485591341302475 0.004529193994214025 0.001501812722756835 1.129293341939741 -1.43251594906048 -4.041922142954324 0.8748471774823335 4.376596181733692
4522 7 0.002590680899036457 -0.007788941836864307 0.003493387427409996 1.129457481082268 1.440783936959954 2.591254623606829 -0.817881377080925 3.075611943067815
4523 7 0.00207140635506345 -0.01143269784110537 0.00251095159633068 1.129469270740853 0.1362019815498667 0.09949230895016678 -1.606964168505484 1.615791922921657
4524 7 0.002167885894180466 -0.01091514696908328 0.00100417388874539 1.129461774093568 -0.01383762558281036 0.04748888168054081 -0.3633354034230912 0.3666869088823037
4525 7 -0.003941154794292276 0.008832052419189476 0.002985446217131314 1.129398469128629 -4.021130382629603 -1.560825333717677 -0.7700749973713521 4.38162992253548
4526 7 0.01105020123291672 0.0004471498378409892 0.00151452280866814 1.12943762582196 -0.1077240143635989 -0.05039069760377929 0.007173334585273055 0.1191433691175328
4527 7 -0.002706208996404751 0.01054656814485493 0.001451877118430524 1.129427915497601 -3.150191831148544 -0.7047915979542198 -0.430368144236204 3.256632694848344
4528 7 0.001633663900608202 -0.01026738111769739 0.003001096626265648 1.129477909412197 1.175398867379117 -2.69251405447482 -2.460626650700351 3.83221580095868
4529 7 -0.007571161075927368 0.00470150248666887 0.003485561219539678 1.129287000791362 0.145819733443738 -3.603656152138251 0.3690701885518853 3.625439816295837
4530 7 0.001180568016201367 -0.00475561321799535 0.003543865021362802 1.129407796751996 -1.999764863463995 3.217381989571376 0.2621065242502056 3.797276156143764
4531 7 0.004334882076467477 0.003899803695230076 0.00292187571998382 1.129423726980449 -0.9911254253185279 -0.9697131577625201 -0.2067515614092283 1.401934172918167
4532 7 -0.006948205725809984 -0.005367217759241634 0.0009901893515746399 1.129308924619528 -0.7207779544128018 2.676214077355302 0.4355281006640432 2.805588596688798
4533 7 0.003723496867214716 -0.009226970940673235 0.001076445411337647 1.129455235541617 0.5089119582332885 0.8229682580875951 -0.4132986945683006 1.05218056719578
4534 7 -0.0005454622058788036 -0.006346077086362346 0.003008576661457806 1.129417612604233 -2.976210260683405 5.841540994695865 -1.763014339481974 6.788935724377466
4535 7 0.004311588168222477 0.007213425651124723 0.0009777418260508621 1.12944422851029 -0.1839047167470039 -1.35917607057448 -0.2215539477021956 1.389340378527346
4536 7 -0.007927607008399007 0.008517461639534115 0.002496663237337124 1.129342596118965 -1.422066343232206 -1.585803020737511 -0.09625343529852511 2.132207454480168
4537 7 -0.0005144829194494849 -0.001088026992912903 0.0009839282384899719 1.12933737040399 -4.645388093733062 1.49431794969816 0.685846199955606 4.927778575198012
4538 7 0.0001039518568480305 -0.005548917433682088 0.00297826615853965 1.129407691306437 -1.895894991355159 3.186071318792015 -0.3676804917654209 3.725675403292606
4539 7 -0.004532922744136213 -0.005595196067550745 0.001047463126408396 1.129336457173946 -2.061494870260274 3.039394094368422 0.04430000094702265 3.672824533118206
4540 7 -0.007172286616630671 0.009162574788179421 0.002502239622979357 1.129355386929801 -1.674676266286143 -1.784978697905088 -0.08190142433919238 2.44895843005671
4541 7 0.008502705257416632 0.004358863129510426 0.000990260252809102 1.129438172918501 -0.3012354220035397 -0.3848368271285379 0.05693849769104666 0.4920204828087182
4542 7 0.002718029385324934 -0.0001913293703059423 0.001416435052540253 1.129395520341331 -2.423168264853836 -0.2023538918125828 0.2734295984372405 2.446927723212927
4543 7 -0.0002606456696686 0.00823822598886396 0.003171465810108156 1.129500079568528 -2.630098154767312 -8.991942858351976 -7.13433155502724 11.77587106793527
4544 7 -0.01019211614307442 -0.003235610620201901 0.0004884823834188663 1.129277860194048 0.1851079761755388 1.456386220646217 0.1376213701094801 1.474539056126621
4545 7 -0.01085470691187669 -0.002924439459016074 0.003013201435703267 1.12927306706344 0.01952801109380077 1.341410344215993 0.106353140573561 1.34576151130013
4546 7 0.00341900869804419 0.01094555193279511 0.002515809080157572 1.129466201860202 0.5048706467653665 -0.2224330594352693 -0.3755867415607929 0.6674100960663296
4547 7 0.001594787179494044 0.01159453259351609 0.002507536742058174 1.129473378508705 0.0670790129796415 0.2249147337288736 -1.250000271839092 1.271843901989728
4548 7 -0.005820882342946098 0.00560175100163561 0.00349515430380515 1.129315900132053 -1.747432600748492 -3.625802526347624 0.3336508322477333 4.038723502802223
4549 7 -0.00408338754378254 0.006796346190904095 0.002999874857864283 1.129362803424471 -2.639977147139425 -3.01072607625809 -0.001199305617519763 4.004241786157876
4550 7 0.0003289426408027181 -0.01150623067739775 0.002997743205356052 1.129473631071102 -0.7446657484972984 -0.4900519945679775 -1.246740913221252 1.532658128567769
4551 7 0.009027519788529391 0.004826654421498747 0.0004913716355457505 1.129439874730637 -0.1276915086967491 -0.3087724551005269 -0.02178792669610103 0.334843641378739
4552 7 -0.0004926953039760156 -0.00572008496515424 0.001502143714750088 1.129399965839035 -2.397741077910501 3.062314620078563 -0.2023944572439917 3.894598390767579
4553 7 0.005784621429897409 0.003550185072965493 0.00146921496031212 1.129428786900247 -0.5092307289719761 -0.7633823761754472 -0.01165908388922863 0.9177170161992957
4554 7 -0.001052306738099947 0.002728734176833166 0.0009409594998245125 1.129344050964463 -3.667723425918932 -1.637089160095402 0.2046973195736011 4.021710710602764
4555 7 0.01167136904737862 0.000945305671881822 0.001333748833021321 1.129438100468602 -0.08627421036953496 -0.02154000678148952 0.0005761162296133756 0.08892436773429099
4556 7 0.006427104118471396 -0.0007026256999461122 0.0009662631918775845 1.129425934974426 -0.7634514642771781 0.04945140023020216 -0.07662157217791259 0.7688786930424787
4557 7 -0.003922438281069275 -0.005415828766973165 0.003485479829192984 1.129335146748856 -2.404816009414729 5.346764955690506 0.9438940118182844 5.938179134725045
4558 7 0.003110158840566064 -0.007619256270602327 0.003493387427409996 1.129452290558964 0.5170671218603554 2.232811124240348 -0.6313582411149214 2.377270946624328
4559 7 -0.007083881987335765 -0.003545173466275425 0.001457645457994155 1.129276405846793 0.0913083621994033 4.223271216220059 -0.1987671494057879 4.22893194109852
4560 7 -0.009355850019310377 -0.005953426285347188 0.00250004991842619 1.129304128629421 -1.026891128175836 1.998616872362871 0.08986919634924333 2.24878884381621
4561 7 -0.003571776056841263 0.008730170374688742 0.0009854462171313139 1.129397980263528 -2.714488462149066 -1.929690958158643 -0.02115847896759966 3.330555882487463
4562 7 0.0003346248839014096 0.0055667097710972 0.003021932314951034 1.129413227236762 -2.393602306664022 -3.16660869036323 -0.04985173240143689 3.969789389322144
4563 7 -0.009020439224828241 0.0007864559079582622 0.001474644815203773 1.129253632087908 1.946808841737476 -1.576505513293681 0.7348076478721738 2.610627621681044
4564 7 0.00320006988611354 -0.008500994918029662 0.002569832838747642 1.129456582428972 0.2987785875682195 1.091975527199615 -0.8020749438346119 1.387444922121031
4565 7 -0.00684317412063202 0.009432358570525309 0.001502239622979357 1.129361633051776 -1.685412041765335 -1.789168448807072 0.2116328280203301 2.467088555895427
4566 7 -0.006588236452862426 -0.008989348722589503 0.001006796964985499 1.129361227599068 -1.916071058339556 1.766016522669686 -0.03928240556760532 2.606086292956543
4567 7 -0.001943690815431261 0.005877288483610991 0.003500851209436649 1.129382646304387 -4.195661989199761 -4.533354523121065 -0.0039080201431832 6.17696511504957
4568 7 0.01119490956794535 -0.0002151286128157549 0.00100032416646345 1.129437661182639 -0.1207222744563261 -0.008145053327773528 0.0379905064254596 0.1268206924050003
4569 7 -0.008270764029473465 0.008246023997764085 0.001496663237337124 1.12933665790904 -1.422852892548872 -1.587357397748724 -0.1603518474328784 2.137738659658245
4570 7 0.007010479106013955 -0.002441280731372157 0.001529349204311007 1.129429944401896 -0.6130184437472099 0.3502400451833647 0.02984783514934254 0.7066474332277722
4571 7 -0.009177296727290415 -0.00709084570658754 0.001520260241498754 1.129317586890754 -0.9981068180916672 1.647587425802668 0.1748878720214588 1.934256268896221
4572 7 -0.002693804149407937 0.003996775014647452 0.0004680799906554873 1.129333092685217 -2.950984691261156 -3.9256865132151 -0.0319696169010576 4.911247021327824
4573 7 -0.004090669559555864 0.007221110000477241 0.003496703183449469 1.129371147392727 -3.06103194670476 -3.535379930956146 -0.282365135623598 4.684928804663988
4574 7 -0.00199288781652725 0.007399158227488749 0.003484917943321196 1.129419102131928 -4.612258182198903 -4.407596327487861 -0.7345294917724707 6.42178826337561
4575 7 -0.00058565232534863 0.0002839132830715498 0.002472999511639836 1.129327027934374 -4.610074993119807 -1.309583661510426 1.895402149255816 5.153673458426253
4576 7 0.004123928501979244 0.004851871118946822 0.0009617850481168804 1.129428083805433 -0.7198097966516892 -1.187237267905011 -0.1702078095322745 1.398795614835876
4577 7 0.006962599951900456 0.006996168212549805 0.00148416494704801 1.129444575724943 -0.03563876238880856 -0.4654991961321805 -0.03921836315950459 0.4685058195937624
4578 7 0.0009530461325394296 0.007257668018882303 0.001544098527054774 1.129442158191884 -0.2311775747836284 -3.162350319579783 -0.3799599437143916 3.193473371371153
4579 7 -0.00158625287293673 0.00822870948642127 0.0009716951038800418 1.12942521028017 -2.480006620254294 -2.240206605218364 -0.6234847193838245 3.399660522151328
4580 7 0.008737533539329009 0.003412102780070984 0.000990260252809102 1.129436899700815 -0.3065896445523595 -0.2529073890829779 0.06145778203638359 0.4021646635053142
4581 7 -0.0048816174253986 0.01065866626411557 0.002507558788897939 1.129398932949897 -2.246332139096943 -1.065922391681995 -0.1841415884602584 2.493212134742966
4582 7 -0.009168182929820048 -0.00710420005027578 0.002520260241498754 1.129317567431064 -1.000364229825733 1.643981187199017 -0.1086476051795038 1.927487234274293
4583 7 0.009333029085503422 -0.00606242974293982 0.002466394981212506 1.129441344752187 0.03905869723080378 0.2679504546941593 -0.01312010013684578 0.2710999170560094
4584 7 0.002594040851113743 0.004472596910495283 0.002936662537704363 1.129418494057976 -1.209946920093703 -1.500597034661434 0.05534272482777604 1.928425738023192
4585 7 0.0002482016607874896 -0.00508401090249374 0.0009782661585396504 1.129399041267686 -2.64272942256068 3.002483658456264 -0.1559792329484436 4.002905999555323
4586 7 0.009817360308654934 -0.003888014212584703 0.002970983660099439 1.129438380580431 -0.1844194853031194 0.2350410422217858 0.06285976091025292 0.3052968844090371
4587 7 -0.002465692896761149 0.005843054663157055 0.003004022883851462 1.129371589969585 -3.352303749936143 -4.525030491952717 0.3628031504239077 5.643178848033729
4588 7 -0.002482088367951441 -0.003755909596569779 0.001004336275229886 1.129330034731608 -1.609158688879951 3.234540795832391 0.8566721341065903 3.712887419685199
4589 7 -0.003658472283686208 -0.002127487029141316 0.00147772657963178 1.129274568234691 -3.357152225649674 3.403108090826394 1.534272559412255 5.0205187013493
4590 7 0.0009002490697734148 -0.01131719265739733 0.002997743205356052 1.129475200908288 0.03807319745764042 -0.2539502346715785 -1.246661875982924 1.272833894537563
4591 7 -0.005291424400684465 -0.01044501721540569 0.002512585888725087 1.129389828845937 -2.056852720764193 1.529001437028407 -0.6931844934355992 2.654994020951755
4592 7 -0.0111299430509729 -0.003500964089657456 0.002490019392277228 1.129277608356388 0.04076720102214969 1.283455726244963 0.04653887400044816 1.284946081632765
4593 7 -0.007063577630876471 0.003392387926003455 0.0005210971994120068 1.129274540429769 -0.1235505433321693 -2.955269863038324 1.237179053999318 3.206165421776436
4594 7 -5.284942112031678e-05 0.0004089299622929726 0.0009816425648425651 1.129349826336852 -4.37513818365695 -1.184028892176021 0.3544561996769993 4.546360933877783
4595 7 -8.571667952332249e-05 -0.0007254893322001671 0.002492691294163512 1.129341615169341 -4.918848159461741 1.232032591947558 0.770936885385591 5.129065724350704
4596 7 0.01115579599484934 -0.001452080171812124 0.003112600375959656 1.129437670730076 -0.1077864627918647 0.04934896121063046 -0.0260627616728061 0.1213775476756877
4597 7 0.007615747151388122 -0.002562734478537272 0.003043386390894268 1.129431612052591 -0.4561908108139509 0.3075357359990646 0.1766122981741822 0.5778236657094814
4598 7 0.001861082283660007 0.003848581424181467 0.002922798842527052 1.129406070710396 -1.918923953007384 -1.597537248759057 -0.3160259392106413 2.516796931190936
4599 7 0.000545931126161707 0.008586601357646158 0.003486741492695512 1.129519429251491 7.095757081111368 -5.538523828938864 -7.540856000899895 11.7426370115138
4600 7 0.004314550546560035 0.009194934754869906 0.003486350428952624 1.129459559748017 0.8558355674019474 -0.5645213473072559 -0.5944012459677235 1.18509565487508
4601 7 0.003587806218709334 -0.004669336228209773 0.002982181103952453 1.129424106350808 -0.8249095439239843 1.313004256188673 0.03660952749355682 1.551062922621049
4602 7 -0.0006731368294479431 -0.01119824562700005 0.002539701644227577 1.129463521115682 -1.933319325934636 0.1346252012120637 -1.443593765901819 2.416569991079161
4603 7 -0.002177775434497012 -0.004592488519453988 0.003485479829192984 1.1293482383629 -3.496185018592711 4.565977558602826 0.2011712340843994 5.754296709009692
4604 7 0.002141567296148728 -3.645896721190461e-05 0.00350876305567354 1.129392911065504 -1.953853258197487 -0.06388926663517376 -1.076960593046618 2.231920364156266
4605 7 -0.000133035914928183 0.006991648249648563 0.003232234394622278 1.129446713966526 -3.963013655126029 -5.822813140393311 -1.594553506878162 7.22171939256503
4606 7 0.00473004092881822 -0.009312361117973228 0.00356631428284276 1.129455917873789 0.5882447300459163 0.4559588754054346 -0.4002595947652619 0.8450669214266011
4607 7 -0.01007296287997168 -0.002933277934396526 0.003488482383418866 1.129270607540412 1.203097227561059 1.678276796050663 0.4088232391359899 2.105039758290761
4608 7 0.001783776408965245 -0.008477238068912981 0.003687459334259444 1.129482981943861 7.050352613973558 5.758608902689256 -3.086616888988473 9.612296931269062
4609 7 0.000855566794230505 -0.007414446979518311 0.001172158439506813 1.129439008183884 -0.1600417127964659 3.720092012902716 -1.322050728974268 3.951267652827229
4610 7 -0.000676099180792075 0.008775323175292895 0.0009735186532543568 1.129445107566471 -2.825488192426037 -1.743860834752573 -1.294935121905418 3.563887078242954
4611 7 0.003566309649175615 -0.005263436200222335 0.003500184171939087 1.129428964128848 -0.7781350518797411 1.653650418767379 -0.1498607696277439 1.833715385965563
4612 7 0.004722191472451936 -0.004338905209360438 0.0009840795292405558 1.129426387911002 -0.8971866887982458 0.8801709301400854 0.1047475418996705 1.261196601785164
4613 7 0.005288541719101572 -0.002367459709552368 0.0004859628134167387 1.129422606516468 -0.9336372039775336 0.6014659665950411 -0.1356361444596743 1.118855174411317
4614 7 0.006521923374793753 -0.002493265749088856 0.003021755814661421 1.129428160115116 -0.5814737382946589 0.373898932320667 0.02114572216692872 0.691635208388686
4615 7 0.003745640441828126 -0.002233457263655092 0.002972379279763533 1.129413841167449 -1.216463503272112 0.5127528087009487 -0.06778801108412252 1.321852530379434
4616 7 -0.004155988286069275 -0.00605422586701365 0.00153480123429246 1.129349011041381 -2.13648348282933 3.201926741151621 -0.005388465881719058 3.849275979151006
4617 7 -0.006684273107604851 0.001677566652123335 0.0009958594071661202 1.129250383049077 -0.2788609427626144 -1.658626585972081 1.167439340907027 2.047369090269092
4618 7 0.00712104146151419 0.008855037585448115 0.003006675013507022 1.129450338435665 0.3926157605404962 -0.4753658170896537 -0.06759855510366652 0.6202333110485198
4619 7 0.009066468619268438 0.005206110982661762 0.003000764343810471 1.129440749689051 -0.1272248724691416 -0.3809340759408935 0.08839521302049021 0.4112306555604404
4620 7 -0.006329183709209141 0.0001636125885201034 0.0009455458080546029 1.129240429651269 0.3660370136726325 0.6244594410939686 1.758338462293088 1.901495947123998
4621 7 -0.0003788056413731203 -0.0102335105848988 0.001062995816049558 1.129455788008416 -1.707912992322729 0.8762178323014592 -1.074634900276277 2.199901054111218
4622 7 0.003256194728779999 -0.001980976842445981 0.002464433118672405 1.129407473307219 -2.053164627289248 0.5994009743563554 -0.2214672044552707 2.150305614897654
4623 7 0.0003426576834157826 -0.003542167224400836 0.0004935670532922815 1.129378766370348 -2.727347607385108 1.632854935294563 -0.2880969973358564 3.191808279188933
4624 7 -0.006407772440207291 0.005615280403583914 0.002980715523344829 1.129312691870113 -1.236826682239338 -3.567720957582148 0.5358298905763426 3.813854578337394
4625 7 0.01068769519183953 0.004955418344273558 0.001510030271315813 1.129440660468422 -0.03526391545355675 -0.2432238171379186 0.02702761718959412 0.2472485814867347
4626 7 -0.004459446643824208 0.003080607865937309 0.003494510583437191 1.129243817878624 -6.718418660749705 -11.44333336006077 5.331724518407233 14.30085011566706
4627 7 0.004081792521200166 -0.004468590156250106 0.0004819969320133665 1.129424009061973 -0.9239735902743421 0.8762213459596369 0.09046049561762765 1.276586912006841
4628 7 0.001403896393130217 0.008549479498784894 0.002495650452515251 1.129475257203762 0.6744459210986657 -1.830110408222924 -5.335408175093543 5.680736026399002
4629 7 0.008760687528382313 -0.004156489456020573 0.003023636710113332 1.129437345588351 -0.2728345823873902 0.3535130000398642 -0.03482145156127139 0.447909236377774
4630 7 -0.005635993368120616 -0.01051287454842672 0.003505957228586504 1.129387514184542 -2.707917253451441 1.468368437172141 0.09078274681943908 3.081746781606729
4631 7 0.01010271299597197 0.002866705053455695 0.003005570277750441 1.129437974079932 -0.2561246335641184 -0.1920795954503234 0.07338950045438392 0.3284515454121929
4632 7 0.006576964507667761 -0.007062003220671258 0.001480280564485621 1.129443387234706 -0.09922876171538413 0.631685796690171 -0.007902796213022751 0.6394808418394167
4633 7 -0.001613302994973469 0.007654844102384814 0.003169642260733841 1.129433497894095 -4.312370863604056 -4.023925932514929 -0.8262745915388224 5.955774683133168
4634 7 -0.006857307888214171 -0.009451560645965968 0.002512754193572002 1.129362066710944 -1.807868391606346 1.355131966963779 0.2288070843920556 2.27093008503662
4635 7 -0.003141563596988048 -0.006269470806031615 0.002496695493287486 1.129368548193141 -2.988871532032436 3.598535198474573 -0.2503866205619222 4.684602658647879
4636 7 -0.0001728470049726979 -0.01130355635108139 0.0009676713259487805 1.129458375678659 -1.280662892086816 -0.268671810362714 -1.048603823441407 1.676857764805257
4637 7 -0.001858353891572246 -0.003357531615640831 0.0005188564460369022 1.129334755319057 -3.217530577242965 2.996579516430498 1.079635410341365 4.527428015225339
4638 7 -0.006667998577987387 -0.004602666777295213 0.003488932541432266 1.129288631594173 -1.297452918528596 4.964038168464846 1.106996377614263 5.248857017849248
4639 7 0.002257871002503607 -0.0009791056130575067 0.002491199242332579 1.129392303718276 -2.210866803281026 0.8407063136371211 -0.5637207072521729 2.43156331676234
4640 7 -6.038612751614157e-06 -0.003018844101461457 0.0009861383449849825 1.12936721109025 -3.283950622873561 2.334864617969448 0.1156754569698706 4.031042704941545
4641 7 0.0001751977515306551 -0.005026805984545249 0.003493567053292282 1.12940000387849 -1.884477797131208 3.229912319836023 -0.3384125273679941 3.754745424178396
4642 7 0.007863760439025142 0.004853199758822802 0.003008281325528072 1.129438273681672 -0.2520867311698884 -0.4821532706828577 0.0006527230865247359 0.5440771291917391
4643 7 0.003638134753679107 0.004306143773118723 0.001410161652902531 1.129422330876038 -0.7748291661537505 -1.391828984493522 -0.08252703034018335 1.595104657862785
4644 7 0.008571792543052462 0.004672819664692684 0.002499652961073823 1.129438940278558 -0.29852452023553 -0.4628356135832459 0.02039156167742083 0.5511347477436684
4645 7 0.002297305495526406 0.0002504628846154017 0.0009260527047900864 1.129390828622742 -2.46418637595093 -0.1446850020958755 0.2207517771477301 2.478281580524607
4646 7 0.007181908935453392 -0.001502651366926929 0.002993556203066325 1.129428527274076 -0.6257801913127629 0.2436805937311982 0.03799213464405227 0.6726250678464483
4647 7 -0.001921369885190611 -0.007236739294309741 0.003523877556210437 1.129422006811901 -7.185359625455085 4.131876492125055 -2.091214079999122 8.548390060220829
4648 7 0.008007597445666051 -0.005385848184107343 0.002510807952457747 1.12943940838214 -0.1762766284461525 0.4833581834238431 0.001549499059311272 0.5145007134751858
4649 7 -0.0002459398175466791 0.004743376987090001 0.0009752734471780495 1.129387975565049 -2.608261104157569 -2.571620835201699 0.03145476455048125 3.662956334672538
4650 7 -0.001381306714237221 -0.008919466417836979 0.002549729524102382 1.129455932786813 -3.376927672677338 0.5748630067448399 -4.406896259280375 5.581652320153689
4651 7 0.001832436925953001 -0.00501129048287156 0.001044049193301889 1.129413136655193 -0.9135445960639503 2.170291844336032 -0.3507164732566326 2.380699994371973
4652 7 -0.006473414636338686 -0.009646193297435034 0.001512754193572002 1.129368215116457 -1.80173709903004 1.354520846504886 0.02913265489895403 2.254291908608768
4653 7 0.007887263909267889 -0.008114991538346751 0.002979088027599964 1.12944583693495 0.1844091324844778 0.3740742666003447 -0.06408642808592906 0.4219542100051574
4654 7 0.008223109437541341 -0.008496842062946701 0.0004919167852555493 1.12944609450055 0.1755945389834092 0.2929416767511671 -0.04278474107844809 0.3442074987093267
4655 7 0.008246902991364812 -0.004853199356019801 0.003023636710113332 1.129438290420115 -0.2013580800564038 0.4542024462293065 -0.03634999169359664 0.4981628854710192
4656 7 0.007294359631613729 0.0009426310543440823 0.00295519724958684 1.129428607741708 -0.592492550019743 -0.3148611245585388 0.1177940838650556 0.6812197852241031
4657 7 -0.003096504957968199 0.007654838741532412 0.0009816211267706654 1.12939351310657 -3.100797124584549 -2.096855433714784 -0.465472440173005 3.772056482913748
4658 7 -0.006314519944904833 0.001186725278487791 0.00146664300746661 1.129240591876798 0.6168248291770688 -2.214836491556181 1.582008011174069 2.7908283540263
4659 7 0.00879612719395614 -0.003760128685532509 0.001506776661344121 1.129436790329579 -0.3142503326195274 0.287101610134482 0.01626969926680031 0.4259639764199877
4660 7 0.005677042823852473 0.00536314848174199 0.000964890512296406 1.129436508916801 -0.4663666955241014 -0.890344034972141 -0.07635095273465341 1.007988027353516
4661 7 0.00734029019521769 -0.008312160970270977 0.00148973028823301 1.129446644305541 0.25044307446673 0.3870687294925388 -0.0236432978695425 0.4616307403471569
4662 7 -0.002941289332060001 -0.007529755332740345 0.002509437673775294 1.129395289243091 -2.878917942054191 2.817997723504055 -0.4028520092211998 4.04865032178492
4663 7 0.004702691692397123 -0.001650610059735035 0.002976345161166905 1.129418315343731 -1.077552267882981 0.3956467597418407 -0.201604028988 1.165461038824622
4664 7 0.009092446748134987 -0.0002776413596095782 0.002975221037589444 1.129433876044557 -0.4633724179380699 -0.0633486996240402 0.03915360486035883 0.4693187192339459
4665 7 -0.005938189097487967 0.007411560156445255 0.003499395166421551 1.129348471052795 -2.13733936471788 -2.562578677865003 0.16499250622964 3.340995595228002
4666 7 -0.001586732177013861 -0.008239461966083541 0.001501576762034023 1.129427326015892 -3.527462711598222 3.128811012044147 -1.069188274520359 4.834833512870574
4667 7 -0.002937480516605618 -0.00411207521002828 0.0004854798291929843 1.129331728083512 -2.904797059310569 3.042842471318153 0.1986660714744027 4.211437340029169
4668 7 0.001545764803093897 -0.007109258216109042 0.000978086532657365 1.129435596358103 -1.010289280702183 1.839089489895798 -0.355358295591395 2.128195033541932
4669 7 -0.005261668521443726 -0.00261898358713639 0.0009531777813427402 1.129268633505682 -1.4256749125402 2.915090663106853 1.188286310020929 3.455767191950641
4670 7 -0.002516418740572308 0.009836661469927961 0.00297552019424069 1.129439037055408 -2.916306631392044 0.7185827449465649 -1.823695899911189 3.51384010236508
4671 7 0.01083131099992803 0.002783976209659499 0.00247504006843 1.129438537406182 -0.06880131336517047 -0.1313795477550904 0.0124821445119146 0.1488287949985512
4672 7 0.00874029696468121 -0.0007454412239360145 0.00248281442723903 1.129433332120096 -0.3650146640590541 0.05525915931650265 0.1581967429077097 0.4016409953342894
4673 7 -0.003215252700268234 -0.002047457709013468 0.0009943503599701335 1.129284273880354 -2.499979998022836 4.228934659128636 0.879003331881429 4.990634749122836
4674 7 -0.003415658683946781 -0.006944993631011906 0.003487338107884064 1.129379508078873 -3.522758473805058 3.335169490931175 -0.07141490952195247 4.851626828941555
4675 7 0.007001815968048617 0.00284885578935133 0.003498888617263351 1.129430498629364 -0.5203662566089259 -0.2995012310416003 0.1647655539157532 0.6225991617162566
4676 7 0.003104572014264221 -0.009060266289508588 0.003510131128494887 1.129465394122822 2.228993656896707 1.838655995645383 -1.935024248357682 3.477554806834923
4677 7 -0.0002943658207751155 -0.0001401974693288664 0.003000120002470811 1.129328656903793 -5.054371853596169 2.263266284539863 0.7231819107329466 5.584983543858603
4678 7 0.00464315202803565 -0.007301474547100549 0.001048781344350919 1.129443862541947 -0.1560140038340211 1.159688333857223 -0.2384636220153415 1.194186878215273
4679 7 0.005404847946417614 0.005922834251225449 0.002964890512296406 1.129439351458825 -0.1589640248717208 -0.9022585083548018 -0.03910200105260879 0.9169890640505846
4680 7 0.006970786948215882 -0.007495861843682223 0.0009978135029774613 1.129444812548897 0.03576739607011986 0.5339325529983845 -0.08418591985468672 0.5417107594231346
4681 7 0.001141220279651814 -0.002587125818147767 0.001528490151964375 1.129380618927796 -3.371603647114588 1.413958880749042 0.124217432891266 3.65819912529643
4682 7 0.0006043454047909788 0.005340855305896964 0.001021932314951034 1.129409266377046 -2.077291540228525 -3.032434522365096 -0.5393268758890251 3.715060262578905
4683 7 -0.00500377354652054 -0.007306565251904773 0.002563473416573538 1.129358007057855 -2.54508028007842 2.362609561676206 -0.0241958369528642 3.472742865732177
4684 7 0.000625769014194496 0.009425038676655707 0.002989905090340756 1.12949908113236 2.36730684462362 -0.8976271241008913 -6.546127123122135 7.018664863248476
4685 7 -0.007161628145863347 -0.001057708510571616 0.001380717913657215 1.129245888628212 1.275929571327922 1.186564102168183 1.871723838670804 2.557201745618013
4686 7 -0.006022321447128472 -0.00551153599332649 0.001050915838647677 1.129317859210516 -1.834148053712831 3.312812941510705 0.1891014993924222 3.791383394679551
4687 7 0.001338509823131055 0.008515468745880914 0.001495650452515252 1.129457169920067 0.5084742168859777 -1.725319322241819 -0.9324887633924821 2.026032597662737
4688 7 0.009338464446436498 -0.00247054559173022 0.002990733340880374 1.129435797722337 -0.3447943089242919 0.1750053622304715 0.000769685306795613 0.3866659859510144
4689 7 -0.003238800109580439 0.002657608997274806 0.002962590574092678 1.129263968521634 -1.732149366601687 -8.987588382121521 3.656381966370505 9.856277970850041
4690 7 -0.007020325560008539 0.004964597450734053 0.003485561219539678 1.129293685723178 -0.8997917759206194 -4.136968873018242 0.1729351724663453 4.237221173152538
4691 7 -0.007483552715092613 -0.000613954167805988 0.0009109163519761218 1.129247772197297 0.5236485984809568 1.669388024369203 0.9078182732723186 1.971090623965706
4692 7 0.000766515345241651 0.005975310813808061 0.000547510077209633 1.129418437259506 -1.746820079576062 -2.197118532883334 -0.8986737898103795 2.947257168697989
4693 7 -0.009414661749794079 0.007151863755804871 0.003505185050544919 1.129315698714336 -1.246977839167764 -1.944034985668575 -0.01209396428935308 2.309625948254642
4694 7 0.01163697558747379 -0.0007341527028200673 0.001307368092754833 1.129437843975615 -0.1141453857217195 -0.02948663310898719 0.04295612539969176 0.1254745365523148
4695 7 -0.0007550018956465549 0.005842701704067225 0.003048361286646282 1.129402504981782 -2.409495436250708 -3.971202111071114 -0.4148222467696578 4.663495680356495
4696 7 -0.007869618966231147 -0.002374110375839612 0.002404867060783897 1.129251625275765 1.599546266131556 1.831423449360908 1.96956250123268 3.129191038371793
4697 7 -0.007774414811119673 0.001721880563050919 0.0009724475387967784 1.129254312131713 0.8897483065093666 -2.333170876650741 0.8500422705065191 2.63778510311878
4698 7 0.0003224044105795119 0.007316526757809365 0.001034251569905144 1.129437742418573 -1.658984917593909 -3.354032365746646 -1.116508376240164 3.904914214357924
4699 7 0.00105598222039326 0.003225300207826695 0.000965225958365334 1.129388974646142 -2.478483912725266 -1.618755114710537 -0.3483847558160276 2.980708399881555
4700 7 0.01065324441168314 0.004931139027101907 0.002510030271315813 1.129440595740855 -0.03419317499856291 -0.2423603198471502 -0.01815842202140838 0.2454331398633911
4701 7 -0.008546792345964761 0.008222215676797019 0.003505185050544919 1.129334046200526 -1.664031026170438 -1.957274743897852 0.2508185179745849 2.581246522151112
4702 7 0.0006886984298601366 -0.005552428737619209 0.000484699105247369 1.129410133646608 -1.863335771310653 2.029136879869727 -0.8825797575335066 2.89281242086334
4703 7 -0.002920121932537226 0.00971532403477776 0.003488743033681845 1.129433196464729 -5.37391141050177 -0.9581752411492878 -0.1773804371594731 5.461546251764193
4704 7 0.001995331631789679 0.007400905974579791 0.00350984695714963 1.129461233301876 1.569656290408197 -4.613733718480049 -1.652534148583139 5.145991528101378
4705 7 0.01115061586303353 0.003574404146826002 0.0024685798451239 1.129439294600515 -0.075825183510682 -0.1489715614170069 0.004683964404321319 0.1672241731568454
4706 7 0.007393219552945449 -0.00529316611779153 0.003022964243589096 1.129438296148093 -0.5030940028142644 0.4806816058111702 -0.04595995969519204 0.6973311263152305
4707 7 0.004595103813562395 0.000536795333098958 0.002387972375327558 1.129415265019986 -1.184886916574801 0.05797403435119153 -0.3036348224625046 1.224545670500259
4708 7 -0.009710675367377873 -0.006743615553868416 0.003508083214484921 1.129310435005425 -1.181197469440187 1.980867558217132 0.2148303784023232 2.316293555768242
4709 7 0.00629915044963818 -0.003206815826759217 0.00252383841188861 1.129429339335063 -0.4858605265854492 0.4523347474864102 0.07030125252224513 0.6675398423942056
4710 7 -0.006779754494758389 -0.009778235886534198 0.003505957228586504 1.129365736779969 -2.238806381060587 1.607642774220343 -0.1886764475192844 2.762674085596957
4711 7 0.004345639744504096 0.003286849935346661 0.002418702947834419 1.12942074435334 -1.184252859831104 -0.6119964711284184 -0.08179076073522916 1.335546421968714
4712 7 -0.0033010041789019 -0.002578234439835991 0.001002232665698549 1.129292816154269 -3.133704851959284 2.627066908868395 1.102271848943632 4.23516113882791
4713 7 0.002386940211223979 -0.0009751816189372063 0.001491199242332578 1.129392313970401 -2.199296377560594 0.8260234813417854 0.007664295331604551 2.349314387114267
4714 7 0.005730339660380132 -0.005753704628600279 0.0009845496587353487 1.129436907319541 -0.2690301668487118 0.8493975862376697 -0.09599409135967292 0.8961408124602932
4715 7 -0.007376025233758471 0.002397512158428114 0.003018782530454672 1.129228549629495 2.539778589142609 -10.05774714309934 3.669687729407405 11.00342496260839
4716 7 0.004797095184774328 0.000860529322790094 0.0008975900275773922 1.12941591553367 -1.273002682468332 -0.1886626886292018 0.07336208766056321 1.288996289970721
4717 7 0.001402487152381302 -0.002781443414549124 0.002528490151964375 1.129386805997439 -3.371109609102431 1.401350758227025 0.0004610066685659974 3.6507758294222
4718 7 -0.0008644893605852741 0.004758679153887327 0.0005008512094366488 1.129378390788403 -2.909133673292893 -2.616051512845205 -0.179158547532858 3.916488482314274
4719 7 0.0003275259221155729 0.01146750859327904 0.003014083849701873 1.129476224869215 -1.167896480959171 0.5973624344521757 -1.392848795774651 1.913335264981634
4720 7 0.007046140979225478 -0.002844934614210835 0.003535793001244682 1.129430177443588 -0.4421539059753958 0.3215716707725731 0.1675773873838742 0.5718309162463747
4721 7 -0.007456103518899798 -0.002970813772808453 0.002968712916561889 1.129253125008597 0.2496917368625613 4.155463528430517 1.722193822824521 4.505127596744468
4722 7 0.00833964761572807 -0.002987166165980402 0.003043386390894268 1.129434274068367 -0.4790895064025624 0.3150651557872032 0.1776906508766125 0.6003055679778588
4723 7 0.006811027798667099 -0.0001165361855956901 0.0004803003784608457 1.129427456128417 -0.8014809056133079 -0.03805529748709478 -0.02591446503024995 0.8028022217379343
4724 7 0.01079416659561649 0.003481553772369449 0.0009608414262253103 1.129439214237405 -0.08293617111534503 -0.1692650344617509 0.02577254708230891 0.1902453272848544
4725 7 -0.008546593653376582 -0.008222448425510171 0.003510920216871459 1.129333967797495 -1.690495693693127 1.929727836294637 0.1871663292560941 2.572286229674409
4726 7 0.0009782546432218074 0.009299770544619388 0.002488967093010866 1.129481441654243 0.06451930354694795 -0.7519323623417778 -5.365111295997818 5.417931730514002
4727 7 0.002289943481675525 -0.008620737325103394 0.002690977890164327 1.129462414514951 -0.03699742080842208 1.05123194151177 -1.71819412460406 2.014608759492769
4728 7 -0.003391331428149825 0.007054279469667806 0.001484792801185479 1.129379561738499 -3.314972155489566 -3.328027575162222 -0.05815081394277063 4.697679155697363
4729 7 0.004447711121131813 -0.009103741633645307 0.0005663142828427598 1.12945215763648 0.1758659889167439 0.6935354697208264 -0.2594937231983965 0.7610895388835125
4730 7 -6.753580029085791e-05 0.0003755809126216014 0.002981642564842566 1.129338615688058 -6.745410387908394 -3.78274041988454 0.139024721775102 7.734921735789922
4731 7 -0.006971427710215129 -0.00335332899292215 0.002457645457994155 1.129266991470589 0.1621820039912769 4.319701621856026 1.830943037387702 4.69451568433238
4732 7 -0.008944864909481411 -9.933039892374935e-05 0.001413113628383117 1.129251471082704 1.576176837254971 1.11550931073164 0.8513914944279194 2.11034639844085
4733 7 0.009180121928931754 -0.007146337180674313 0.001501733315769899 1.12944307084879 0.03882120162145052 0.2767160077970915 0.02263989354679839 0.2803415763783597
4734 7 -0.009790758038048502 -0.006729017264034588 0.000508083214484921 1.129310998299925 -1.152717956054114 1.688831313316977 -0.02032306748685276 2.044828334633887
4735 7 -0.004441996912596613 0.005319598137179333 0.002998325978219964 1.129326173887343 -2.049877327107562 -4.487455479697535 0.7016384156200065 4.983126549138686
4736 7 0.006507357459484477 -0.003781680934712676 0.001037875598471871 1.129431725709298 -0.4944557489499452 0.4895546429992855 0.0403206738680747 0.6969763216157238
4737 7 -0.00282489403851616 -0.001737879647405859 0.0009943503599701335 1.129288155621814 -4.862487801518093 1.814266309358018 1.391933934326485 5.37334439048098
4738 7 0.006946214721575729 0.009477682919156927 0.002498026119612691 1.12945201002496 0.3381119201739227 -0.4370747778196433 -0.1382805402641679 0.5696275447918032
4739 7 0.007760128330784695 0.0001682180588869297 0.003474896871125994 1.129429922148426 -0.5499583930800251 0.01197612220876576 0.07748805970788337 0.5555196315339497
4740 7 0.01107073378778553 0.004025920079002436 0.001468579845123899 1.129439748212083 -0.07575321516375659 -0.1512017874550449 0.03289846645622764 0.1722870837654944
4741 7 -0.0004119272574043355 0.01174628509975043 0.001011225245622042 1.129458671270253 -1.682422507828221 0.1482263599511808 -0.8983765158819977 1.91300729557408
4742 7 3.057451192863719e-07 0.01129114494917745 0.0005031635976452445 1.129459833359532 -1.463999858323991 0.007876232331268739 -1.093481091273808 1.827309091856591
4743 7 -0.006782099403608495 0.009774433134296087 0.003510761436187152 1.129366241050731 -2.282418398144806 -1.685235866540235 -0.129352520529182 2.840103122182498
4744 7 -0.005673029626010353 0.001548973638180154 0.0009918807997124962 1.129249328594334 -0.1071067249419258 -2.539451387460736 2.042341179633417 3.260589316953372
4745 7 -0.004226763320075162 -0.007633320436059301 0.003487338107884064 1.129376468931891 -3.343981542318189 2.658881540276794 -0.3283361304416877 4.284818340973495
4746 7 0.003208509228573845 -0.001368786780033704 0.0009824361866590384 1.129403069958621 -1.879439140550919 0.3318386025031449 -0.1678271025011175 1.915874285405997
4747 7 -0.005137961687292851 -0.008196414349333403 0.003514152011474062 1.1293697221466 -2.538622542619481 2.818823008993233 -0.4207751237809025 3.81672887099913
4748 7 -0.007454552396073746 -0.00718840289872523 0.003501256810142374 1.129330792687146 -1.307560724695821 2.283849966368444 0.06202947010993812 2.632400686219771
4749 7 -0.00241886643116498 -0.005982366864003946 0.003009357385403422 1.129375953324011 -2.301471778524268 4.164205053440803 -0.2457406494119827 4.764217096356861
4750 7 0.01084594332765065 -0.003452955748917153 0.003483139951230789 1.129438556355697 -0.04732262146010308 0.1406787441808192 -0.01243685520809898 0.1489450064071159
4751 7 -0.002798803701727891 -0.003572667584527994 0.003004336275229886 1.129308215364067 -5.461286795515434 4.609526868515501 1.008079426655556 7.217313596130056
4752 7 -0.0007746163762116608 -0.0004427621498657711 0.000491356946797271 1.1293304591993 -3.758116900267624 0.3755882116234083 1.592797498595604 4.098964870832637
4753 7 0.0007264481407958101 0.006598487305041229 0.003547510077209633 1.129445745688998 1.241410277338205 -6.402931832864319 -1.882198027097449 6.788321217075521
4754 7 -0.008200858018491278 -0.0001965545372075763 0.002910916351976122 1.12922096046167 6.914682197029969 -2.123573338032533 5.528469719257268 9.104195244208594
4755 7 -0.006744116772321014 -0.0009860079691915889 0.002944563769435207 1.129190187145281 5.799214774737021 2.549859716262508 6.705554725758198 9.224811150169122
4756 7 0.004364167654392377 0.0002924469513791529 0.001387972375327559 1.129412740744623 -1.201075296722681 0.09248523030154751 -0.04637430468469382 1.205523107350661
4757 7 0.009418657156822809 -0.006867402342949296 0.002501733315769899 1.129442564601691 0.03903982145782329 0.2735798870702092 -0.01507110214944645 0.2767619923125395
4758 7 -0.001184221129262285 -0.006702342832933612 0.003523877556210437 1.129424719348815 -2.775388090252431 7.583706207843823 -1.995729426184029 8.318552448649994
4759 7 -0.009097726990567852 -0.003613644298195489 0.003498911354880796 1.129273870082747 0.2062111728398398 2.523881231299302 0.3453502517139853 2.55573205048334
4760 7 0.003573333515987924 0.005270265913831888 0.0004882859329187122 1.129428578929322 -0.6185967653248919 -1.309227930641236 -0.05653807569143492 1.449115691187023
4761 7 0.007210455048831039 0.00877362742662785 0.001006675013507022 1.129449203268339 0.2430781343140554 -0.3959302826406442 0.01862699068210574 0.4649674535657024
4762 7 0.005009133943580092 0.001395691943955198 0.001394417255427992 1.129418639325458 -1.334587351599186 -0.5394734727048351 -0.08336250493370742 1.441909960444676
4763 7 -0.003688377825912858 -0.0089190480115461 0.001012374021154854 1.129398908606358 -2.960446289761193 1.619342120321849 -0.5488466344152999 3.418734234379484
4764 7 0.01025990906540679 -0.002127195327788751 0.0009834641176942383 1.129437337129803 -0.1922925010020232 0.09652354850275531 -0.03799259798971136 0.2184871594835373
4765 7 -2.265134345245365e-05 0.004712600180423561 0.003474422237741401 1.129391324087917 -3.169227125497025 -3.857095519802981 -0.04639142976053476 4.992327972662213
4766 7 0.002727693443900536 0.01075468382035533 0.002992514895026412 1.129471800547428 1.63926299776588 -0.5349951102879688 -1.091214051769486 2.040625161722651
4767 7 0.002933369780781583 -0.001912363116902003 0.0004920538389088719 1.129401755279712 -1.718933082830091 0.735527019023816 0.07711998480882108 1.871277219179119
4768 7 0.0004059944916459953 0.005044555482983187 0.003474422237741401 1.129404752658872 -2.37013161016311 -3.256662422715685 0.01533662671806316 4.027854167809686
4769 7 -0.004699543259374569 -0.007926683674987287 0.003001490119358126 1.129371740752174 -3.038815832693917 2.719479988568786 -0.2014653909237725 4.082959879425388
4770 7 -0.008632412563223852 -0.002635458492624996 0.003498911354880796 1.129253931302539 3.194846502441382 1.89774896842882 1.508835214967192 4.010620778291021
4771 7 -0.0007463043963924879 0.01019259309989837 0.0009899407582040897 1.129452648656299 -2.12720605315204 -0.6853900711398907 -0.9615253642645331 2.432960371298281
4772 7 0.002999435866868712 0.007507359276135548 0.000996197386102254 1.129446076632365 0.07575615220984483 -1.415125719148127 -0.2575914867847308 1.440372580152827
4773 7 -0.0007212926453357668 -0.01102955922373287 0.001539701644227577 1.129456557194509 -1.832358786657495 0.05741136770361326 -0.8087207522168524 2.003712565027409
4774 7 -0.004286871764550194 0.001556002456020496 0.0009652941837376807 1.129261503279089 -2.808510448430727 -1.690135291020547 2.096403862294888 3.890912154590823
4775 7 0.005977255922860662 -0.005215267648948636 0.0005020825972271893 1.12943507769856 -0.3661197725081283 0.6007872508312387 0.09380301441744474 0.7097802576125661
4776 7 -0.002144454452040625 -0.01098344792266246 0.003079331923003989 1.129446657537345 -3.747569923598341 1.162176324042634 -0.8164174089127235 4.007676574525431
4777 7 1.00377475307217e-05 -0.01089570354697977 0.003490965497770762 1.129489691368435 0.8133894154835418 -7.124030599970092 -4.247033995678883 8.333709383640818
4778 7 0.007878867830446452 0.005486414525411256 0.003509392708264721 1.129440210469287 -0.2570059781278311 -0.5565688496382211 -0.06755412487532834 0.6167532058844343
4779 7 0.01014612176443646 -0.002039122775174465 0.002983464117694238 1.129436976530027 -0.2782580529938926 0.09374902947733259 0.0686364769336008 0.3015416895716916
4780 7 0.001128615322698639 0.007871676213864151 0.000996588449845141 1.129448718545917 0.4862099237422476 -1.772475415092224 -0.9551072009122531 2.071303684225525
4781 7 -0.005050414960344089 0.002973141568997132 0.003015607782849198 1.129240283879463 -2.739077624757685 -11.07347486977547 7.361351677893227 13.57622519154785
4782 7 -0.006042782788710371 0.002039815011815697 0.0005210971994120068 1.129259119766613 -0.7552942515898886 -1.726173470500635 1.320295757564017 2.300722743875602
4783 7 -0.007436746207221007 -0.001997487805281385 0.002905955705903102 1.12922434412874 4.623218578165388 8.237382495707779 5.470191807882402 10.91565933955023
4784 7 -0.005465977996256301 -0.003003845718383377 0.002442110322775006 1.129248112452018 -1.13067686799924 4.123621442461579 7.067438473619107 8.260228238913804
4785 7 0.0009996696973775259 0.003067636141619879 0.002965225958365334 1.129385587598746 -3.414516995917648 -1.904591947578368 0.4089563521997841 3.931112069147278
4786 7 0.005287740938208424 -0.00590957284166189 0.00348246706150816 1.129437548587464 -0.1903599590991158 1.00978721482433 -0.06293697137238498 1.029499002241587
4787 7 0.0002758807005197746 -0.01173860817735184 0.001474449033534071 1.129462804209312 -0.8742148223493884 -0.5182041625576356 -0.8657474886748809 1.335030270763287
4788 7 -0.005592630883630318 -0.001520821375562806 0.003469801561681093 1.129169283043278 0.01300134393206221 4.776852545402698 6.281945661733465 7.891852163620158
4789 7 -0.0004710992087405665 0.009466755482200329 0.001476682250899601 1.129455707790263 -2.112060847773945 -0.7183975061279236 -0.9571045768162093 2.427538912658858
4790 7 0.006589133949425427 0.001380261173310644 0.0004803003784608457 1.129427535709435 -0.8298297550112578 -0.2583108223747484 -0.06841788158446797 0.8717929282682152
4791 7 -0.006664251355422461 0.006430950406904287 0.0009849563859612293 1.129327576532046 -1.47307567085203 -2.50860428892472 0.0546690963571021 2.909645359930341
4792 7 -0.007502300987243338 -0.003076777402400992 0.0009687129165618889 1.129269310750851 0.9439227174735061 2.883052768250815 1.136637450225656 3.239587636464977
4793 7 -0.009151568780590992 0.003639407294747292 0.001006985426766513 1.129278860841528 -0.1091569395263744 -2.13384017278823 0.2137629501440026 2.14729684005401
4794 7 -0.009210188585587951 -0.002462880723023838 0.002987393738299662 1.129261111343884 1.214479724158825 2.378036630873673 0.7289242522382066 2.767914338210439
4795 7 0.00244407741944645 0.003904051790851339 0.003448376604785651 1.129412534711064 -1.206102428346014 -1.472962168822908 0.03877899826663755 1.904154518192313
4796 7 0.001513526879456878 0.0116011185764525 0.000510920252056628 1.129464566882586 -0.1039783534326073 -0.2294167604483049 -0.3816817836344403 0.457301357876312
4797 7 -0.008184149111887942 -0.008491206862588549 0.0004926449535114375 1.129339584843561 -1.738231532960607 1.782692783793868 0.07718209602931858 2.491063929231201
4798 7 0.001880304585936059 -0.002800916366931754 0.001035918860271674 1.129393959140124 -2.369841782993906 1.20124295312964 -0.4040520847786566 2.687450984870484
4799 7 -0.0001943885212038917 0.005422522275079493 0.001522783524387682 1.129400428105455 -2.884938741135655 -3.232238449498559 -0.2878713034909094 4.342016446525252
4800 7 -0.006381361658622351 -0.005073543243860459 0.000488932541432266 1.129308923055318 -1.141618064849407 2.585529063332864 0.7018691734112867 2.912193791613887
4801 7 -0.004913871916456923 0.008510625960713739 0.000496703183449469 1.129375625774887 -2.538469302243997 -2.067198566559536 -0.06736060043903143 3.274396702067791
4802 7 0.0003375108093276995 0.0007185059954440241 0.0009816425648425651 1.129359991760442 -3.752836961722796 -0.5202325912741386 0.1921755763311183 3.793594425137562
4803 7 -0.006962241180839379 -0.0004361353139167379 0.003474762207754114 1.129169507561768 5.913032393717171 2.492632790114226 6.606099348139677 9.209653571823031
4804 7 -0.009615420639818514 0.001208684917012317 0.00299988260744966 1.12925339459531 2.63979951002811 -2.114971881839308 1.534045316647553 3.714154351618124
4805 7 -0.003571971612174959 -0.0001226464799334446 0.0004754939139332312 1.129269131967569 -3.308851080726301 -0.6309455453020039 2.10508366361426 3.972148661162581
4806 7 -0.003353207784957195 -0.001601195249147117 0.0004754939139332312 1.129279974032759 -3.367713367448008 2.035413637335313 2.305992502924339 4.560921334980667
4807 7 0.008235027536917015 -0.00517847168846473 0.001510807952457747 1.129439031088955 -0.1773233042802516 0.4844314357771996 -0.0142820237930585 0.5160633162836236
4808 7 -0.004491461037328437 0.009700637125788955 0.000488743033681845 1.129394169526771 -2.319485036709898 -1.4824695868819 -0.3140988686172995 2.770628991910966
4809 7 -6.807789836692271e-05 -0.01184282905504373 0.002474449033534071 1.129467019029097 -0.8472826030380743 -0.5228839399057447 -1.312345236383945 1.647284263107604
4810 7 0.001681132137903924 -0.003351572183466346 0.0005438650213628018 1.129395258792129 -2.16660601720657 1.715600865114541 -0.04645673230551736 2.763987371561959
4811 7 0.004325086742449 0.003853464326791086 0.0009218757199838193 1.129422678287202 -1.023494577266978 -0.9326994733886876 0.09613498766124577 1.38806029883686
4812 7 0.007286679386465414 0.0005561712693745344 0.00295519724958684 1.129428444695588 -0.6142196240191669 0.1074050623898145 0.04654740206223997 0.6252745433775074
4813 7 -0.002673595072272838 0.005694742735765632 0.001004022883851462 1.129366594110635 -2.784072908283697 -3.011050673262801 0.1514219025932385 4.103707678207668
4814 7 -0.001109366867093673 -0.01125926302009471 0.003048736146456816 1.129462353015643 -2.614014298022094 -0.007342086657791676 -1.243813686410205 2.894857015985724
4815 7 -0.004416067790298964 -0.006527844550746918 0.003487338107884064 1.129352923467659 -3.184811469486826 3.564148140218679 -0.2084172467835984 4.784309125710415
4816 7 0.00181594454654249 0.003127767703374188 0.002413602563150985 1.129398707651057 -1.824276435057218 -1.402309807300185 -0.2479092016066565 2.314285263185289
4817 7 -0.007111956562905876 -0.009347526297451579 0.0004926449535114375 1.129358612635412 -2.00287776081556 1.646422657548237 -0.1784261160525752 2.598857974370158
4818 7 -0.007457154925894039 0.006816023647034325 0.0009849563859612293 1.129326316935873 -1.520858919374523 -2.489951219615137 0.05721995230218032 2.918243144709744
4819 7 -0.01129545682820156 -0.003141185975024907 0.001490019392277228 1.129275823752355 0.05970090879894677 1.270323719702922 0.2371370397117959 1.293646213983778
4820 7 -0.005650820140239689 0.01046027408344607 0.003510761436187152 1.129387534667592 -2.66047602585698 -1.469299526969803 0.1667398990063235 3.043809451663175
4821 7 0.001003534311135522 0.01131820326383162 0.003014083849701873 1.129477996716928 0.2692762974894473 0.1665064239846061 -1.413938737200582 1.448950263526717
4822 7 0.005003283754626437 -0.0001143504100411681 0.0009706827262110122 1.129417165201223 -1.193789804337631 0.08027758244630531 -0.05217800134807652 1.197623117265437
4823 7 0.0009128680732226457 0.009265759791715409 0.001488967093010867 1.129463354370548 0.03512176204092422 -0.8907834222902653 -0.903704592003025 1.269413499693213
4824 7 -0.002813562434581508 0.002935173429284789 0.003468079990655487 1.12927814810527 -4.643396724993737 -9.9390133917233 1.37791050672891 11.05638990408223
4825 7 -0.00511345485252053 -0.00731065675320731 0.001563473416573538 1.12935669709272 -2.527763852360306 2.356709640817072 0.09357527118854347 3.457228189720423
4826 7 -0.0030937480004063 0.002496584141297356 0.0009625905740926785 1.129295802572264 -4.950415392100228 -2.048923922313859 1.316332382262871 5.517013026481513
4827 7 0.000283228689589395 -0.006503364704636576 0.003484699105247369 1.12943686765811 -1.285239697821253 6.034515507945739 -1.211233188475084 6.287631058940784
4828 7 0.01123974692296557 0.003918261485916677 0.003507738418898589 1.129439576151077 -0.008308313870935497 -0.1627539489434754 0.02149563114089406 0.1643774258656545
4829 7 0.004682555164941283 0.003402715608662968 0.001418702947834419 1.129422967194856 -1.184855824361343 -0.6115047579757114 -0.07378843979507323 1.335389878424022
4830 7 0.007556510251992893 -0.002842967840356737 0.001043386390894268 1.129432547728663 -0.5555269943543591 0.3285121481350201 -0.02201050643998892 0.6457669357612066
4831 7 0.008105135897839585 0.003108309240365692 0.0004988886172633515 1.129435166951383 -0.4561554057373933 -0.2667996068824823 -0.03949359628797321 0.5299240781129411
4832 7 -0.005626036341225197 -0.004796645214021733 0.003488932541432266 1.129298922577067 -0.5424178743372798 5.698121119300126 1.500301148011495 5.917237951556393
4833 7 0.005947706009460221 0.003434319399649186 0.00246921496031212 1.129428856528575 -0.5088339373711496 -0.7640059747192025 -0.0236528241867022 0.9182464600091158
4834 7 0.003548251920250713 0.01163045897963696 0.001016747077487462 1.129463809318336 0.4390883427722807 -0.396333523094318 -0.2286767567434059 0.6341702400472171
4835 7 -0.004877535426158161 0.007916119309334156 0.003496703183449469 1.129370148905691 -2.615194472779653 -3.037597364753008 -0.003103894920273471 4.008272634811078
4836 7 0.002293587584791252 0.006435296986881986 0.0009981328900683416 1.129434887431373 -0.8711253150529911 -2.002373421319704 -0.4516863894049226 2.229883231765153
4837 7 0.00941215806441521 -0.003847873536700542 0.000970983660099439 1.12943784875965 -0.2468354341117688 0.2592168820067208 -0.05227170646898219 0.3617367202090645
4838 7 0.01054545473467819 0.005632770889268942 0.0005109202168714735 1.129441559079463 0.03665579516650053 -0.1987612016555347 -0.03378294938479146 0.2049169350541237
4839 7 0.008536851040022804 -0.002971162917023843 0.001526526342125056 1.129435139702743 -0.3014578017988538 0.2473411119227086 0.007194048301772053 0.390007931000803
4840 7 0.0009736327856063639 0.002564482645331696 0.0004908037206239333 1.129381091849672 -2.43676029123348 -1.51331778522165 -0.2819374630340912 2.882259559627227
4841 7 0.003170499663889361 0.008889486250780752 0.002985412431622735 1.129464491988321 2.071035004113921 1.083934553755783 -1.006582178946241 2.54505555696984
4842 7 0.00209809442754706 0.01197869136802708 0.001004373144412929 1.129466108178301 0.03267595311685625 -0.2009496830797104 -0.3171885308696962 0.3769045730118
4843 7 0.001998807500451775 0.004456629296760832 0.001411084775445764 1.129411225309422 -1.934217238769731 -1.654547223604444 -0.05715383079597716 2.545975137794128
4844 7 0.001959748653097875 -0.008925487608022864 0.003197590462754331 1.129481509310633 7.038717503650932 5.632964520059047 -3.218627657473256 9.572533487948624
4845 7 0.0020846736108267 -0.009474438766316061 0.003510131128494887 1.129491161116202 6.367246240828646 -1.623971781916655 -0.430381407513417 6.585160377374367
4846 7 0.008937829506070211 0.003684799798195396 0.003491371635545751 1.12943693614909 -0.3848601025701699 -0.4492663586990014 -0.03024335494101252 0.5923446801711564
4847 7 0.0008388873516344834 -0.003038658231330264 0.003036436313055503 1.129378386176224 -3.272620686840082 1.489303290671379 -0.06477250181907707 3.596145982650058
4848 7 0.003792338010669695 -0.01066321832152565 0.003017486173438219 1.12946320216467 1.041343376274704 0.8415625970988029 -0.4678214645142085 1.418266743178835
4849 7 0.001832118134506429 0.00387764687477105 0.0009227988425270517 1.129404045438073 -1.888800166633013 -1.562505672189838 -0.007184475726484181 2.451334669479013
4850 7 -0.006427591665665667 -0.003534930408484602 0.0009587341031133591 1.12927865681035 -1.347753073206186 3.823432972470524 0.7198564489968802 4.117435044839676
4851 7 0.002221089231024035 -0.004699537884614359 0.001044049193301889 1.129412528196023 -1.559537050194315 1.706631450654897 -0.1773807694143399 2.318665706101517
4852 7 0.002572986571294316 -0.006611802279721918 0.0009935715993490829 1.129435156101636 -0.6846609430411844 1.94388136318449 -0.4398808340379838 2.107351539068883
4853 7 -0.003965129115337018 -0.01124806926594498 0.003492476648664522 1.129417381578896 -3.164479905691941 0.9632191759905717 -0.008149598939616341 3.307837763628517
4854 7 -0.004738603717033759 -0.001047188772568801 0.0004754939139332312 1.129256487720132 -1.188218375993889 1.311039418125649 2.228406103024374 2.845431606088094
4855 7 -0.002540611371168479 -0.007280384557473055 0.001509437673775294 1.12939553747926 -2.878441253679444 2.818216720354491 -0.4108274732327387 4.04926521069343
4856 7 0.00933378526732594 -0.0008926619456353225 0.00350032416646345 1.129434487808788 -0.5422422992109235 0.06970621123312562 -0.03155371475756476 0.5476141925233745
4857 7 -0.000794622777304285 -0.003098590222800297 0.001504994791021885 1.129349693021778 -4.500874982060838 2.376324820817217 0.3695002159337998 5.103070219754795
4858 7 0.002845805888647769 0.001959814574629953 0.002356469974526131 1.129403386777236 -2.317071104066937 -0.841451229151668 -0.1974161347089952 2.473020784907856
4859 7 0.008981635483872163 -0.001360461809961759 0.003007917556113036 1.129433943884327 -0.4623166132878776 0.2209907402842904 0.07113643805986274 0.5173335007837946
4860 7 -0.006041607556406535 -0.008741060340023071 0.003514152011474062 1.129364711882149 -1.90987523667021 2.024206399167151 0.009493999062033586 2.783006486175252
4861 7 -0.001622833184029053 -0.009635493031299604 0.003572030318278796 1.129473192176382 -13.71313251936514 0.4140077296676546 -5.138150375751549 14.64998277056086
4862 7 0.01048086549962502 0.005673991598078048 0.003510920216871474 1.129441593205638 0.04744926270076382 -0.2233539975216304 0.02480256756121565 0.2296815362569818
4863 7 -0.004479587037948876 0.005481064060718206 0.0009983259782199634 1.129335146345564 -2.623262719883706 -3.34631986507296 0.2725770795618181 4.260711466552977
4864 7 0.001679989368848578 -0.01218298288390664 0.001000820467835793 1.129462933830293 0.1296581470979393 0.3470163181862281 -0.345191301926069 0.5063482942815261
4865 7 0.009623628768889171 0.0003490526795467354 0.001489419679794134 1.129435616803089 -0.4172129875460856 -0.01208046829328372 0.03210664479848057 0.4186208921345553
4866 7 0.002176538094591041 -0.00523197431178193 0.000500184171939087 1.129417768099554 -1.406067486811896 2.097107283831309 -0.01437041617269624 2.524894303971719
4867 7 0.0008457225314436217 -0.01064632289269379 0.003490965497770762 1.129490454653865 2.684453273653215 -6.319157379761849 -4.145266407142005 8.020054423431683
4868 7 0.008031655049937202 0.001508913122548475 0.000474896871125994 1.129432737820633 -0.4271054069083538 -0.2039384751851695 2.900290279537537e-05 0.4732968741840272
4869 7 -0.0006543735656266274 -0.001029245208525393 0.002983928238489972 1.129324231226107 -5.302072667428044 0.8653769493156089 1.227439450088524 5.510667785189735
4870 7 0.005253035264841355 0.005416591454539517 0.003473499115198168 1.12943665359605 -0.1664690189284343 -0.9444172289059396 -0.005842267652607584 0.9589942484752941
4871 7 0.003939712635307519 0.0003989027053642768 0.002907671996866713 1.129411813840123 -1.179964826103177 0.05882780371768635 -0.3071118317631177 1.220694629520358
4872 7 0.008862194178254575 -0.008479823935976528 0.001015098828681592 1.129445551245797 0.1778408858787523 0.2934494093282044 -0.04179915185732548 0.3456690695176576
4873 7 0.01170362036914178 0.001023404861270623 0.002626474851700691 1.129438085902997 -0.09050342571006363 -0.02763450819906806 0.01384402903074119 0.09563573206948003
4874 7 0.001989504339723107 0.0009719086996163194 0.00241685642541402 1.129389368178597 -2.301679308641039 -0.6559817293768466 -0.569043845808769 2.460050927837747
4875 7 -0.01131345052038019 1.396280769328827e-05 0.0005021972764069947 1.129265720560084 0.2360085689325694 0.01309856114807716 0.459204568396541 0.516469217427334
4876 7 -0.004096012677081434 -0.005038988463214661 0.0004854798291929843 1.129331439846753 -1.955178875997568 3.298259423278153 -0.1078288143713715 3.835735485353361
4877 7 -0.001699644294723091 -0.01144764043503131 0.002556037751182008 1.129451556038529 -2.085182215137366 0.0760076493938022 -1.216836972967914 2.41546149873544
4878 7 0.006813240071706621 -0.007910728542602252 0.002997813502977461 1.129446318885728 0.1002986994191104 0.4951182886997519 0.04693852336001979 0.5073511347039199
4879 7 -0.01022889947501197 -0.000695891897311954 0.002990679659825861 1.129256037333524 2.358932075368195 0.6859077372130366 0.9082168699043957 2.61913875977363
4880 7 -0.005097323527022 -0.003498038539682244 0.002972308761093913 1.129256004368903 -5.882997216151719 10.9619872102058 3.488261285890739 12.92063414235573
4881 7 0.005092207238201791 -0.01066387496991165 0.0005073550449433327 1.129455375829301 0.3822596479511394 0.3607669719620081 -0.1532753969783811 0.5475112727873698
4882 7 -0.007257604843665824 0.001843004879794525 0.002493544738208785 1.129227969839351 0.7718144802328154 -2.745941626960186 7.164181044714621 7.711120739037749
4883 7 -0.005016026985925803 -0.009355189084676828 0.003514152011474062 1.129385672330175 -2.605427459096027 1.655397854287374 -0.2908168187727889 3.100511042178683
4884 7 0.005979034966464384 0.005952074111376288 0.0004913913970982377 1.129439504670818 -0.3830779042710542 -0.6998963177381152 -0.2355832983918658 0.8319272965862261
4885 7 0.0021506063383657 -0.007665251041814594 0.00318084676166944 1.129456485287215 0.5954106903341297 3.248129407385006 -0.9816301659700597 3.445062600305812
4886 7 0.007180197909516281 0.009445713352246837 0.00352329417182197 1.129451759273651 0.451037645794395 -0.3927398606402196 0.01753875583038083 0.5983202854788787
4887 7 0.003279285431951151 -0.002535910358144192 0.002974050770922238 1.129409441904304 -2.696438259719103 -0.04311897292744539 0.3658892042680382 2.721491033257909
4888 7 0.001799218612264438 0.00311733040102835 0.001413602563150985 1.129397487126619 -1.813200627381457 -1.394313245881204 -0.0826258671129927 2.288806015522606
4889 7 0.01007113466728108 0.003526017408490578 0.003491371635545751 1.129438533747519 -0.2764577606024316 -0.2345133149374359 0.05640522691357547 0.3668881817440136
4890 7 0.002791954255283359 -0.006159158527560482 0.003500184171939087 1.129436127062902 -0.3914817505291525 2.293727516811568 -0.1796661989738201 2.333821721003905
4891 7 -0.006190082342809392 0.0009083756748291798 0.002945545808054603 1.129186884471911 0.9085799740021012 -4.944611749048645 8.446740924012046 9.829655902185356
4892 7 -0.003702018376045088 -0.004012618802740773 0.002968856048854631 1.12930008555286 -0.4654125950206165 5.563035383153015 1.564145860509342 5.797458394052065
4893 7 0.0002830867688059305 -0.003361748386744499 0.002530003366347784 1.129373241057841 -2.466726104613739 2.307711417938037 0.330980522712051 3.394085704586613
4894 7 -0.01003103573738011 0.007010483340527049 0.002997868751231186 1.12931077738475 -0.8958843569929957 -1.758944339827488 0.1706455308455231 1.981316196096287
4895 7 -0.002532629606893006 0.009552177253234201 0.0009755201942406903 1.12942350565286 -3.291458105610276 -1.539087242312977 -0.7461785958688968 3.709348796941456
4896 7 0.005770894838053662 0.002518805433185012 0.0004968272278505997 1.129425872905941 -0.6693458940472429 -0.4576423874245982 0.1188391328046462 0.8195018121586732
4897 7 0.0001684623122671033 0.009301947575241526 0.0009899050903407561 1.129457794596678 -1.238415342555979 -0.7733035040769181 -1.416692518850905 2.034376701366737
4898 7 -0.003653974615909874 0.01072255759963866 0.000488743033681845 1.129413095627181 -2.451867550205565 -0.9660066332238381 -0.1041942851923118 2.637362270953733
4899 7 -0.009786911040580567 -0.007377390858836496 0.00301900343135638 1.12931656047706 -1.118150604207417 1.559421921972531 0.01463629076619491 1.918924627343478
4900 7 -0.0006960115911533166 -0.00298810534830985 0.002504994791021885 1.129348828562717 -4.504490825788346 2.37631681295393 0.2989010601958711 5.10163317369302
4901 7 0.006282853260550709 -0.006676696070174758 0.002969638303852574 1.129441932742812 -0.09504347274202697 0.7578836088689923 -0.00328631657823189 0.7638269608882658
4902 7 0.001100027437662509 -0.002168794676207539 0.002984625130601573 1.129375965625133 -3.375510771348139 1.491047188005066 0.04496019813133332 3.6904357606875
4903 7 -0.008824449923004039 -0.008503170360345338 0.001003565170382896 1.129333978529999 -1.434115445161277 1.689421017115794 -0.06763079692727654 2.217071132782101
4904 7 -0.008463919611778925 0.001132779894320472 0.0009724475387967784 1.129252935705573 1.863718518302082 -1.640477861122063 0.8301395137753346 2.617965993022994
4905 7 -0.008510401216507472 0.008845146804454709 0.002997268070915573 1.129340760394908 -1.529925285440455 -1.473245108257335 0.02587240700323148 2.124097904871234
4906 7 -0.006997134746382135 -0.01000437087229711 0.0009986021820979408 1.129365600152801 -1.823172459622372 1.323437832329812 -0.005543298987323761 2.252881763815177
4907 7 -0.007996262664735441 -0.001830074991021432 0.003436154144222008 1.129223732481948 7.279866007913923 5.019071988403052 2.848116042883194 9.289741530940535
4908 7 -0.005665099559660204 0.01055025770941128 0.0005107614361871515 1.129385531595103 -2.34942408917128 -1.435979280659984 -0.2607287609515841 2.765828905057291
4909 7 0.01033837632496194 0.0004412295861563024 0.00301452280866814 1.129436808202608 -0.2804725871657467 -0.03009333934067302 0.06918577123189369 0.2904430273996472
4910 7 -0.009664437073464651 0.006772967946639405 0.000492683700686266 1.129311928027655 -1.121336983346733 -1.898866138594506 -0.1152600777023949 2.208251373379834
4911 7 -0.005740564912427266 -0.002168219351051764 0.0004698015616810932 1.129262890286419 -0.836436308044057 2.172088146239989 1.833247653244119 2.962834718740773
4912 7 -0.0009065534882411736 -0.003828477055029574 0.003493567053292282 1.129356557277383 -4.437053111142874 3.522884219841592 -0.4222131720080143 5.681233800868314
4913 7 0.006208942312122594 0.006763624346337496 0.003491391397098238 1.12944401507205 -0.0486710221178181 -0.8127275213981917 -0.02950528651125563 0.8147180213817248
4914 7 -0.004448884254686029 0.0009584920688958944 0.0004707836003004895 1.129259826951928 -2.695456143655294 -1.404361393887654 2.307906121631529 3.81629996374439
4915 7 0.01048536049315892 -0.001626104383917474 0.0005003241664634497 1.129437301629379 -0.2077565670501554 0.05503114935140853 -0.006669415850490513 0.2150248814886071
4916 7 -0.009685663629737181 0.001254980357337063 0.0009998826074496597 1.129263372949241 0.7679431133874601 -0.6529184443986539 0.2879667316850665 1.048314818645889
4917 7 -0.004005753161449345 0.005646931153511871 0.003503171674414813 1.129338724289909 -2.434721027142898 -4.998074474937369 0.3106095037859458 5.568221726985589
4918 7 -0.008192849884780329 0.006000951444473902 0.003485561219539678 1.12930866698159 -0.438203571104181 -2.482037389722656 0.4867289276654611 2.566989875853835
4919 7 -0.009829888281498422 0.007430551765510479 0.0009978687512311852 1.12931756449817 -1.109084710420189 -1.59966951890248 0.01725664097378262 1.946614819693722
4920 7 0.003378346978061446 0.008537402900969103 0.003486350428952624 1.129463750510776 1.539189922847403 -1.578319562564758 -0.3867949649913507 2.238260173686755
4921 7 -0.007226672062104445 0.006822613766589936 0.00298495638596123 1.129327710513794 -1.367754116543184 -2.551188210308769 0.1010991030307071 2.89646916717111
4922 7 0.003556823604270475 -0.005769495938787275 0.000500184171939087 1.129430609492404 -0.6910975035853653 1.46117479781696 -0.152083302240731 1.623507585463586
4923 7 0.01194205427588591 -0.001606694065160883 0.001889536772164729 1.129438140021252 -0.1079639671067535 0.07089129588177304 0.01157912958862954 0.1296760204018288
4924 7 -0.001620174536647613 0.001425240188768561 0.0004728795091690252 1.129321305700941 -3.853127490087178 -1.426807339591327 0.3750020472195853 4.125893500151946
4925 7 -0.0004490944441666798 0.002353969073105725 0.0004728795091690252 1.12935349801852 -3.626360929863987 -1.689297396279674 0.1641779373635607 4.003894814032737
4926 7 -0.0002303445234050209 0.0008754381160698827 0.0004728795091690252 1.12934797975013 -4.134907017674687 -0.5767575270077787 -0.04278635653886902 4.175156998494951
4927 7 -0.008215262370140667 0.004947929157698229 0.002994861315263527 1.129293404290439 0.03769613985020895 -3.536025538306272 0.3684442444442446 3.555369005852678
4928 7 -0.005684502171837935 -0.003187166969392372 0.001442110322775006 1.129273958289141 -1.063461032160319 3.91154452634051 0.7853477736653962 4.128910397922083
4929 7 0.0006376502254562741 -0.001179903096603627 0.001001334347366241 1.129366049888785 -3.530479843354025 0.3793647167113317 0.09990811107079485 3.552208769663217
4930 7 -0.001384421220540458 -0.01119223426827958 0.001048736146456815 1.129447243913243 -1.935050327378606 0.04386510928816169 -0.831821226849812 2.106720311464917
4931 7 -0.008255395574408325 0.008618330458541549 0.000492083020370654 1.129340056159966 -1.687710774024683 -1.726824830438495 0.04371234601689832 2.414995325248526
4932 7 -0.006027942489120383 0.0003475337751760977 0.002945545808054603 1.129176551317679 0.5453043757544376 -0.8492939007507101 8.486842574291893 8.546645767368783
4933 7 -0.005032869766292636 -0.00362888845251351 0.000972308761093913 1.129290832763268 -1.317387785005275 4.283732720695675 0.9653219917383751 4.584509040908702
4934 7 0.000549140132564557 0.00125345044583885 0.001472446285466499 1.129364971646328 -3.605471757563605 -0.3510115807017714 0.2959271022270822 3.634585062178084
4935 7 0.003875670268449863 0.010961092510831 0.0005232941851311605 1.129460797472498 0.454366720526525 -0.4095344267963392 -0.2376879748938926 0.6562492947520745
4936 7 -0.008514996480136148 -0.008841292216866132 0.003003565170382896 1.129340563824328 -1.581946210752311 1.537933860355512 0.003179815989139227 2.206310151309495
4937 7 -0.009796024838050933 -0.007364036515148255 0.00101900343135638 1.129316745915966 -1.128011766153095 1.552472552913287 0.04359329320183898 1.919500442131
4938 7 -0.001282299384603718 0.008787283085017358 0.0004867771605588453 1.129433326085388 -2.237518732078119 -1.658745590226478 -1.054677906438286 2.978300269587555
4939 7 -0.005915003025440039 0.004467896776203815 0.00349515430380515 1.129286450317512 0.4579768619061711 -4.593917424712724 1.287590952032007 4.79288123897049
4940 7 -7.802176013970905e-05 0.01182140528196191 0.00252214549767867 1.129468903275999 -1.011975655870954 0.5491982564658793 -1.291739919809092 1.730406158509906
4941 7 0.00546000230936473 -0.0005759091002721516 0.001456645539627751 1.129420641576869 -1.200396254937099 0.09101965590577554 -0.05732812509217996 1.205206314518308
4942 7 0.001544180759653292 -0.001362126858923286 0.0004920538389088719 1.129381781976772 -2.542762801416295 0.5254985277561587 -0.2286340203845285 2.606542706770316
4943 7 -0.005032346026952511 0.00277020685748074 0.001015607782849198 1.129270800305035 -1.205196902006865 -2.997629322789106 1.611425150483081 3.610397782109533
4944 7 0.01183050698363732 -1.932977707217142e-05 0.0005 1.129438063726107 -0.06025655862980988 -0.002720457214424872 -0.01468889137536125 0.06208073191579166
4945 7 0.0094433133525659 -0.004273441171769764 0.00348784370886865 1.129438433858657 -0.1420620631761915 0.2721780446192509 0.02792498838874145 0.3082893490588776
4946 7 -0.002830124027714861 0.006702386576853373 0.0009880896177360101 1.129382670550719 -3.130949192865242 -3.522819520482443 -0.1956770391811066 4.717137874374496
4947 7 0.01021158540175388 0.0004054050448157256 0.00101452280866814 1.129436802997211 -0.2694257732295109 -0.02916989464647663 -0.03312364710761891 0.2730170434821175
4948 7 -0.00720428020309653 0.00948311680953064 0.000492083020370654 1.129358708865556 -1.987652321160227 -1.635032407668541 -0.1615236799404619 2.578794800506922
4949 7 0.0007651300850163475 0.003675367325879268 0.003474422237741401 1.129387709580185 -3.420439328595783 -2.595659782867727 -0.03550201029886865 4.293962657235967
4950 7 0.001185518969655806 -0.001152570403008414 0.001000816894582412 1.129376305516878 -2.87337932490953 0.4765832853305728 -0.04020471253147163 2.912912080991076
4951 7 -0.004589791715658788 0.001047117933063923 0.002965294183737681 1.129189055489522 -2.450616701543511 -2.327237951078913 8.433940650978773 9.085863393374249
4952 7 0.00457816533962941 0.006501848131119226 0.0004913913970982377 1.129439567960265 -0.5034646629580165 -1.024682012033005 0.03053878581755016 1.142095665901349
4953 7 0.002003816738049594 -0.01158061486957601 0.0004940427602505031 1.129461221839979 -0.08167192479059747 0.1588303777077813 -0.2220743770374435 0.2849814399541943
4954 7 0.001575855051105666 -0.0008429640052894701 0.001000816894582412 1.129381011035834 -2.479669566559356 0.6850096193174254 -0.1319261276848268 2.57592776316495
4955 7 0.0009823803756976121 -0.001614573804740463 0.001493388186275113 1.129372953560207 -3.312805431794681 0.2378474149794742 0.2307679952001182 3.32934003810807
4956 7 -0.001519564606950147 -0.005887641551281031 0.0005238775562104375 1.129386423264353 -2.672782585394014 3.007270812154917 -0.4203720259357751 4.045263542294093
4957 7 -0.01106012525455461 -0.001852486246919186 0.003488482383418866 1.129266058512884 0.2242655049483346 1.094455604894976 0.08328513991532593 1.120296613547713
4958 7 0.009076681133518366 -0.0005371860169612789 0.00148281442723903 1.129434501110255 -0.363054781052254 0.04841421839912137 0.02875762356684975 0.3673958512304004
4959 7 -0.008429135423745579 -0.00220669756157966 0.002935065499102804 1.129251013628974 2.968673249989746 1.724934430631299 1.617896683583504 3.795524908880523
4960 7 0.004849297116369293 0.001330251993918814 0.002394417255427992 1.129418011500007 -1.322730904991947 -0.5281935579503091 -0.1856688297928438 1.436342019171501
4961 7 0.009948903693455472 0.00253973010154403 0.001005570277750441 1.129437644682771 -0.2323988701949098 -0.1883605066357555 -0.0328919246224411 0.3009498197927976
4962 7 0.001134504643221809 0.009713169186973231 0.003002225600315355 1.129500498231283 -0.7567686894764404 -2.402105165002144 -6.142381210301126 6.638648582788683
4963 7 -0.0009633517103599326 -0.002397933347559166 0.001011427737729603 1.129338471776294 -4.372949822990464 1.861122995161034 0.6957996175139055 4.803187073729484
4964 7 0.003574623858031479 -0.008816833087385144 0.003076445411337646 1.12945856624179 0.9098956718655892 0.3988704826031912 -0.3597390655236877 1.056607775305336
4965 7 -0.001419838584402932 -0.007737144254312329 0.00100335475235323 1.129420862199217 -4.359794941992757 2.428698266328311 -0.3113718134766515 5.000333949979692
4966 7 0.0003560830988055774 -0.01049119920527949 0.003490965497770762 1.129502409723492 1.957018542616575 -6.216831510981151 -4.00946000329007 7.652103314125868
4967 7 0.007044869600446464 -0.001804649568859543 0.0009935562030663246 1.12942912689285 -0.6289822267735684 0.2298135654437608 0.08135270497498152 0.6745748135423948
4968 7 0.003492789292568322 -0.007860026614823379 0.001059701710252756 1.129447535897588 0.2614007649637854 1.213222026820484 -0.4091370444794251 1.306763623403794
4969 7 -0.002268059264220697 0.006252029791071339 0.001488940827172659 1.129383798251854 -3.019627406251622 -3.633629305869638 -0.1425581820813359 4.726704395277845
4970 7 2.203430485277081e-05 0.004067251100939745 0.003474422237741401 1.129380058718725 -3.006513372451772 -2.845134754115354 -0.01523910068904178 4.139341331419308
4971 7 0.0002899333044345527 0.0007022339089540887 0.002981642564842566 1.129353553236034 -4.657903871106676 -1.448837033079566 0.8632751578897724 4.953830963923069
4972 7 -0.0007837193620044423 -0.009274940267834495 0.001051507514421589 1.129448475489088 -1.76519842136873 0.3072688081412952 -1.270233232618374 2.196322392661731
4973 7 0.01163251425693234 -0.0008005499046194254 0.002612600375959656 1.129437816453221 -0.1236677533542865 0.001318754599685439 -0.0210082934619298 0.1254464057977485
4974 7 -0.005390346171372374 -0.01106351154742537 0.002998433877251025 1.12939451220383 -2.354425056627697 0.9157608716634588 -0.2011606602741141 2.534245633830325
4975 7 -0.004214848321967312 -0.003793087028323062 0.003483376219661647 1.129283170347119 -2.520126854515935 5.744562665201151 2.13802927198735 6.627383250208946
4976 7 0.01039028754791004 -0.004292008284824653 0.002495009117081474 1.129439191578475 -0.03198235473179194 0.1728946789582456 0.006484156470165136 0.1759473935907962
4977 7 0.008030209136673438 0.008142998894289653 0.003483380841685051 1.129447243749162 0.2444234335252409 -0.3572640039869738 -0.08429358442681228 0.4410054328198151
4978 7 -0.009840500787981861 -0.001100086456727364 0.003488482383418866 1.129251380883091 2.013607256469674 1.263879905183666 0.4685038891834 2.423118340530311
4979 7 0.008783273022084965 -0.007050022371475397 0.003010353285770457 1.129443153187152 0.0694344773188631 0.3075946129497427 -0.05375527965950147 0.3198831390484921
4980 7 -0.001705612615975552 0.004129896819950993 0.002968931200092136 1.129348330930561 -4.409246734240303 -3.221968969640044 0.5879425947526161 5.492560177135663
4981 7 0.003543575583510518 -0.007883059812657802 0.003059701710252756 1.129452864538897 0.498134167479772 2.254018865756226 -0.6217284508755067 2.390666217317634
4982 7 -0.002164444037543191 0.0001070368488288194 0.000491356946797271 1.129299917588277 -3.552489085655299 -0.666997515857234 1.116511869360723 3.783075884023888
4983 7 0.009517446198682106 -0.001855392372308201 0.002491057507343824 1.129435784435042 -0.3903352324221091 0.09562318031138896 0.03217024336244128 0.403162883759015
4984 7 0.001296958602138781 0.001112290404207581 0.0009995667762974733 1.129378375419659 -2.76892968440524 -0.5436303695750264 -0.1725507453339821 2.827061961758195
4985 7 -0.004743108972997599 0.007132764661852246 0.000496703183449469 1.129359381599285 -2.516560743452273 -2.714131670182378 -0.08444505056092901 3.702258724770093
4986 7 0.003266209809336665 -0.01060713160927912 0.0005101311284948868 1.129459550924797 0.3269371393928854 0.2454428977945558 -0.4576702933397967 0.6136710899153774
4987 7 -0.00225444675317394 0.005308526735092766 0.0005008512094366488 1.129366537025456 -2.65405468215961 -3.174996390524424 0.024987703521373 4.138264457603421
4988 7 0.009847079587696057 -0.006780162886425543 0.0004913800299994412 1.129442291499519 0.09479087523262129 0.2295878548428391 -0.03246197129435946 0.2504988476999819
4989 7 0.009709000555668435 0.0003907974725719998 0.002489419679794134 1.129435645734168 -0.4170537367753406 -0.01205195282515501 0.02995862348758902 0.4183020296943896
4990 7 -0.006096613212963398 -0.003159764684122332 0.002958734103113359 1.129243396597023 4.435461904836359 5.651600571288363 3.012455907552238 7.790301786297364
4991 7 0.01004907900840554 0.002328185974526137 0.00351419864220469 1.129437138760681 -0.2465782051675445 -0.17215708504112 0.06224601732556344 0.307104932989357
4992 7 0.009205638280961079 0.006678576007783606 0.0005093927082647207 1.129443470955042 0.09562631354280449 -0.2793586460293623 0.001322698977141912 0.2952751166043787
4993 7 -0.00188064975816564 -0.001324920439881365 0.001010213392834173 1.129306425955899 -3.781466772124721 1.639729883191403 0.9543684552949024 4.230723837238284
4994 7 0.004090388929106376 -0.001638799292579486 0.003490382347750167 1.12941478640567 -1.257599785664667 0.4973031247723325 -0.08274819202658529 1.354885560516389
4995 7 -0.002475041052455766 0.002518227151540489 0.0004680799906554873 1.129313593021202 -3.526755459536868 -1.83830369560597 0.329141192991199 3.990701501437478
4996 7 0.008481289655145852 -0.0006631702651934444 0.0009824902607755799 1.129433203423914 -0.4522996843155855 0.05494023694045576 -0.01266970388182985 0.4558003460546131
4997 7 0.004981883610188873 0.007935801914720883 0.0009777418260508621 1.129448725508324 0.2406248270772456 -0.8930327829633193 -0.2524027987304346 0.958704872033162
4998 7 -0.002077071062376767 -0.00187904410422768 0.0005188564460369022 1.129310960667287 -3.640919917861104 1.995059725873148 1.222608684176686 4.327971020316911
4999 7 -0.005779968471968979 -0.005300381480180088 0.003050915838647677 1.129312922461502 -1.668235078797443 3.368905204442295 0.4247940650878084 3.783249998662858
5000 7 0.002504162427594941 0.002423481904789578 0.002939180325409585 1.129402449849453 -2.170193271569478 -1.027987088933751 -0.3689577624640958 2.429532078706193
5001 7 -0.01214732518686663 0.001695480300208259 0.0009978687512312277 1.129270167372019 0.04448890549414469 -0.6439657397667905 -0.009211998559658761 0.6455664161206962
5002 7 0.009203003861017276 0.006785448949632072 0.003509392708264721 1.129443702104123 0.1176670485630884 -0.3034490368464619 -0.01175075766921365 0.3256761160822116
5003 7 0.005082410409134076 0.003221983978020327 0.002970326343048768 1.129424657469026 -0.8086004908361816 -0.6892785987649398 0.1140295586041404 1.068617087983964
5004 7 -0.001213836934953051 -0.003322617979076427 0.003012423499329184 1.12934012156652 -4.258194487045866 2.664847318158774 0.1161704223572609 5.024651936765022
5005 7 -0.0005807890039689605 0.008271713624472307 0.003684724317412645 1.129512667832154 -6.224066507927813 -8.171749937409734 -5.265408941999209 11.54300793819141
5006 7 -0.002824122647472004 -0.008393206137855744 0.003498222009680793 1.129416652740141 -5.371931795517715 1.862952867878697 -1.08289301273686 5.787996361493842
5007 7 0.001085329278901923 0.0005773459538127555 0.00050876305567354 1.129373395533773 -2.697925196356957 -0.364165438135151 -0.0327600508975121 2.722588851149711
5008 7 0.007269611496833131 0.009364303193426571 0.0005232941718219705 1.12945031256854 0.2700121193905838 -0.3229490055267659 -0.03270664555880458 0.4222230801984079
5009 7 -0.003908021499243936 -0.008207286813577882 0.001499712129038918 1.129387584806664 -3.016384707660204 2.697146786570934 -0.2967084625483101 4.057242093425536
5010 7 0.003699455028336122 0.002086109171407247 0.002362493481752797 1.129412456305938 -1.191835398696937 -0.6703022711794905 -0.2690123687329972 1.393608412312012
5011 7 0.004769377357807781 -0.006679149946434116 0.0004824670615081595 1.129439818989467 -0.2663237794358534 0.8915172843575898 -0.07670503633752838 0.9336032810572541
5012 7 -0.003089227364014645 -0.01135323489681299 0.0005073016047251925 1.129423769198709 -2.381516202054386 1.032063252032266 -0.2407636633016086 2.606672422535938
5013 7 0.005503222625828464 -0.005435249735205551 0.002984549658735349 1.129435401175631 -0.3499599963684034 0.8499553068164395 0.02110504553817842 0.9194245187021984
5014 7 0.009521363439522673 0.004695753311894131 0.003491371635545751 1.129439880120284 -0.1838807567727348 -0.3479125554863763 0.04797318799243593 0.3964299506123776
5015 7 0.01227257300316576 -0.0005383538670764838 0.0008070439262913836 1.129438246519083 -0.0654048853009819 0.006015012097491845 -0.01468889375261456 0.06730336537977259
5016 7 0.008472519120447759 -0.005911181174169307 0.002975014951213065 1.129441018400647 -0.07465654012604883 0.3816167692208917 0.04739348742734346 0.3917283499884957
5017 7 0.002809617175750552 -0.003879340188455554 0.001025861953376168 1.129411441773944 -1.551316185668715 1.230909188617497 0.02085266987060471 1.980442923282933
5018 7 0.009331846959773901 0.001016315085990901 0.0009890955133306841 1.129435313441739 -0.3803145956534926 -0.09164658362006946 0.08320993556457618 0.3999527238724233
5019 7 -0.003950807203881601 0.009426686518713999 0.003488743033681845 1.1294054194484 -4.063639651438767 -1.425208109609981 -0.7033076447492312 4.36337335276345
5020 7 -0.003724461479027713 -0.011510124170701 0.0009997782533897144 1.12941673660548 -2.396744144854575 1.037456685681305 -0.2328420055641187 2.622005772326721
5021 7 -0.001926542832282052 -0.01154929808648336 0.001556037751182008 1.129443410857303 -2.067234236650887 0.01227415674742832 -0.7658314683118137 2.204564782890733
5022 7 -0.003143350158921927 -0.006190673582267561 0.001496695493287486 1.129366426535645 -3.012104561316582 3.610650131906568 0.09173586093714087 4.702976050494299
5023 7 -0.01156664877845974 -0.00146940396518663 0.002981216425394833 1.129265600080418 0.4108013952040139 0.816557774398243 0.3002785883276093 0.9621286898538044
5024 7 0.004862588840748742 0.008575718022583785 0.003486350428952624 1.129454752416522 0.8845128337197243 -0.627905394730481 -0.580967838267504 1.230508743100899
5025 7 -0.003007846926649483 0.006092217085995648 0.003503171674414813 1.129367342071212 -2.974287793238128 -4.521302251635042 0.1685965419379339 5.414516296180008
5026 7 -0.001540921640351561 -0.002555097309219023 0.0005188564460369022 1.129329607102733 -3.622704550717089 1.972049008931536 1.222407297500232 4.302004783399942
5027 7 -0.006392839910978349 0.001452228410834661 0.00246664300746661 1.129219404107424 0.7004390624104488 -2.704073371081184 7.16243437961768 7.687853661371949
5028 7 0.008039426083621782 0.008134079388499067 0.0004833808416850515 1.129446891752035 0.2019294380947583 -0.3355481238198899 0.0305897436940862 0.3928151903727539
5029 7 -0.0100629880715615 0.005069732594436164 0.003509300095723848 1.129291500331572 -0.5904775517215073 -1.763499840058087 -0.0008375432500794375 1.859730121939906
5030 7 0.01037702013814657 -0.001512566842332891 0.00350032416646345 1.129436902687609 -0.2882459226563526 0.07785685106625667 0.05731774363325273 0.3040275068495819
5031 7 -0.00487171663603293 0.001558343233526258 0.002965294183737681 1.129196189759177 0.214062747319958 -4.39388872980969 8.444265471741348 9.52143373589198
5032 7 -0.002628472734305034 -0.001183755983059544 0.001485707306767405 1.129283620910426 -4.766285897942694 1.922005394623696 1.459026503687388 5.342316383026396
5033 7 -0.002241316415393347 0.002524859067482326 0.003468079990655487 1.12928364091099 -9.751745367603899 -7.018989790231779 0.5100999769465038 12.02592854529092
5034 7 -0.001114100815462386 0.002356357222378592 0.002940959499824512 1.129328835725663 -5.974411780147592 -3.378063069769042 2.145656786782044 7.190879589366491
5035 7 -0.007502975903713007 -0.005674497567889267 0.000501256810142374 1.129311854504527 -1.101980282300284 2.594077787056406 0.2432516599128463 2.828917015030386
5036 7 0.004277802960101715 0.002835410890070747 0.0009452038326362507 1.129417997540717 -1.197716519357826 -0.6438164013789806 -0.0939252373645994 1.363028381817929
5037 7 -0.001800905218081829 0.004655513028517954 0.003500851209436649 1.129355837759388 -3.787544550337449 -3.953239787084077 0.1547168980021869 5.477000625662086
5038 7 -0.00137027718596501 0.003570552192857016 0.003468079990655487 1.129344147337791 -4.222239179254239 -3.441886731878743 0.6333985196488753 5.484075277255577
5039 7 0.006998907326991259 0.009363819350259539 0.001498026119612691 1.129451024919457 0.3309365088297814 -0.4392985394101211 -0.06814921768515213 0.5542079893644696
5040 7 0.002915805799673623 -0.00289938999042172 0.002974050770922238 1.12940687570345 -1.610026852250142 1.030117648472916 -0.1474833539183721 1.917049862247949
5041 7 0.008475343427978505 -0.007976614733514395 0.002502270071026006 1.129444923628558 0.1115622157701951 0.3601262589334596 -0.0477333454940469 0.3800204239682636
5042 7 0.01187737306602409 2.149602134384734e-07 0.0035 1.129437959768886 -0.05909968236608412 -0.003838611294350464 0.02946435399294203 0.06614873807309213
5043 7 0.00763252509864421 -0.00476051728970399 0.003535793001244682 1.129437178186067 -0.3181977499302222 0.5517875241380712 0.06325980224603675 0.640094588662712
5044 7 0.005003460352509566 -5.674977729664129e-05 0.002970682726211012 1.129418960650084 -1.141229212730304 -0.01268666219689986 -0.2573391717677613 1.169952356599552
5045 7 -0.005929219285368094 0.004079178292084581 0.001016251503217157 1.129290255055884 -1.537402707633958 -4.00712329037276 0.9486576736683852 4.395519938698715
5046 7 -0.0009296734154232608 -0.01064872518915732 0.003572030318278796 1.129481032423662 -8.150970785305342 -4.996801909453618 -3.007689304877367 10.02260190868091
5047 7 0.01108100966105117 -0.004016371609130007 0.003007165408212824 1.129439082176611 -0.05075985845054826 0.1562663309593375 -0.002096246461962747 0.1643171435688991
5048 7 0.003315053896841448 -0.008617960157252764 0.001569832838747643 1.129453869045675 0.2344782949434043 1.103403372758984 -0.3742076760994341 1.18849083238669
5049 7 0.0002442803898345034 0.002001808374381308 0.002963683229792959 1.129360464193881 -3.433559351984049 -1.483569316593201 0.1591108332001908 3.743744649141498
5050 7 -0.007920839665858388 -0.003432757896456582 0.003498911354880796 1.129261616171955 0.9283482067300914 5.018326775290964 1.302762367196362 5.267126712157611
5051 7 0.008610915135548586 0.008120301675536339 0.002976833723795458 1.129446477920344 0.1448912846267926 -0.332781925913265 -0.01256588526416504 0.3631737821591974
5052 7 0.00849593176386962 0.00746334650325314 0.002486226432060179 1.129445339027856 0.1424360464554599 -0.3157508361910905 -0.006266892417126839 0.3464475311296107
5053 7 -0.007381027998257621 -0.009809738220828043 0.002998602182097941 1.129359284587571 -1.684361806555181 1.517835344053717 0.0690792172714116 2.268407098670636
5054 7 0.006522047729133089 0.008377526360195491 0.003483380841685051 1.129450061427582 0.2386235267637737 -0.6931598925882364 -0.01472828816130745 0.7332317141874589
5055 7 -0.005727958743729097 -0.0036539575054212 0.003488932541432266 1.129251288513908 1.328791867414691 10.30418805436961 0.5151317943201321 10.40227571506544
5056 7 -0.004216982654794591 0.01105013163232109 0.0009967973527107879 1.129407965111499 -2.206058808507227 -1.040115057903821 -0.2151070997807077 2.448429264783171
5057 7 -0.0117053374889894 0.0004735121790538891 0.001007382326951919 1.129265970613616 0.420315603974798 -0.3639965291388432 0.2662575994919869 0.6164834056623578
5058 7 0.009541401616053335 0.001033404465332803 0.002989095513330684 1.129435381834363 -0.3805535342373573 -0.07641418233744067 -0.01084307117137918 0.3883010325446877
5059 7 8.534853358611798e-06 0.01085698825330738 0.003503163597645245 1.129491986225764 0.6195860148543475 7.285638131740751 -4.487707247835007 8.579273055378806
5060 7 0.00700537116957782 0.01006835868595565 0.00301464527792764 1.129453430862946 0.4178229190979543 -0.3146037960728761 -0.02138055852097727 0.5234583732348432
5061 7 -0.003695285899637377 0.01067776181461026 0.003488743033681845 1.129419991450237 -4.026115712060421 -1.017035990636605 -0.7514130192485337 4.220022684612746
5062 7 0.003920334537609433 0.003286159608198864 0.000448376604785651 1.129417708633063 -1.005228416831011 -0.8865332346044117 0.1247504963076146 1.346101048358457
5063 7 -0.0002264377127877849 0.0007991930494041159 0.003472879509169025 1.129335494164863 -6.081478030758573 -1.408954483676375 1.682038913004009 6.465197806759716
5064 7 -0.005716906040030081 -0.007046065900443013 0.003561983297215411 1.12934565117416 -2.216388982902338 2.505569143909475 -0.1170997741654639 3.347233068603339
5065 7 -0.011312008435599 -0.003964886145026362 0.0004768179565739615 1.129282847499432 -0.4226189715080951 1.364815147326342 0.1196589593152889 1.433752226848978
5066 7 -0.007210207633245211 0.001333793985007555 0.0004747622077541135 1.129251055339206 0.2783360295241141 -1.579644952996119 1.4716563261968 2.176814522482892
5067 7 0.00871182466614652 -0.005378532346081766 0.00348784370886865 1.129439900438621 -0.07309164806270289 0.3470737778371833 0.03194505588078891 0.3561222864044361
5068 7 0.01138833340259425 0.00347735549356313 0.0004694697906795598 1.129439413150021 -0.01573929745269952 -0.1631424705213167 -0.0367281469906654 0.1679647223480906
5069 7 0.0005364276369156899 -0.002426009492988679 0.003492571291692701 1.129367545803918 -3.273525540889071 1.598658290657599 -0.01525296872460515 3.643063333267249
5070 7 0.002215747501948541 -0.004025645172150204 0.0005438650213628018 1.129406784663141 -1.758376811449447 1.200724522520655 -0.0979119151517035 2.131481910116586
5071 7 0.01018675972047595 -0.0032827788469423 0.003483139951230789 1.12943792204858 -0.2377175012865983 0.1883117024106835 0.0388047123572812 0.3057396169682383
5072 7 -0.009795697515526345 0.0006441597330742359 0.003502197276406995 1.129247457375642 2.483811069235027 -0.7248856117751773 0.7847207546852608 2.703805325952097
5073 7 -0.008551752509442141 -0.0007037209639588042 0.003436154144222008 1.12922343123279 6.914697326202501 3.079879935341589 2.563719873230204 7.991955900623277
5074 7 0.005229242748077842 -0.0007626568492474298 0.002456645539627751 1.129419912750368 -1.202230428724483 0.08966441986139148 -0.2021276759691019 1.222396543406764
5075 7 0.003102924988852867 0.009373390403220636 0.00349906200267011 1.129468099954422 1.784122276395369 -0.3522959137642717 -1.265708121105885 2.215676365315699
5076 7 -0.009149987510844363 -0.00414181711522285 0.002989621248679691 1.129281415991137 0.227388347490607 2.104662226059623 0.1835325118502677 2.124851225211503
5077 7 -0.005080212780230017 -0.006125619793206541 0.0005619832972154113 1.129338842985163 -2.135529870211067 2.859120792440725 -0.04318515179641782 3.568882806939204
5078 7 6.986856883812152e-05 -0.006135633218451363 0.003484699105247369 1.129422939057064 -1.191482671807717 5.895492978987428 -1.197433205302636 6.132724900374177
5079 7 0.003857811567283294 0.002549776501566871 0.002945203832636251 1.129415603294716 -1.097127403074504 -0.4272054112243243 -0.09745507516393991 1.181393454202095
5080 7 -0.0008630227068784206 -0.0004439533456540923 0.003491356946797271 1.129311272960559 -5.406876035532595 1.002600058356703 1.309510533218053 5.652816393377956
5081 7 7.414064406234666e-05 0.01210470909866345 0.00152214549767867 1.129463696462235 -1.016131915080678 0.5403481793467914 -0.5558375592401349 1.278067140658482
5082 7 0.01166490059476329 0.004021721800196118 0.0009772082095781491 1.129439947124699 -0.003933614049282894 -0.1240662910910826 -0.0175706488084851 0.125366046456515
5083 7 -0.01103552903309635 -0.0009509898202833672 0.002483413701801828 1.129263614584134 0.292813281181135 0.5379975389537076 0.4348550141054811 0.7511856314180848
5084 7 0.000231000279033547 0.006651259095884185 0.000547510077209633 1.129422985671365 -1.382720527697845 -2.656068857179907 -0.8251942284516047 3.106052695378464
5085 7 0.0005677333223523342 0.001210554428844454 0.002472446285466499 1.129363696709855 -3.604062840540044 -0.3526156457778699 0.2588613645401129 3.630511803900448
5086 7 -0.004703278322163079 -0.006584649592669446 0.001049321405099475 1.129351396852599 -2.252570113471783 3.006704108017515 -0.1327082681069279 3.759249019910708
5087 7 -0.00536481165644808 -0.01043817130037072 0.001512585888725087 1.129387411664957 -2.042654728341639 1.505840082319297 0.1622213013011921 2.54289371451732
5088 7 0.01222981523984517 0.0005268668397002432 0.0008195501908166308 1.129438280949797 -0.0737199809952848 -0.03005119246110218 -0.01468889420039176 0.08095352604494545
5089 7 -0.004409444996600612 -0.0001707939677118652 0.002946277514233721 1.129186420897391 -2.088515939728794 0.1170069528543282 8.474872220241629 8.729206642469908
5090 7 -0.005866858658798577 0.003910397825641946 0.003016251503217157 1.129275331970492 0.453918217639423 -4.581084638993619 1.293046218693683 4.781667778255436
5091 7 -0.008259708665195447 0.0004645647071441119 0.003474762207754114 1.129215806430041 6.914650637557316 -3.29326506583515 5.250723666500693 9.285907993043677
5092 7 -0.007376234970500451 0.009813824879973187 0.003002844456557806 1.1293597702738 -1.810591198313478 -1.608809090450936 0.09214686198169592 2.423839561749267
5093 7 -0.01131086108594763 -0.003393733896936675 0.003524719052284401 1.12927599921552 -0.1263916022496357 1.299881939200324 0.2470844764696352 1.329179683673617
5094 7 0.0004595340114631328 -0.000994019587531071 0.003001334347366241 1.129356940355195 -5.235803504039455 1.435392347411652 0.6606749097025172 5.469047527698969
5095 7 -0.008014793917821852 0.002025538907957372 0.003497685331042665 1.129222761003774 7.340820215034251 -4.149737658239805 0.4673869333176625 8.445496705766049
5096 7 -0.004868565575181462 0.004871968117845677 0.00349515430380515 1.129304948414438 -3.041394604318575 -5.802938341663489 1.368811217140258 6.693117262120493
5097 7 -0.00684601066557324 -0.003066534344610169 0.0004698015616810932 1.129271561714408 -0.2461450181098538 2.60787577968589 1.830194517370578 3.195499244816984
5098 7 0.005701195045450889 -0.0105505120362426 0.003489079747943377 1.129456223581741 0.664625397155556 0.3509064386999828 -0.03913424718482511 0.7525913476568863
5099 7 0.0004863736465859684 0.01164956894809047 0.001014083849701872 1.129464858551513 -0.4115867924783954 0.3630835727989338 -0.854408845849998 1.015503739257428
5100 7 0.0009489215973207628 0.01064734028957439 0.003503163597645245 1.129495087235951 1.574641068857991 7.288948563035437 -4.624751171668263 8.774770028334508
5101 7 -0.00413095361804562 -0.01101035690930249 0.000492476648664522 1.129407652201683 -2.369375284660679 1.027759557631578 -0.2181310752316902 2.591873861484325
5102 7 0.00177390464904473 -0.009422983129552948 0.0005101311284948868 1.129455297127124 -0.1590251635282939 1.132438556639759 -0.5348922273366273 1.26246417060631
5103 7 -0.001303961467369561 0.00344695669768675 0.0004680799906554873 1.129349043803868 -2.903190480258851 -2.601151276046823 0.8276631676066548 3.984912702250617
5104 7 0.01079129414415099 0.002797962100162915 0.00147504006843 1.129438589842251 -0.06906085001837144 -0.1316547978612292 0.007819615519127181 0.1488742193665783
5105 7 -0.004927686069596269 -0.006512404847974405 0.003049321405099475 1.129345792673931 -1.803434606916383 3.761587107454398 0.3611622578370147 4.187165165703012
5106 7 -0.01151283461521809 0.002039603706387533 0.0004926837006863033 1.12927098034345 0.1067599049756093 -0.5644194890048749 -0.05595647480016069 0.5771465705962275
5107 7 -0.001250354463926018 -0.01187456482655315 0.003476705828178019 1.129462675183874 -2.797221479596814 -0.1724342776465393 -1.125456722971441 3.020071923200984
5108 7 -0.01171785168585439 -0.0004438049469956404 0.0009949313183829616 1.129266015789387 0.4002773423164541 0.3266415956774503 0.2591193526787741 0.5779788246391918
5109 7 0.002010716753207483 0.008478243309919255 0.00100890895981974 1.129454407442605 -0.2686169059775915 -1.653479322951344 -0.4870573432476141 1.74452680381129
5110 7 -0.008431800253559992 0.005370148576379258 0.002994861315263527 1.129300272501325 -0.464318665317033 -2.620736146724648 0.4617560145216985 2.701308644094175
5111 7 0.01134363513883399 -0.003107594328124609 0.002953032421144478 1.129438502014625 -0.08564489327618242 0.1033187083595418 0.006360684188802463 0.1343512617905854
5112 7 0.005225782395568275 -0.002205543575433246 0.003485962813416739 1.129422578188067 -0.8092259283464797 0.2441476062705782 -0.05688992285998869 0.8471665244088027
5113 7 -0.0004736802094449015 -0.00726795422374518 0.001488053857600599 1.129428008113416 -2.583984631300237 3.82476074433518 -0.9824366874876275 4.719211075076521
5114 7 0.01105675249372185 0.005387231627828191 0.003018658635770063 1.129441200979536 0.02869517148870063 -0.2107725879255987 0.03508182112365629 0.2155904238619434
5115 7 0.01109120327387825 0.005411510944999842 0.001018658635770063 1.129441274451719 0.04332098676350811 -0.202875863243456 -0.03043789352522666 0.2096706682948155
5116 7 0.0004633150736398016 -0.003916722878358561 0.003037432074655083 1.129383373324838 -2.512104207875217 2.986353839949759 -0.09536747002912713 3.903597284934347
5117 7 0.002814958904826047 -0.004553232900919709 0.001526046125315255 1.129417185306825 -1.673091420752162 1.632980447382914 -0.2193346317931479 2.3481839204869
5118 7 -0.01118396907047978 -0.001892418729998242 0.0004884823834188663 1.129270077308656 0.06185787772806688 0.7371367574543495 0.4129011505555686 0.8471625324324993
5119 7 -0.01110630195102057 -0.0009556394662154963 0.001483413701801828 1.129265536294702 0.2937852880889432 0.5442583085986733 0.194248483007316 0.6482741512098378
5120 7 0.001970795429543822 0.00890301700983089 0.00349906200267011 1.129488580355177 6.737696318891104 -3.320577133650296 -2.847409955427768 8.033089545149434
5121 7 0.00346668580743203 -9.158226498815164e-05 0.000907671996866713 1.12940509711518 -1.780625731904315 -0.0927400900187766 -0.19375584882717 1.793535628408649
5122 7 -0.006128619214275812 -0.001735714554927923 0.003469801561681093 1.129176384970282 0.6549442791976727 5.131786515779814 5.839645338382307 7.801643578790529
5123 7 -0.006994919852564979 -0.0001162544389673409 0.0004747622077541135 1.129246676409994 0.01262312987723662 0.5689408138043132 1.564800392389499 1.665068545448668
5124 7 -0.001266935434586605 0.01183531183221465 0.003508061647976797 1.129466860727319 -1.778221988707389 1.103845220774936 -0.8234822886059278 2.24914890396296
5125 7 0.006747886339441614 -0.006539460288535804 0.003487171242344414 1.12944179607553 -0.1904306912518562 0.7582772547542449 -0.08382039396366547 0.7863040771180815
5126 7 0.009919803592638604 0.001072667451259892 0.00051419864220469 1.129436499635861 -0.2425479107836747 -0.06781878695517367 -0.01317949717184762 0.2521955115288521
5127 7 0.004536636437686222 -0.003960978919339084 0.002984079529240556 1.129424190617037 -0.9129345304722997 0.8078826131521473 -0.2098355486337642 1.236994232416891
5128 7 0.006522531864364788 0.007227948354960155 0.002974772238783289 1.129445609715721 0.07800486531717338 -0.6577766175116868 -0.1189113194651078 0.672974545919234
5129 7 0.01086688922854716 -0.003437558935002383 0.0004831399512307885 1.129438679609931 -0.05116311320073139 0.1092255840773871 0.0371305779446434 0.1262005237229246
5130 7 0.00260210789310035 -0.01090065300382656 0.00300417388874539 1.129469962939862 1.61449585389891 0.2711465754845599 -0.7968878783524785 1.820754683728396
5131 7 0.0009263168508110746 0.0048373813084754 0.003474422237741401 1.129407313901928 -1.97063449790924 -3.29990010882954 0.03902188180820248 3.843730448387747
5132 7 -0.0002558380369208815 -0.01186494888247822 0.000476705828178019 1.129455358425326 -1.184987916121628 0.3132553775390906 -0.5075008575478447 1.326605598255652
5133 7 -0.01026816889805519 0.0008931250051164969 0.0005021972764069947 1.129264717750882 0.4320814983608094 -0.7556743745775537 0.1214964052532974 0.8789195401789476
5134 7 -0.003596046498148317 0.008024172793431017 0.000496703183449469 1.129388673034837 -2.846339068472644 -2.393425188436292 -0.2891199929412237 3.730109997798102
5135 7 -0.01163742169638396 -0.00147405361111876 0.0009812164253948331 1.129268410661226 0.2656928959184424 0.4789322951095798 0.1660122376937735 0.5723014252162507
5136 7 0.004817108458295016 0.007566583247061307 0.002977741826050862 1.129448710549158 0.2261975716938764 -0.90584699640232 -0.03840648442968034 0.9344512723398467
5137 7 0.002874033919229402 -0.002384039946513361 0.003492053838908872 1.129405288329606 -1.610024589423569 0.3649267178219327 -0.4781231507983217 1.718706616982124
5138 7 -0.005357822574827674 -0.004166195750426423 0.000488932541432266 1.129301017347414 -1.788313291809909 3.093386163505729 0.3044345557011854 3.586053929451935
5139 7 0.005025427689756764 -0.001143987021821082 0.0009763451611669052 1.129418277475753 -1.12969018077764 0.2624010548625243 0.04138962253364972 1.160503045662466
5140 7 -0.003349405967533215 0.01121955127607083 0.002965099957871679 1.129426792506691 -3.487949404092343 -0.6174037307706139 -1.122843824561391 3.715878989772575
5141 7 -0.0054100668173464 0.01109615021976987 0.001018815755216094 1.129393384056594 -2.19167350532837 -1.172789047841839 -0.1307501426991325 2.489169038958976
5142 7 0.005699706746416705 -0.0108169281348875 0.0009964347928867094 1.129454619818669 0.4500128373499928 0.3687071470868495 -0.1213611586314545 0.5942937362256848
5143 7 -0.008984296449643632 0.0034421925193295 0.003006985426766513 1.129271711234803 0.6340979559182875 -1.949678995944881 0.6226146194168307 2.14265661486855
5144 7 0.01174478267001129 0.003570205868019682 0.002977208209578149 1.129439436219346 -0.03380339632939379 -0.1380545318090217 0.03725979185960111 0.14693541249757
5145 7 -0.005614772230810106 3.301149833417454e-05 0.0004707836003004895 1.129246355896108 -0.5331227487017349 0.4832032922646501 2.331583554706904 2.440079334656637
5146 7 0.002697179926370161 0.004414962025099934 0.0009366625377043632 1.129417200757658 -1.449185974448105 -1.524808233881166 -0.318059831286032 2.127520198476762
5147 7 -0.004200418422349046 -0.009336449765201397 0.0005141520114740618 1.129393413400338 -2.601057571489084 1.741880962145488 -0.222102780212891 3.138308369402835
5148 7 0.00925749899298357 0.007351611488940004 0.003002845590375127 1.129444599725615 0.1174897579310197 -0.3009994773346186 -0.01298091765794756 0.3233775391050616
5149 7 0.002465600322092189 0.002312856904561644 0.001356469974526131 1.129399812110273 -2.272528790886476 -0.8531151106710089 0.113271996123337 2.430025317269127
5150 7 -0.01156444138943637 0.003989331365608117 0.001016326776496474 1.129282575886162 -0.2643084341133564 -1.116256378670039 0.01514337028801093 1.147221239747889
5151 7 -0.004301546278432602 0.007809176929274214 0.003496703183449469 1.12937807522809 -3.295347676898923 -2.902885749836695 -0.1432469518770865 4.393925543004815
5152 7 -0.005396861996079074 0.01101717858870787 0.003018815755216095 1.129394886951691 -2.281631111749638 -0.9956978511663266 -0.1196702526477897 2.492303294201955
5153 7 0.005071652741097457 0.003834937737903742 0.003473499115198168 1.129427640096134 -0.8086026261664377 -1.056893842554171 -0.1468207871648148 1.338812587711916
5154 7 0.01048853160594854 -0.0001955838755301442 0.00350032416646345 1.129436805221293 -0.2952988351606144 -0.007106267290725343 0.05668746777008608 0.3007746167551503
5155 7 0.009795792377109952 0.006543647582220463 0.001020312925136194 1.129443036374884 0.06253461535851976 -0.2658121038118725 -0.01977085450192625 0.2737837455706018
5156 7 -0.002435909093754578 -0.008726117994505333 0.003498222009680793 1.129433768219056 -6.631123232434253 2.781236483486376 -1.172478501640766 7.285724228765095
5157 7 -0.00212087969047913 0.01163800939609937 0.0004763569241898338 1.129436817369665 -2.154142487194279 -0.6138628188291888 -0.3236374658200102 2.263161201673197
5158 7 -0.01020990341109461 0.005688077828900344 0.003001983796410114 1.129297032321315 -0.5889793524405319 -1.706650030186686 -0.03141991442630176 1.805696047002385
5159 7 -0.008853558237581931 0.008573709162684681 0.0009972680709155733 1.129334601999979 -1.368740491495846 -1.639658204950914 -0.1085182539295602 2.138622400883115
5160 7 0.004161505070801174 -0.007821824094502647 0.0005663142828427598 1.129446197635469 -0.1573850929352634 1.156358367165983 -0.2397124289446931 1.191384400344232
5161 7 -0.007885588421933369 -0.001145662702200401 0.003436154144222008 1.129204595043799 7.046457037880468 2.962113997430459 2.577595624422671 8.066639654993368
5162 7 0.009026103602270581 -0.002533874282375117 0.0009907333408803744 1.129435536927566 -0.3320823532847806 0.1923954398285559 0.04603934365233515 0.3865414800431115
5163 7 -0.004063254020407438 0.006009591439994186 0.0005031716744148134 1.129350816945369 -2.421197239188294 -2.838716465323706 0.0501055176168566 3.731356027565392
5164 7 0.00538458352327631 0.01088713382782045 0.00101464529123683 1.129457663807002 0.4115591825642742 -0.4608619240407186 -0.1751763329530328 0.6422315948397108
5165 7 -0.004203777833527265 0.01097116000125909 0.002996797352710788 1.129410904134709 -2.670201194757039 -1.31999401887164 -0.2802329544515895 2.991803659851276
5166 7 -0.001855962060627077 0.01203089014617881 0.002984418572166631 1.12945539373301 -2.404965823207164 0.933790103242503 -1.141159854419216 2.821005207553903
5167 7 0.005763049808661986 -0.003745535066157997 0.0005020825972271893 1.129428883374603 -0.8092313803721051 0.4425999229117805 -0.09373152073170833 0.9271114909864592
5168 7 -0.009006911446109678 -0.002034119791978501 0.00242354788252167 1.129258193670318 0.7778652434754521 1.768968735660305 1.179203482328677 2.263812178049853
5169 7 -0.00653762634107314 -0.005845797847650313 0.003561983297215411 1.129316521708501 -0.9192247339883524 3.349489784717937 0.6564589394024634 3.53482591772596
5170 7 0.00225855639375249 0.001744716717854864 0.0009080933697404798 1.129394786940963 -2.252427071769032 -0.8132225913405708 0.139341033820284 2.398786072247959
5171 7 -0.008318874334166141 -0.0002271834298334844 0.0009109163519761218 1.129249309848148 1.501497684022544 1.148546640336622 0.927684019195931 2.105766444700153
5172 7 0.007309208563754204 -0.007592200432815841 0.003487171242344414 1.129445141463497 0.06432491256051583 0.4562314767990708 -0.0005249795111944512 0.4607441051187376
5173 7 -0.002285442048872971 -0.0115987497291209 0.003507301604725193 1.129446979705576 -3.665139522215656 0.09746620231950338 0.0102015792836663 3.666449433733087
5174 7 0.01012461676236535 -0.005257298668296044 0.00348784370886865 1.129440240674207 0.01605025791458676 0.2167646757736838 -0.03375364827219265 0.2199632792401448
5175 7 -0.002748724874092323 -0.001436531656230004 0.002485707306767404 1.129259227165305 -4.988696399518524 2.275651277603437 6.923584833813524 8.831857531393942
5176 7 -0.001983909284422389 -0.006245327767243729 0.003523877556210437 1.129390462351952 -3.562303181729535 4.179621241349193 -0.7210701221449974 5.538878929959377
5177 7 -0.00194764398786587 -0.007792768002640897 0.00102209956589123 1.12941140579799 -2.386563037880524 2.611536247608789 -0.4544705782991915 3.566840087933816
5178 7 0.003034702466803558 0.002397050407730911 0.0008656662539021974 1.129406530885968 -1.722860418902724 -0.7503668095009803 -0.2471921813002228 1.89536338107454
5179 7 -0.0001091228746401722 -0.001297775463856297 0.003492571291692701 1.129339556411961 -5.710364162050042 1.399614922762359 0.8232129865742775 5.936738196729675
5180 7 0.007912991637772336 0.006512974469414406 0.0005093927082647207 1.129443089121335 0.001032202763963691 -0.4782733667070337 -0.07666153384471573 0.4843794685112605
5181 7 -0.003034563599053007 -0.007664552799382605 0.0009855601175648566 1.129392561222549 -2.842833597245902 2.851424238106228 -0.3654131447967703 4.043000100628248
5182 7 0.001240766795876203 0.004113542230855294 0.003474422237741401 1.129401536192433 -2.610096837295358 -1.718330876553402 0.03270274532509638 3.125113753278081
5183 7 -0.001533826614657352 0.009752551822689791 0.003486777160558845 1.129476251845869 -13.88121192900276 4.005347022373645 -3.814132651712395 14.9425050534502
5184 7 -0.006182394074510856 0.006955158002493382 0.000499395166421551 1.129339617344571 -1.523959716911853 -2.65816174221258 0.1581477500188962 3.068108175630174
5185 7 0.004429138492558135 0.001814027816377633 0.0009141168769671462 1.12941546904875 -1.295031267852424 -0.5993891018693158 -0.0419532277370615 1.427632079169111
5186 7 -0.005559096632662976 -0.00981959300861157 0.001020109240060565 1.129379946844789 -2.197414379908657 1.606636624845 0.02975039801956378 2.722277775596202
5187 7 -0.004343656944482822 0.002854907123746492 0.0004945105834371912 1.129283079968039 -1.759439996747302 -3.079665020945972 1.892103593741157 4.019952954058107
5188 7 -0.005318398338671279 -4.221369436709169e-06 0.00347078360030049 1.129151960942215 -1.236757989361742 0.4565992213923202 8.478957543545052 8.580837616367397
5189 7 0.002198460929039438 0.005818207443732923 0.0004882859329187122 1.129425923246203 -0.8985176340993258 -2.071617825149316 -0.4918358740959929 2.311025071112731
5190 7 -0.005048481443352613 0.001964150914960436 0.001486391383149687 1.12925290299864 -1.188334505894431 -2.917341235730615 1.586415088812876 3.527000371081177
5191 7 -0.0008749516111440663 -0.009890669213013093 0.0005720303182787963 1.129446441341579 -1.661902143138466 0.8389255132954488 -1.048398161613508 2.136551767568678
5192 7 0.009967140012190852 -0.002654275994596483 0.003483139951230789 1.129436989817323 -0.2296168169536909 0.1711442683363987 0.03936060315480231 0.2890735205670971
5193 7 -0.01062075456932053 0.004866989213265694 0.001032943171534019 1.129290024367049 -0.2649170374628338 -1.357956501250287 0.09261042905542018 1.386651934551651
5194 7 -0.007047122474501801 0.01008360866231908 0.001002844456557806 1.129366045516405 -1.910038111479492 -1.460689658971494 -0.07802355333683997 2.405815359084256
5195 7 0.007590900746425402 -0.002206336677844123 0.0005075933896495858 1.129431730219618 -0.606142421469259 0.1997252803898497 0.06704573060013701 0.6417117364698319
5196 7 -0.01126484406996158 0.003932193348884939 0.003523643075810171 1.129278816867233 -0.263091135230705 -1.518166800621622 0.2018319649798654 1.553957374587317
5197 7 0.009543692645031396 -0.001929654874256099 0.001491057507343824 1.129436025620816 -0.3908109973754136 0.0960677758489947 0.01806301794031354 0.4028505006118899
5198 7 -0.01144484841256434 -0.002387877729035383 0.003013201435703267 1.129269803538671 0.1834738877479588 0.9567465318422808 0.04171313337941595 0.9750726020014674
5199 7 0.007115423558464793 -0.003481628733182445 0.000535793001244682 1.129432706524583 -0.4920954715510799 0.4899072014182004 0.03898487684612491 0.6954759807104774
5200 7 0.009344266099058611 -0.001226469104934921 0.001007917556113035 1.129435354060261 -0.3699814940690115 0.06055250041843881 0.03530568082359797 0.3765626141279572
5201 7 0.00643400893805651 0.004001636553208017 0.00297238773246152 1.129432605955011 -0.4901589342637321 -0.6979270723615234 0.0179624833371863 0.8530419860600787
5202 7 -0.009349450886208106 0.003068247948685303 0.0004976853310426649 1.129274167870696 0.1866892584888025 -1.466073848612583 0.6532221137679157 1.615835554360726
5203 7 -0.003199054206435221 -0.004109938151719643 0.003485479829192984 1.129309948875887 -5.290021464728228 5.989516221629975 -0.1494183444211829 7.992556381290254
5204 7 0.008802653731626555 -0.002475615029383777 0.003507593389649586 1.129434430107416 -0.5018850084989519 0.1802715495343107 0.09721756954204776 0.5420679377671744
5205 7 0.002850943216058249 -0.001329106430815151 0.002982436186659039 1.12940182792971 -1.857326661629001 0.2970627476067758 -0.2914608929456171 1.903380691330632
5206 7 0.00258257655327775 0.001394948617303619 0.00290809336974048 1.12939914658674 -2.004718909617043 0.0009985684906524835 -0.3539651703382494 2.035728431183237
5207 7 -0.002823873836810164 -0.000801103131292521 0.002966850860730502 1.129231483056808 -4.860377239024574 1.634400284473439 6.625716762383376 8.378224979722319
5208 7 -0.009362941066159624 0.001893991794450895 0.003497685331042665 1.129253981920158 2.664141816855321 -2.331904043676541 1.436210360939989 3.820749702624282
5209 7 0.002045689746753427 0.0009686344702358742 0.00141685642541402 1.129388583199782 -2.197357902973767 -0.6547846742276913 0.08663955144490464 2.294478401563046
5210 7 -0.003388365761721423 -0.002070684640704167 0.00247772657963178 1.129254056231031 -3.780176673854786 3.553433557626868 7.058246034632655 8.759878013958424
5211 7 0.006258073147770262 0.00411316954044531 0.0009723877324615197 1.129432325660971 -0.4760219637538272 -0.6660333696932648 -0.06565746860101797 0.8212845199467166
5212 7 -0.003632024232082725 -0.01174099061230852 0.002999778253389714 1.129424048801713 -2.586179314399522 0.4420970653594138 -0.3638170767267688 2.648798997044773
5213 7 -0.007472207615963126 0.006252717959761187 0.003485561219539678 1.129316468986621 -1.452782055669364 -2.903747805089861 0.3117450238025663 3.261826478631987
5214 7 -0.009292393786704033 -0.00269615678154805 0.0009873937382996619 1.129271092149805 0.6113448082859974 1.50271678588094 0.3519171636497996 1.660043946182723
5215 7 0.01032369259418552 -0.004262801420243495 0.001495009117081474 1.12943916173824 -0.03140563367545462 0.1725763503610825 -0.002782821565988924 0.1754327638338292
5216 7 -0.006406820210006912 0.0006157267984394665 0.003474762207754114 1.129160672487724 2.738905094333524 -2.456743446969405 6.339175348826823 7.329552072478025
5217 7 -0.01164707876793018 -0.0004391553010635112 0.002994931318382962 1.129263029732463 0.5368015784945483 0.05046532945310988 0.2599384897744544 0.5985571840829195
5218 7 0.002827658538463859 0.001828910221024131 0.0004172896491165465 1.129401505716658 -1.716346362976407 -0.7339165285651654 -0.2349152990761818 1.881399347917272
5219 7 -0.005574584784764186 0.001408669089092845 0.00347078360030049 1.129171427585497 1.203004339204095 -4.544354098062009 8.454613315666304 9.673616693158708
5220 7 0.0001427132908491877 -0.001515816826811902 0.0004925712916927011 1.129356641535498 -3.736960319082913 0.3488108200555023 -0.01391314273723236 3.753229941014657
5221 7 -0.003294889862538385 0.01118537543003722 0.0009650999578716788 1.129420700292494 -2.398688580433206 -0.9227459225145529 -0.06155946559522463 2.570789083379318
5222 7 -0.01116184583666717 0.003367542502964122 0.0004926837006863033 1.129278402666166 -0.2188495454764072 -1.461539375105771 -0.1428108221042695 1.484717952828043
5223 7 -0.009936274786343546 0.005056383050083778 0.0005093000957238485 1.129293943840352 -0.6349357224310547 -1.641885831774885 0.2986042292628818 1.785524276490194
5224 7 -0.001840631891555436 -0.01206294224148975 0.002984007432903212 1.129451878206761 -2.131385381573481 -0.3794713284371741 -0.7990177917662405 2.307646325902218
5225 7 -0.0010143883281427 -0.007333733378691294 0.00100335475235323 1.129420538567895 -1.643779782060818 4.472406621711442 -0.4517934233387577 4.786287732597406
5226 7 -0.004756671533744555 0.000228453491512443 0.00347078360030049 1.129156862542059 -2.074801995018037 0.1094742341522382 8.464892780213209 8.716145805743485
5227 7 0.00456870913501847 -0.000682428331590099 0.0004903823477501665 1.129414801100106 -1.124111890113962 0.2554009793223678 0.04605261842026231 1.153680217997072
5228 7 0.008553044163826958 0.0001681574761340059 0.003474896871125994 1.129432294463775 -0.5080212620370389 0.01197614736344047 0.08797378643193668 0.5157212598745068
5229 7 0.008468427728916645 0.007421973587385429 0.001486226432060179 1.129445227526491 0.1426331288678855 -0.3161557046261803 -0.01478276312294621 0.3471558282729364
5230 7 -0.009604914779601985 -0.001222395128850155 0.001426833804047869 1.129261099565519 1.173332878589897 0.6063316799012698 0.4304418293787425 1.389110621408846
5231 7 0.006791911545977348 0.000774534160963 0.003480300378460846 1.129426821622737 -0.4984578941514626 -0.06449987726065909 -0.0218488501179423 0.5030883408110619
5232 7 -0.01158609722504384 -0.003970258527578058 0.003001537008858362 1.129280540508468 -0.1362664341676194 1.210103876990924 0.2031643398572182 1.234583202209896
5233 7 0.002956261040628239 -0.01114014560604074 0.00100417388874539 1.129461621013294 0.1265907964019533 0.06652053082727681 -0.3908836802437189 0.4162214101125714
5234 7 0.006368412409155885 -0.007355511241729102 0.002480280564485621 1.129444523519898 -0.0988455904424636 0.628816663281085 -0.06301582655344853 0.6396497800875811
5235 7 0.00434806917425469 -0.0001946424050313224 0.003490382347750167 1.129415509470221 -1.121918226488337 -0.01268662343105505 -0.2676847666285775 1.153480208597361
5236 7 -0.01027598571089975 -0.001111575748330971 0.000990679659825861 1.129264653446893 0.5128620879641715 0.5633484310787426 0.1119012382259313 0.7700070539847976
5237 7 -0.002301724253918647 0.01150839795237621 0.003476356924189834 1.129451543410024 -4.345688521113143 0.4072560664162269 -0.1860479684998625 4.368693176769259
5238 7 0.005131384924964474 -0.003809108507708254 0.003502082597227189 1.12942689596171 -0.8092290219350349 0.8570540693765935 -0.1582291032137469 1.189298001713926
5239 7 0.000424128559294729 -0.008371483012634139 0.0004794771961427927 1.129446341866709 -0.8099678205867921 1.792445478553065 -1.658092162252451 2.572582026387974
5240 7 -0.01065845122396874 0.004856297715139072 0.003032943171534019 1.129288354237723 -0.2794152386725713 -1.559980936196602 0.1987542020701301 1.59722153433386
5241 7 -0.0008284665980866361 -0.004473984150688644 0.0004935670532922815 1.12937320722724 -2.858714251977693 2.544263170035278 0.1212722853712966 3.828867877069868
5242 7 0.01143117599345503 -0.003121404378790997 0.0009530324211444775 1.129438655109095 -0.0849113244520194 0.08424140423243574 0.01555101057796642 0.1206166702294703
5243 7 -0.001486303667429885 0.00283765172481276 0.003468079990655487 1.129324148619934 -4.500262194598682 -4.683020564586709 0.7557322841059112 6.538667502918014
5244 7 0.009229994958030594 0.007310238573072293 0.001002845590375127 1.129444476174892 0.09706593802173454 -0.2883801947581276 -0.00236325774480453 0.3042869008681497
5245 7 -0.006314276866104407 0.008367770296024483 0.000499395166421551 1.129356498125165 -1.771528142752402 -1.903486231138608 0.06937633908618238 2.601227569653036
5246 7 0.008334382865442079 -0.004315483582708285 0.001023636710113332 1.129437078232077 -0.2668470154210249 0.3491715404731467 0.04454544284909803 0.4417152825000752
5247 7 -0.008635374540444453 0.002957016002522299 0.003497685331042665 1.129257857192782 3.122694500437229 -3.870999829719968 2.032162369213837 5.372666425491325
5248 7 0.004217099733752371 0.001278865195212529 0.0004172896491165465 1.129412745256962 -1.179302116053539 -0.3068533563609923 0.1763905976634635 1.231270119097525
5249 7 0.01068342254739817 -0.00498849755915127 0.003011869165850686 1.129439935118336 -0.03259692889142907 0.1853081736962063 0.002403507987579325 0.1881686899099385
5250 7 -0.01024323465314349 -0.005242414987721742 0.0004907098937988948 1.129295364481242 -0.6231168917427784 1.419620666629936 0.3299252549896103 1.585070399628346
5251 7 0.004707983928991397 -0.008456528329904104 0.0005663142828427598 1.12944945287842 0.1598464974766981 0.6508370694045962 -0.2438373655776636 0.7131594874350241
5252 7 0.003396693018350745 -0.01112431982509913 0.002511528933688722 1.129464109939153 0.4298265005288983 0.1105200248800305 -0.5616792700948023 0.7158555014181504
5253 7 -0.001953186557595466 0.01000920210408089 0.003486777160558845 1.129455674678729 -4.344262665284973 -0.2556254194452308 -2.185669183611479 4.869816448311407
5254 7 0.002530490560424815 0.003835979603110152 0.000448376604785651 1.129410020886309 -1.437692073128855 -1.495767337151142 -0.3000613517249788 2.09626220660126
5255 7 0.0004979736007387212 0.007930534952791213 0.0004867414926955115 1.129444302772605 -1.152357000784815 -2.074045883511044 -1.740758685472086 2.942759552735049
5256 7 0.003045961917633503 0.0003502099899331924 0.0004172896491165465 1.129400405396591 -1.81550966160839 -0.0487459337600749 -0.2321112978254915 1.830936140893447
5257 7 -0.01195137193646947 -0.002004795447302828 0.002505935477679234 1.129269345106204 0.3346833415631527 0.6396103675323382 0.2203338684777204 0.7547591503076251
5258 7 -0.002215908235067972 -0.005790431663655434 0.001009357385403422 1.129373375727952 -3.924192842810761 2.822073989048623 -0.331792761103305 4.844943498489179
5259 7 0.006699805329041863 0.003671109435184535 0.0004988886172633515 1.12943239003373 -0.6607098003588614 -0.4362656871637266 0.08551804302776345 0.7963532669424942
5260 7 -0.008725113325385942 -0.005066880063710027 0.003490709893798895 1.129293523033141 -0.4777872178955299 2.606942425857714 0.2478571544769592 2.661928362361893
5261 7 0.00265010550549937 -0.008601501877535046 0.001003518555904883 1.129452432128766 -0.1674678926521918 1.083190506534344 -0.574777170666582 1.237625130819093
5262 7 -0.003857897901423103 0.01151294946271965 0.002473154276900621 1.129417705191163 -2.167756180139175 -1.002158605489543 -0.5676405660677426 2.454731052342403
5263 7 0.005436211285008387 0.000453731961369773 0.0004803003784608457 1.12942033999027 -1.291509630001498 -0.1653246970297315 0.0892805523169389 1.305105511771595
5264 7 0.003864310758511603 -0.00299290632179593 0.0004819969320133665 1.129415058240147 -1.541347122043501 0.5109034495604907 -0.2271882148969915 1.639630376149659
5265 7 0.008431805202286334 -0.00364972382318547 0.003535793001244682 1.12943551390053 -0.4535772672386022 0.4659272238524337 0.1049914675176906 0.6586681437066716
5266 7 0.002546822971387297 -0.003147104374963941 0.00151791579228504 1.129404299784465 -1.529773733640693 1.105543995439575 -0.0306898767578658 1.887690936177026
5267 7 0.0008704348563853948 -0.001455314226172368 0.002493388186275113 1.129369007614552 -3.312493390987136 0.2339440233718994 0.3427554791073288 3.338386375161357
5268 7 -0.001729633602182391 0.01219467743593558 0.0009844185721666311 1.129444624492497 -2.203505889900084 -0.6528579283091678 -0.3529508008141833 2.325131383207382
5269 7 0.000192889668571591 -0.01230000070874866 0.0009834835357633094 1.129459786955979 -0.904843718551816 0.1712992428166982 -0.358117996878384 0.988096192321597
5270 7 0.008209869726513034 -0.008697049218994985 0.003491916785255549 1.129446738172216 0.2559768450401849 0.3251104833506712 -0.009995575544218363 0.4139092691782754
5271 7 0.001621486171184113 -9.871865587902593e-05 0.00050876305567354 1.12938071858039 -2.829190244014228 -0.1986698703360066 -0.01434530210270763 2.836193389368403
5272 7 -0.00855340243332565 -0.005648090652254948 0.002991966703941269 1.12930347514305 -0.4941742772697158 2.694977600114811 0.2744676595324086 2.75362397170798
5273 7 -0.005074474204201886 0.00210219596953174 0.002486391383149687 1.12922870939469 -0.9936812869103757 -3.4185377232584 7.756661647244223 8.534612034247722
5274 7 -0.007896373527729206 0.001471031629323784 0.002972447538796778 1.12922218121363 6.155613797795933 1.297307700823051 2.943110009491712 6.945249097491088
5275 7 0.005881173573823151 -0.0005675297821927169 0.002966263191877584 1.129423781812817 -0.6699930732902242 0.04183669368924159 0.04012800173987566 0.6724963075879024
5276 7 0.008441711884464142 0.003834710806708592 0.002990260252809102 1.129436419749426 -0.2975948896015527 -0.4833062531418886 0.0269993731137377 0.5682223321830518
5277 7 -0.007537472591072384 -0.001337192198602613 0.0004361541442220083 1.129256083835895 0.3228627379171203 1.237017994839369 0.6377086740005913 1.428679887164141
5278 7 0.007707260872518467 0.007072703739616121 0.0009927735499497723 1.129444728473562 -0.005367397849638167 -0.4419231827406048 -0.06179366550163946 0.4462548212617884
5279 7 -0.007166921291575066 0.007512754250771643 0.003499395166421551 1.129337274079646 -1.304670537190893 -2.289615264796346 0.2193493244431166 2.644355762286169
5280 7 -0.006245257740582084 0.003507859951526293 0.0005210971994120068 1.12927960201291 -1.182940144549548 -3.086570693826711 1.575343326214039 3.661689859753816
5281 7 0.003443561078610325 0.009185760532223971 0.002985412431622735 1.129462321520181 0.9769179614195909 -0.5368405308049521 -0.6045527477264897 1.26808930428531
5282 7 -0.005848625306764302 -0.008369332576903633 0.0005141520114740618 1.129362006057029 -1.710185566750001 2.049644450727549 -0.1236243151675064 2.672276186777649
5283 7 -0.0121097386544636 1.574442436496043e-05 0.001500116368927886 1.129266265842918 0.5659825150394719 -0.002582658045486575 0.08522166085853239 0.572368420628246
5284 7 0.002799416058988847 -0.004469369729266485 0.002526046125315255 1.129417019632737 -1.650316414435296 1.630213405818404 -0.04890300295767882 2.320243849245784
5285 7 0.005451577932427435 -0.01109588785470774 0.002996434792886709 1.129457631172003 0.5479683948911208 0.1756746249448105 -0.1304479136690842 0.5900403323753962
5286 7 0.006303527558785544 0.007672424214549202 0.0009747722387832892 1.129446690845493 0.05731639721862587 -0.6190832094772496 0.01554829733617857 0.6219251877813197
5287 7 -0.007215548021843118 -0.00178094654136824 0.0009059557059031016 1.129254200266809 0.9255717611559504 0.4346266392428735 1.400457365319921 1.734031208677542
5288 7 0.005640430549788177 0.01021823972151313 0.0004913511061056695 1.129455065509805 0.3246959771617268 -0.3821951343190405 -0.1172207220122502 0.5150158210688593
5289 7 0.0002822125808947931 0.006503520061765306 0.003547510077209633 1.129439731595431 -3.107331402847484 -7.44558542484257 -1.08179663882275 8.140180264190617
5290 7 -0.006307058080928823 0.005280812584245132 0.0009807155233448283 1.129312171761276 -1.063687112221543 -3.138026418211957 0.4406212682759397 3.342571940311752
5291 7 0.01101441470732666 -0.003987164744548848 0.001007165408212824 1.129439086016845 -0.0568244165264815 0.1522273515641891 0.01043887754293583 0.1628224525124796
5292 7 -0.004526727698303726 0.001498369218085697 0.003494510583437191 1.129174879374834 -2.700834202818839 -3.950029140181187 6.910171651558142 8.405219084199672
5293 7 0.007058063774993351 0.00995449511705826 0.00101464527792764 1.129452134219659 0.3457390315468167 -0.4213109642056701 -0.09002002022712492 0.5523966061957062
5294 7 0.005383821303387012 -0.008451339707946077 0.001076956543475806 1.129449073476848 0.3495520851010366 0.6825368695683952 -0.1696469056397209 0.7853809974221679
5295 7 0.0030762829707562 0.0009229136203157699 0.003417289649116547 1.12940558445928 -1.970876231702068 -0.08913653066521626 -0.3397385328622406 2.001929247625541
5296 7 0.01115566052584853 0.001609806134596915 0.0008337488330213208 1.129438101562962 -0.09211717220275314 -0.0907102352353252 0.02549662701948969 0.1317725243761031
5297 7 -0.001230158093442179 -0.001660606647196334 0.001502784684526874 1.129322372125406 -4.355516239632058 1.772491377745286 0.6617697366604784 4.748703673871391
5298 7 -0.0009059348869416732 -0.006314712177823122 0.001008576661457806 1.129403402290639 -2.339128929908413 2.583289318465361 -0.4589356564938294 3.515043355413007
5299 7 -0.004186364161378106 -0.001525259120469349 0.003475493913933231 1.129186060597609 -3.686162946437416 5.651135241152595 7.871091849646365 10.3671217648417
5300 7 -0.006917120991653477 -0.006169463964952938 0.003063240107357785 1.129320661035355 -1.48538642517588 2.853583296550294 0.2802647045955214 3.229219529095171
5301 7 0.005782530445113807 0.00501427424969972 0.003473499115198168 1.129435540988412 -0.3440460915388848 -0.7839679074944661 -0.07675457181769958 0.8595723689017423
5302 7 0.003211548806532219 -0.0008315262692713375 0.003490382347750167 1.129406342016713 -1.978935698582856 -0.02669515350083324 -0.4401581728212835 2.02747092394624
5303 7 0.003650228048204371 0.007539537177993065 0.0004863504289526245 1.129445726344741 -0.1003086608886017 -1.446679234418957 -0.1574040917240561 1.458670176167237
5304 7 0.004443868582131837 0.008037457041203183 0.003486350428952624 1.129453053947428 0.3674730281080353 -1.581399809526872 -0.348516151823864 1.660519584961475
5305 7 -0.004914079527991421 0.004968544384439461 0.00049515430380515 1.129320243694282 -2.546459476655884 -3.153444345682659 0.3647486540949919 4.069607928072752
5306 7 -0.007419980546611229 0.007492822136711508 0.000499395166421551 1.129335537702482 -1.314671423921714 -2.190161749438019 -0.1800115286118988 2.560775974584842
5307 7 -0.01012088678052487 0.005664036786421337 0.001001983796410115 1.129298349657303 -0.6410136812888474 -1.737131543108188 0.2527188704448724 1.868794093831594
5308 7 0.001907337198932577 -0.01209816574159811 0.003000820467835794 1.129472114890631 0.2898825870922067 -0.750910401859147 -0.8749698579303394 1.188894696012298
5309 7 -0.007522806550311212 -0.007022586967029032 0.000501256810142374 1.129329279040242 -1.404247895933604 2.192272213808938 0.09377363533143218 2.605141667425395
5310 7 -0.009413786495150143 -0.0006350711897469644 0.000938351420629003 1.129259513226038 1.053821744048854 0.4112527744219753 0.5342087114292068 1.251018808838138
5311 7 -0.003140756113246682 0.009387382542242952 0.000488743033681845 1.129410347324516 -2.572154917710014 -1.429071346698586 -0.3034547643300359 2.958092396908744
5312 7 -0.004088514724439267 -0.002060256115766684 0.002958870133594878 1.129221990515896 -2.745622027388603 3.380365250268821 6.664545373876972 7.9612483055719
5313 7 0.008583411100595611 0.008078928759668629 0.0009768337237954581 1.12944627598504 0.1429754845344566 -0.3187817741071475 -0.01356488656223498 0.3496395498627256
5314 7 0.009826292673050064 -0.007349549007083866 0.001014562073425484 1.129443145031939 0.09520908268117381 0.2313351938944628 -0.03331697528874515 0.2523702878739297
5315 7 -0.002535297557533235 0.00730294584871798 0.0004849179433211965 1.129396621918789 -2.74542428311368 -2.511090831978983 -0.7245891366780928 3.790509342786411
5316 7 0.00796186794710866 0.006997107412564584 0.002992773549949772 1.129444568783486 -0.006466841496013868 -0.4348341563098751 0.05810292060941276 0.4387465246768334
5317 7 0.0008953652929537274 -0.007031363720124945 0.000484699105247369 1.129430620817383 -0.7843649726481992 1.8683248601759 -0.2058072826738034 2.036718643080158
5318 7 -0.003334434956771058 -0.002653692722799292 0.003002232665698549 1.129260032447923 -5.295259639959766 10.66417556225476 3.385717953161901 12.37850964920823
5319 7 0.001019115656468354 -0.003593632722944326 0.003543865021362802 1.129388518443222 -3.281495562679553 2.52260018755323 -0.6502763869876801 4.189819114663894
5320 7 -0.0121097386544636 1.574442436496043e-05 0.002500116368927886 1.129265201496563 0.5650229683881136 -0.007633692896873514 0.2897273789438783 0.6350206155575177
5321 7 -0.01115403905644536 9.850951517384053e-05 0.003502197276406995 1.129261031299765 0.474941339355704 -0.09154826703230481 0.1828806704429788 0.5171031818189495
5322 7 -0.001472538893588065 0.01020086356126308 0.0004867771605588453 1.129441196088114 -2.119824096145407 -0.6846583908991933 -0.9585251210479746 2.425114784604514
5323 7 0.005380461682990312 -0.007749024170880966 0.001559423604983966 1.129446506456108 0.3881594779924426 0.8088939228533182 -0.1270279826578609 0.9061530042782627
5324 7 0.009765653922213173 0.00660914760820122 0.003020312925136194 1.1294431560226 0.06329613180364958 -0.2728359977436307 0.01949729042562064 0.280759730552671
5325 7 -0.01161669894297879 0.0005534092406023123 0.003007382326951919 1.129263203063865 0.5072459754333126 -0.1490873969617469 0.2173711688933434 0.571643032488091
5326 7 0.0038262829707562 0.0009804895573885374 0.003417289649116547 1.129412038162651 -1.074320950271147 -0.07131927186157415 -0.3764014013153523 1.140583165596672
5327 7 0.002240933092224921 0.001858615947463244 0.003490803720623934 1.129398209658957 -1.768942770862429 -0.6267408763820249 -0.6845083405896246 1.997627172685464
5328 7 -0.002836999148391029 -0.006594793699359254 0.001011215664094502 1.129378797006578 -2.858140071216088 2.663759571137433 -0.4172227415798933 3.929205331311769
5329 7 0.005655391178254876 0.0001383772897580715 0.003480300378460846 1.129422829712533 -0.6257692123858867 -0.01268670565666739 0.01695702619710223 0.6261274633873849
5330 7 0.002746049235469867 0.008334424885983162 0.001495259388772364 1.129454320508065 0.2003128246329293 -1.68759819715609 -0.3112126825989523 1.727705483167587
5331 7 -0.00106964191565176 0.00538260442701353 0.003500851209436649 1.129388450789676 -2.535844134783806 -4.213671344196929 -0.2994414276432446 4.926986588312658
5332 7 0.01011877683441748 -0.005236696679350812 0.0004878437088686505 1.129440204755487 0.01112593608142873 0.2131879987978526 0.03190441581240053 0.2158490237027997
5333 7 -0.004019375327923829 -0.007028641715749302 0.003487338107884064 1.129369866031299 -3.064267620747394 3.413938245956947 -0.1690038048447776 4.590563438709948
5334 7 -0.01149791931056529 -0.00242316056618231 0.001013201435703267 1.129271900623875 0.1762824871023578 1.011981398913886 0.2873329051138014 1.066649926343144
5335 7 -0.005777342352933142 0.001952521825098327 0.002991880799712496 1.12920394722101 0.4725973334378681 -2.781042830091305 7.038251139429366 7.58251452778388
5336 7 -0.004594768953257709 -0.007831272710370773 0.001001490119358126 1.129371136330273 -2.455545358194761 2.300439819147326 0.05076183737464944 3.365160194077552
5337 7 0.01030027161255599 -0.005849448105629761 0.0009792237388680917 1.129440910973311 0.007807531507332936 0.2388356686323294 0.01879502912826929 0.2397012458858367
5338 7 0.003126708967647548 0.002701386325048806 0.003448376604785651 1.129410726994697 -1.440462222121411 -0.2982476687097844 0.06507939216508091 1.472453195362878
5339 7 -0.003857897901423103 0.01151294946271965 0.001473154276900621 1.129415569776812 -2.141466494809879 -1.002252209228646 -0.1798208349209804 2.371228325566454
5340 7 0.003309637975475575 0.008902720605214203 0.0009854124316227351 1.129456551052349 0.521066831751026 -1.208625549434962 -0.5184093422123923 1.414579304242467
5341 7 0.002410358670871976 -0.00522877263208037 0.003500184171939087 1.12942343568205 -1.321308856193356 2.423690441220573 -0.5055756587701518 2.80637474244974
5342 7 -0.01080536656350185 0.005474642949603252 0.001525626872220285 1.129294430184001 -0.2747861949906574 -1.461732617405838 0.04577801065110652 1.488040766916262
5343 7 0.01210352679040767 0.001107172269849563 0.001946025042517321 1.129438333983678 -0.08737636515113324 -0.02293461572352465 -0.001672514626467446 0.09035166346330134
5344 7 -0.01007036152123966 -0.005181310779661106 0.003490709893798895 1.129292698364909 -0.6382172955584232 1.792947118029098 0.01397836502710296 1.903201534017768
5345 7 0.006602400302596611 -0.009154657253071958 0.0005106422606330468 1.129449297868519 0.2738340419472264 0.3517654934142735 -0.02012002498350031 0.4462385688076271
5346 7 0.000247688034082779 0.01204271595081201 0.003510920252056628 1.129477396871669 -1.127917038148467 0.7469582924258373 -1.276367132698736 1.859907684000183
5347 7 0.001800822252775068 0.007834450777902492 0.0005098469571496295 1.129445956068455 -0.3714888631853175 -1.930330063958449 -0.6339365114502372 2.065442720542559
5348 7 -0.003756396327556077 -0.002934400053294492 0.000483376219661647 1.129294509506172 -2.947781859374047 3.097064104620037 1.350568783625199 4.483888936836357
5349 7 -0.0106659549884763 -0.004967560699518475 0.002967527850372857 1.129289475974026 -0.33984784122707 1.585947428609991 0.2236628395968729 1.637299870920987
5350 7 -0.005726089617497257 0.002843181063419502 0.0005210971994120068 1.129271708133587 -1.250133445405606 -3.004280338011948 1.588569891500983 3.621061761537674
5351 7 0.001864821753789402 -0.007474451911508947 0.003687459334259444 1.129457171031744 0.8133756228833432 3.078766966556515 -1.132071538099926 3.379640795356276
5352 7 0.006732746567099056 -0.009316882319843791 0.003510642260633047 1.129450540799961 0.4598771708337862 0.402521929432456 -0.1448081659543344 0.6280766838970959
5353 7 0.002345053122350711 -0.003158461553793853 0.00251791579228504 1.129403018388339 -1.538796215648716 1.098753434249294 -0.1118849615327306 1.894114871697756
5354 7 -0.007023230759889658 -0.002594191202250225 0.003469801561681093 1.129225843861571 4.0277576738691 8.958751249478173 5.283971543562054 11.15358288186409
5355 7 0.00235442164628124 0.007160450127193798 0.0005098469571496295 1.129440982708815 -0.6933364904546371 -1.552954410356541 -0.6198078306406127 1.81012282361314
5356 7 0.01152642691066156 0.002114991862513385 0.001303218623700881 1.129438493069447 -0.09298098393364634 -0.09288940433386031 0.02438205084190624 0.1336726943471466
5357 7 -0.002606268003590776 -0.006100008298801052 0.001009357385403422 1.12937260855271 -2.255792523529037 4.186331056288183 -0.4146161482699031 4.773455160830424
5358 7 0.00895041373590115 -0.004403228433876317 0.0004878437088686505 1.129438136662147 -0.1994506036524041 0.3562114401311577 0.008714122254132102 0.4083418534809795
5359 7 0.01017077738534683 0.001083836578917106 0.00351419864220469 1.129436544302803 -0.2593370349927906 -0.06286244074754962 0.04943546018625791 0.2713876358632025
5360 7 0.01202711602901597 -0.000876689523715873 0.00191964430225104 1.129438030456883 -0.1247735483721765 0.004928465053681478 -0.008818594655280943 0.1251818507326976
5361 7 0.002592304480876766 -0.003806834195632241 0.003025861953376168 1.129409994703729 -1.58892855959496 1.269756512606392 -0.2012319063228105 2.043885967691244
5362 7 0.009531529417472775 0.003114267821157217 0.0004913716355457505 1.12943778291053 -0.2064918720872087 -0.2436098850217058 0.01551121161665947 0.3197268631256774
5363 7 0.008748874620686097 -0.001352453353167087 0.0005075933896495858 1.129434056373919 -0.4489579187483415 0.05025751590814489 -0.01484372535829763 0.4520059367913351
5364 7 0.001407749313633053 -0.001180461953786266 0.003000816894582412 1.129379574627943 -4.03423285938073 -0.1248350636835883 -0.1311026422119718 4.038292517838086
5365 7 -0.001703620520865699 -0.006748818283357388 0.003523877556210437 1.129413875402785 -5.733880004005354 7.428074211422421 -1.390659167198738 9.486179384243433
5366 7 0.01122792870338873 0.001673919433482301 0.003126474851700691 1.129438034561288 -0.08963533501524297 -0.0806277117260395 -0.00821385958997628 0.1208419987869946
5367 7 0.002312580828550801 -0.007219829041439479 0.000493387427409996 1.129439429202423 -0.7094797847062114 1.878033495764276 -0.4807954616237156 2.064348723456703
5368 7 -0.01195137193646947 -0.002004795447302828 0.001505935477679234 1.129270233976444 0.3299690698521905 0.6306383488709997 0.09539337915532282 0.7181115588211429
5369 7 -0.01178736388586513 0.003643749162407324 0.003016326776496474 1.129277167443491 0.028335502107755 -1.236628989034891 0.3928541895152862 1.29783996371697
5370 7 0.0002459516088545344 -0.01206762320879458 0.003506777707585291 1.129475115113363 -0.7175513639060223 -0.605505114578655 -1.162370452804946 1.49419592864466
5371 7 -0.01080536656350185 0.005474642949603252 0.002525626872220285 1.129293886227466 -0.271870493856589 -1.456023524628557 0.1476899304373184 1.488532964114054
5372 7 0.01157870147223452 -0.003671010188337463 0.002477057878126513 1.12943902783554 -0.08603438483360777 0.128187195841191 0.01808978046823617 0.1554384531212086
5373 7 -0.008699816076567437 0.004946563575126477 0.003509300095723848 1.129290761047093 -0.5655828307951765 -3.158559069407673 0.7501522313674143 3.295316024853043
5374 7 0.0009359134523784065 0.002363922562130485 0.003490803720623934 1.129376429865804 -3.410798021382406 -1.47338093001236 0.1727307471077754 3.719439530169382
5375 7 -0.01076785924717986 -0.005029908853724697 0.0009675278503728563 1.129291764234765 -0.370569083404503 1.287240301566031 0.1314754108755258 1.34595498558308
5376 7 0.002316755743332006 -0.004760408618183707 0.003044049193301889 1.129416173869412 -1.251542523697492 1.926327193424325 -0.2473210418057565 2.310468100292451
5377 7 0.009482148912070013 -0.003112233515705077 0.0004831399512307885 1.129437008810901 -0.3004033583276823 0.1495654684819628 0.0172201792632442 0.3360186626225353
5378 7 -0.01008485742644791 -0.000524251809227781 0.0005021972764069947 1.129263067107412 0.4208119646233714 0.3619389049798447 0.2359079217902324 0.6031044918350195
5379 7 -0.0009980281401216842 -0.007920250017422782 0.0004794771961427927 1.129428095167536 -2.451667639811508 2.605544786281923 -1.582938829171306 3.9121903310445
5380 7 -0.008043722836481575 0.006303058516264853 0.0004855612195396782 1.129315919819618 -1.115371801383841 -1.900379968003661 0.3289296443435006 2.227934691376696
5381 7 0.0014891703090652 0.009572622427834637 0.00349906200267011 1.129507413107599 7.157050298665293 1.408976723113271 -1.526877253210742 7.452512229461442
5382 7 0.003880694640597254 -0.00400680069457553 0.003481996932013366 1.12942164609392 -0.8929733233849612 0.8173437539830926 -0.2162602175156692 1.229723810508799
5383 7 0.001259366384896237 0.001072668616593631 0.002999566776297474 1.129377885462001 -4.073003531403899 -0.262047244185152 0.02908522037937462 4.081528203388797
5384 7 -0.009743585948265836 -0.002282496618927982 0.003488482383418866 1.129260702068927 1.409964666606297 2.330627431975567 0.6082803038170178 2.79102660606576
5385 7 -0.006948799091383713 0.005726855032929795 0.003485561219539678 1.1293105175703 -0.7552132433723968 -3.5129398764665 0.2881446234313493 3.604735904701746
5386 7 0.007284050158224151 -0.009217783577792385 0.001002559045888596 1.129448536344056 0.2274474452639239 0.3431680429358787 -0.03962326702540288 0.4136020422329816
5387 7 0.009634153554247961 0.004510461005746835 0.0004913716355457505 1.129439751331729 -0.1234160431206052 -0.310639776373175 -0.0237856781167924 0.3351034897583117
5388 7 0.003594900045138195 -0.009990850726717973 0.003510131128494887 1.129462957360509 1.045950339301007 0.6058839884612297 -0.5472216196738224 1.326860588304597
5389 7 0.01023951658677934 -0.005840843229993833 0.002979223738868092 1.129440917051797 0.01352633429639338 0.2438603492500111 -0.02152022968072114 0.2451814673692655
5390 7 0.001088881742635251 0.003985616681569394 0.0004744222377414007 1.129395532957596 -2.491516771800339 -1.651672841471986 -0.3324748207390895 3.007693220034919
5391 7 0.005180080544476086 -0.007143860356780895 0.003048781344350919 1.129444234569045 0.1587281647216924 1.007066230250744 0.0610999770170463 1.021327679826042
5392 7 -0.006962241180839374 0.0004477481625664463 0.003474762207754114 1.129169836408547 4.370756343550564 -1.985000274625131 5.515079575373742 7.311623610912555
5393 7 0.009820149054179467 0.007175310147509151 0.001513765807246601 1.129444041594734 0.06286549404355919 -0.2684720598850278 -0.0209381657998703 0.2765279806227818
5394 7 0.008924847808519884 0.0008649656331512254 0.003474896871125994 1.129433578191307 -0.573181394362213 -0.0979495604287061 0.08881546827579616 0.5882339794981556
5395 7 -0.003344935181422562 0.005561010111938685 0.003503171674414813 1.12934703646516 -3.290965456118953 -4.963178700034037 0.1882649655089311 5.958107093622761
5396 7 0.01157870147223452 -0.003671010188337463 0.001477057878126513 1.129439061516009 -0.08654907759607318 0.1256283354096796 -0.006322230770490335 0.1526865812455482
5397 7 -0.004015206930894595 0.001772332320454264 0.003494510583437191 1.129192910904009 -4.799631168336262 -5.107489957996029 5.903373469802608 9.163663642182883
5398 7 -0.009124938540827547 -0.002062694156050489 0.00142354788252167 1.129263765042531 0.7319727901853503 1.678371054848106 0.444723669880621 1.884275114168778
5399 7 0.008271389558747186 -7.612021394607082e-06 0.000474896871125994 1.129432526188448 -0.4298162078455529 0.02343806875598626 0.01096403334179628 0.4305943864251622
5400 7 -0.0007135524722418449 0.007398843094920487 0.003684724317412645 1.129459364919664 -7.741624845003276 -10.73742353693825 -4.62946011830761 14.02344181858962
5401 7 0.006485611953060309 -0.00978321455873405 0.0009997220085764236 1.12945083063865 0.2806771425500748 0.3666389003587861 -0.02812828251003651 0.4625958731801866
5402 7 -0.009878862047382878 -0.002551055514599121 0.0004884823834188663 1.129271891089812 0.1820807034466778 1.451627309843531 0.1401085853284751 1.469695766114181
5403 7 0.01167501719970464 0.001688046728918071 0.0003195501908166308 1.129438392166623 -0.05509755705330218 -0.08566594234581423 -0.02685945607097293 0.1053367212878148
5404 7 0.01006482790094112 -0.007070614169358849 0.003014562073425484 1.129442655742654 0.08849067531837085 0.2410923744467686 0.02845485734689504 0.258390811642586
5405 7 0.006537872487445281 -0.003972568258400486 0.003037875598471871 1.129432076117308 -0.5150314428077526 0.5735184868563131 -0.00984539890449398 0.7708941391178032
5406 7 -0.000253185487912784 -0.004694287995360882 0.003493567053292282 1.129386986963161 -3.105583099498303 4.147445636202221 0.152943437845759 5.183564737545236
5407 7 -3.653765978440516e-05 0.008610515268334092 0.0004867414926955115 1.129447194372886 -1.574797015858433 -1.562841194633932 -1.779882321129211 2.844369757585984
5408 7 0.006456022989570707 -0.001457314396113053 0.0004859628134167387 1.129426661003898 -0.6646509536688858 0.2768013325963081 0.05438563973563237 0.7220371636900039
5409 7 0.004989767972919204 0.01069650808506957 0.003523294185131161 1.129461144806388 0.9273368448554153 -0.3621211631158013 -0.2199868696273713 1.019548715565464
5410 7 0.007335055380226767 -0.009339142255654569 0.003002559045888596 1.12944917767051 0.2460336284274664 0.3794334839457899 -0.03717262939241021 0.4537445530608275
5411 7 -0.0117516110022725 -0.003610480412945509 0.001001537008858362 1.129279337403453 -0.2510785796879613 1.192906204764372 0.0044532203087063 1.219051064440936
5412 7 -0.0008345920202969103 -0.006821260260302535 0.001008576661457806 1.129412087895515 -2.372226590582437 2.789004849326689 -0.4499522488352066 3.688965176423602
5413 7 0.005733830805387283 0.01084756494083776 0.00301464529123683 1.129458087516358 0.4856328027354354 -0.3394781620064314 -0.005387188351952256 0.5925484481207242
5414 7 -0.008024165744323816 0.002461506609290276 0.0004976853310426649 1.129265867083241 0.427135231714028 -1.763045657682592 0.5045485025793986 1.882908305972426
5415 7 -0.001400691456406521 0.005434801433225741 0.0005008512094366488 1.129381242899631 -2.485755511939534 -3.150131306893791 -0.003807910188902819 4.012769893227142
5416 7 0.003163057158199679 -0.003547762632260108 0.003481996932013366 1.129413852018841 -1.61003679709829 1.256018665024128 -0.2137130503279277 2.053162108256427
5417 7 0.004112718385176546 -0.01121238017986594 0.003507355044943333 1.129463732963618 1.05456786864566 0.1650957583409891 -0.04379205154899207 1.068310695809466
5418 7 -0.0009384604757051828 -0.002255290619185669 0.003011427737729603 1.129329631727287 -4.671632977297238 3.243520836667765 0.6866025820397377 5.728525569300764
5419 7 -0.004610036115898426 -0.003060705070257528 0.000483376219661647 1.129285507979809 -1.714650119118778 3.279488888724432 1.398764883077721 3.956212279490634
5420 7 -0.001393822709012587 0.007922587042745611 0.003684724317412645 1.129458344637885 -9.090488546036305 -10.13662698050786 -4.78639427111365 14.43252433450666
5421 7 0.005652737650035891 0.007576150522697516 0.0004913913970982377 1.129446339713352 -0.0495457488114171 -0.6543828973284818 -0.04522728007143374 0.6578124842262894
5422 7 -0.004823596409039224 -0.009180899410962305 0.0005141520114740618 1.129383493891549 -2.225706410841519 1.579513585900149 0.03893992334435217 2.729496018120241
5423 7 0.00302148622238154 0.003461142490303287 0.003448376604785651 1.129413448796969 -1.440465693451355 -1.320227404731156 -0.0550960053721065 1.954732049162089
5424 7 0.007947789831723598 0.008721873186834529 0.003006675013507022 1.129448377102101 0.2599565314112915 -0.3970502042817198 -0.07689207665599708 0.4807688159562941
5425 7 -0.008289499670632628 -0.006165089112215459 0.003501256810142374 1.129310788473059 -0.4515930613236513 2.46622237652205 0.3830833738660662 2.53632450108939
5426 7 0.01061682759367365 -0.004959290694570111 0.001011869165850686 1.129439905727468 -0.03209650744696192 0.1800221972105779 0.0001529149551560827 0.1828611513192471
5427 7 0.01204578358451767 0.002193232456834541 0.0007890199814961905 1.129438783673109 -0.0498703057940521 -0.07082029808827646 -0.01823501941084266 0.088515975700539
5428 7 0.009820149054179467 0.007175310147509151 0.002513765807246601 1.129444053644093 0.06258830348140999 -0.2670343309178648 0.0168411714478339 0.2747876537931938
5429 7 -0.005844004225429984 -0.006238629461038987 0.0005619832972154113 1.129332727827732 -1.478461779044154 2.939300816665525 0.06136304377023379 3.290760390257208
5430 7 6.943499618148391e-05 0.006135715126231146 0.003547510077209633 1.129423390644913 -1.78827893341968 -5.491651659447919 -0.8607979437376273 5.83927671825652
5431 7 -0.00390443924100396 -0.0007864844209316841 0.003475493913933231 1.129177271616538 -5.830386295815067 2.179715951637791 7.148376406172834 9.478599645125898
5432 7 0.007984510813624918 0.008754326596911652 0.001006675013507022 1.129448136606339 0.2175033294177001 -0.3810794958977949 0.01954150859034673 0.4392165195657931
5433 7 0.001313937464327964 -0.01183949567018372 0.003506777707585291 1.129476647627492 0.2574518955677245 -0.7567417007925376 -0.8583653220980194 1.172915387583535
5434 7 0.002814825512083901 0.005438227613533082 0.003488285932918712 1.129429922876783 -0.2153933339509909 -1.824671753856032 -0.2642302012353148 1.856243221368209
5435 7 0.008521433978756543 0.005816333934932296 0.003509392708264721 1.129441677129436 -0.04278325159326159 -0.430150187049637 0.03954975092365057 0.4340780722794608
5436 7 -0.001710013934252304 0.007446870375829541 0.0004849179433211965 1.129411136303375 -2.586055164285451 -2.494534643123654 -0.738061075380211 3.668121937649143
5437 7 -0.003235659835767002 0.006145099521547666 0.0005031716744148134 1.129365466409501 -2.886620090447321 -2.881737635426873 0.1082620223520902 4.080282834742407
5438 7 -0.008537632252668011 -0.003264815430533078 0.003498911354880796 1.129263034112689 2.706186846800906 4.280179565202303 1.006720627320251 5.163029225333291
5439 7 0.01079832237181215 -0.00557204212084906 0.002503249195850127 1.129440611495926 -0.03396114180385546 0.1994597620814582 0.008837703484080311 0.202523235321496
5440 7 0.008528495830598748 0.008699175968081214 0.002500127895617428 1.129447611273283 0.1453298960297148 -0.336121791363867 -0.01121098113047284 0.3663663786533509
5441 7 0.0103562937367825 -0.0002568734058410185 0.0005003241664634497 1.12943683835789 -0.2744557643762284 -0.02193703530744275 -0.02885555432589564 0.2768390202498096
5442 7 0.009429443766203277 -0.007253234197884949 0.003523182043426043 1.129443244328115 0.1257033040712585 0.2599761995571421 0.00868361250703549 0.2889019731964089
5443 7 -0.002885309385916219 -0.00462390001069249 0.003485479829192984 1.129333536163857 -4.221444736323975 4.64254745495436 0.4514472737968722 6.291076789736334
5444 7 0.0002869542308438223 0.009930614872419063 0.0005031635976452445 1.12945800785721 -1.326653579420176 -0.9804060816237002 -1.288053598336751 2.092913728958114
5445 7 0.005789058269329492 0.004250645067980639 0.003473499115198168 1.129432181906029 -0.3432018899695176 -0.7747819233427352 -0.07807521822854238 0.8509819655661049
5446 7 -0.002074621849449148 -0.001545538259168775 0.003010213392834173 1.129274056620832 -10.40104766744049 3.492886876090081 3.529668926706828 11.5256502654597
5447 7 0.007531000373294386 -0.00709848525570971 0.0004871712423444145 1.129443398158915 -0.02679088795208783 0.5238242637701765 -0.05667938540071833 0.5275624737611955
5448 7 0.002538510805716838 0.009644175759319785 0.00349906200267011 1.129477628360987 3.262232012432212 -1.714585966027935 -1.841619212321005 4.119893695355173
5449 7 -0.005492675021944454 0.00496622402373572 0.00349515430380515 1.129301331664889 -0.6241268054435217 -5.949896449900266 0.9407478633452367 6.056055529484316
5450 7 -0.001577503333152953 0.005312890868064172 0.003500851209436649 1.129376631124505 -4.133131995294861 -4.617812697710772 0.026050364223764 6.197390807682303
5451 7 0.004186225692966103 0.00157881915115368 0.002914116876967146 1.129414669818814 -1.195653002284714 -0.6653618730389282 -0.269719572758981 1.39464732885974
5452 7 0.007665548098153607 0.007493485052239676 0.003483380841685051 1.129445952417876 0.09380547755395691 -0.5451259285037148 -0.03776995344903793 0.5544261131383564
5453 7 -0.004514746779977827 -0.003245387936193929 0.003483376219661647 1.129249371120165 -5.754900373640973 10.95024282216227 3.538906943039757 12.86664519314745
5454 7 -0.009129144016687865 0.001601304343699273 0.0004976853310426649 1.129262676566907 0.9279155601216559 -0.6039752738228282 0.177357744528565 1.121280155736962
5455 7 -0.003807455262061939 0.00217878537918653 0.0004945105834371912 1.12928082226291 -2.826138755880924 -1.734604096171748 2.114197315017756 3.932650750419655
5456 7 -0.008480905709686353 -0.002149391081890911 0.000935065499102804 1.129263356367235 0.6479409943517668 1.687587766942997 0.4875562372150098 1.872295673162887
5457 7 0.004810880490749137 0.004399191672619185 0.0004734991151981682 1.129428431216597 -0.9936326243228497 -0.8572054809038789 0.05413326652254288 1.313406806421668
5458 7 0.007706126539885116 -0.001854320232048908 0.003507593389649586 1.129430544602548 -0.5969109337559576 0.1668148912604054 0.07607250094162391 0.6244332599911246
5459 7 0.002871522416995097 -0.005531833715175709 0.003500184171939087 1.129429139223414 -0.4176908643544329 1.783329450530794 -0.2556004741039233 1.849340744605431
5460 7 0.002703640234031795 -0.005896307954923889 0.000500184171939087 1.129427865358721 -0.8759503630860194 1.436229767759833 -0.1856765612614998 1.692489518369874
5461 7 -0.00628755651708759 -0.002534778913429199 0.003469801561681093 1.129210501414024 2.235034466669316 8.946568950139349 5.167791779695331 10.57083473170799
5462 7 -0.0004841244426604262 -0.006497817940933574 0.000484699105247369 1.129410635258958 -2.417918871808423 2.683405665367924 -0.3846455329042163 3.632485350494777
5463 7 0.005445459438364731 -0.004543495554881751 0.0005020825972271893 1.129430686660597 -0.618927134009343 0.9211805043334678 -0.01841730266785479 1.109947528406024
5464 7 0.007781821942665879 0.004534910537561531 0.0004988886172633515 1.129437295655902 -0.3803383264295495 -0.4195076415126036 0.001868788685934802 0.5662573586363804
5465 7 0.007634020017980646 -0.004165178707025327 0.000535793001244682 1.12943558640116 -0.3737391884864574 0.3380061690724974 0.01886184064267251 0.5042667155127443
5466 7 -0.009369815636211382 0.003913134934921179 0.003509300095723848 1.129276801267704 0.7366887851069729 -2.028891559876456 0.5528676073600038 2.228177263843315
5467 7 0.008797949245223652 -0.008558672414162631 0.003015098828681592 1.129445824865825 0.1746624124686394 0.2901889290086668 0.02992361912905026 0.3400176404693478
5468 7 -0.006518739077428995 0.007741591524910236 0.003499395166421551 1.129346382599023 -2.069591967138219 -2.596366886862894 0.1428857042754649 3.323363995431054
5469 7 0.006564952995560138 -0.0098240809476437 0.002999722008576424 1.129451703518452 0.4579203086188245 0.3981651892907822 -0.1472845108647037 0.6244351480731837
5470 7 -0.001548344914831448 -0.01029779756150284 0.0005720303182787963 1.12944123472455 -2.011658635975931 0.6761401979505041 -1.084355061219427 2.383225111854371
5471 7 -0.008115135276333896 -0.003481628495567629 0.0004989113548807958 1.12927867939521 -0.5067532765925092 2.547631484273432 0.3914740909914354 2.626875906265095
5472 7 -0.008264890822447288 0.0004621363978731648 0.0004747622077541135 1.12925061673237 0.7722752280994326 -0.4315919731085539 1.869964476487566 2.068682624887922
5473 7 0.003852811463076478 0.01159610216579728 0.003016747077487462 1.129466482842686 0.5402340544198933 -0.08881428213553888 -0.2475872959670573 0.6008662741330109
5474 7 0.006984135060822667 0.007594848119531926 0.003483380841685051 1.129446808762733 0.1765522327084262 -0.5372327044738509 -0.04367412968147164 0.5671834793380818
5475 7 -0.000157859648172503 0.01239661263949488 0.003018981900033425 1.129470075278453 -1.012526496580614 0.6849811484221117 -1.216264439372386 1.724444335562418
5476 7 0.002438038736969477 -0.0115661209043193 0.003494042760250503 1.129472807089639 1.775274320703873 -0.4839731212994705 -0.1314781562339913 1.844753479860558
5477 7 0.01079832237181215 -0.00557204212084906 0.001503249195850127 1.129440611945292 -0.03298233715425066 0.2002288286736093 -0.008403472073341942 0.2031010505611669
5478 7 -0.006745156895499182 0.005665205375093089 0.0004855612195396782 1.129315976458017 -1.497973195741584 -2.581810849791307 0.02345577599261262 2.984999352208938
5479 7 -0.001512908880840467 -0.009075821183028685 0.001549729524102381 1.129440013001497 -3.330492754572208 1.406488690666742 -0.6328799759538113 3.670276486750653
5480 7 -0.01023489488722851 -0.005801818754552365 0.002998793108283816 1.129298104484409 -0.6337537866735947 1.623769155372322 -0.03611292237350756 1.743437488189358
5481 7 -0.003260704558562636 -0.005327776553044394 0.003485479829192984 1.129344438310966 -3.938997339156471 5.269945894390715 0.4365412705545104 6.593830301773368
5482 7 2.487700793798764e-05 -0.004347291959419213 0.0004935670532922815 1.129383921838679 -2.33703585738208 2.620722985776092 0.05214420084403436 3.511786523202459
5483 7 0.005022572893991376 0.007062436958818072 0.003491391397098238 1.129445572133112 0.2732686794054372 -1.13093294455622 0.05023474451821475 1.164563706193613
5484 7 0.003161496208932824 0.0114052340533575 0.003493452892356301 1.129472081529912 1.768222841271885 -0.2643452248564123 -0.8515511507225594 1.980310525295697
5485 7 0.01155727595177297 0.002185025413083459 0.00259594464238025 1.129438449793455 -0.09220890849593796 -0.09752498252611984 0.0002966361946149473 0.1342150998053654
5486 7 -0.002191259173692549 -0.009431553701020768 0.001070252327959589 1.129429234566225 -3.033795320634834 1.660729803786724 -0.551626008305331 3.502317630045878
5487 7 0.008649801817101 0.006230581751895025 0.0005093927082647207 1.129442582954413 -0.1234313650730347 -0.4438291266230489 -0.05949089192101262 0.4644983979997442
5488 7 0.000981566366978456 0.0005643480967032653 0.00350876305567354 1.12936774198818 -4.493396481189215 -1.453462759362325 0.9204918815302234 4.811493659351513
5489 7 -0.0001967738237280836 0.0105213869389385 0.0005031635976452445 1.129456802140383 -1.622847759836211 -0.6357308659327132 -1.258310113925663 2.149682052842369
5490 7 0.004802731608352667 -0.007351470095502074 0.00356631428284276 1.129446161604847 0.3856037928595734 1.217379203140211 -0.208555308573765 1.293907927960982
5491 7 0.0003555378206415284 0.01045961440828018 0.003503163597645245 1.129506947444838 0.7505451062259959 7.173306423536717 -4.45860768729561 8.479317514496342
5492 7 -0.00864836095556284 -0.002782853707388472 0.0004989113548807958 1.12927068347451 0.5617486337862251 1.496813392495501 0.3679318118106982 1.640544323588023
5493 7 -0.004998303266616808 -0.008387483554099899 0.0005141520114740618 1.129372540621178 -2.533386076187461 2.187198344302806 -0.04395888433926533 3.347209881655733
5494 7 -0.007568857270419832 -0.006416855553198 0.003501256810142374 1.129318587683084 -1.452017211762635 2.882804982555967 0.2631166049058654 3.238541168254872
5495 7 0.002937503757613316 0.009420981571493771 0.0004990620026701105 1.129458816867987 0.2509914426517159 -0.9499785024831542 -0.7754984573838462 1.251740275324418
5496 7 -0.006886934846839667 0.002750950684637789 0.003521097199412007 1.129229295002383 3.11339650592762 -9.351887911498197 4.2706349446864 10.7419443371824
5497 7 -0.001303878044938398 -0.001628448793313284 0.002502784684526874 1.12931439653546 -4.325011343328363 1.803962139932079 1.388426694700015 4.887507668411676
5498 7 0.005644174023038936 0.00143043969180091 0.002977127606311445 1.12942323650079 -0.6555919939975102 -0.1079284491142908 0.03217294491675145 0.6651950925153191
5499 7 0.002580605147533382 -0.009219076249098694 0.0005101311284948868 1.129454696528434 -0.151162902310314 1.134271895211121 -0.5365734480337463 1.263856803769925
5500 7 -0.009363027545381822 -0.004751707721911009 0.003490709893798895 1.129288770400011 0.2203221486291826 2.244601002002362 0.1136251732887708 2.258248477774642
5501 7 0.009522804984912767 0.004012550985411856 0.003491371635545751 1.129438587109455 -0.1795439152869899 -0.3161721822634058 0.04084535389684344 0.3658814142433918
5502 7 0.005836123843049826 -0.004954435564921055 0.003502082597227189 1.129433951151519 -0.4373618428649715 0.7624261895823139 -0.0324745130374973 0.879564477541171
5503 7 -0.002149770812166989 -0.0009101097342312917 0.003491356946797271 1.129246312512335 -10.49567892040574 3.968613694110615 3.750682505247816 11.83117872016579
5504 7 -0.01030586376042877 -0.005800574808406777 0.0009987931082838159 1.129299135595779 -0.6303882209645313 1.63455974224847 0.2654122342122195 1.771896868945744
5505 7 0.0005527941084481914 0.00466171001790747 0.0004744222377414007 1.129396813836641 -1.850696951306157 -2.45971965067514 -0.2561131266761302 3.088833744173868
5506 7 -0.0001747675458072618 -0.002318187226220326 0.0004925712916927011 1.129355989844767 -3.062047614856898 2.055017112211989 0.2575295147006625 3.696694791036566
5507 7 -0.0001510689303151063 -0.01240422158644055 0.00298348353576331 1.129468503071358 -0.8521338952573704 -0.6791877547418351 -1.231874313731713 1.6446709416992
5508 7 0.006801851737144744 0.008071777389198096 0.0004833808416850515 1.12944773983068 0.1750795171385545 -0.5801829855455154 -0.04327289317579493 0.6075670146755672
5509 7 0.003717018782451954 -0.0008080396458898524 0.0004903823477501665 1.129407491909999 -1.958891070302131 0.1320261283911885 -0.09069119081988575 1.965428710480165
5510 7 0.007167261808687849 -0.00984634088345448 0.001491638793831973 1.129450069114187 0.2360357210001586 0.3606938068360523 -0.04876114624198716 0.4338093282316329
5511 7 0.003717073392857596 -0.01167348168343942 0.003001397805193835 1.129464640738101 0.500064194966668 -0.123393656675957 -0.3571251135833229 0.6267603532032215
5512 7 -0.01014060682216112 -0.001738266661431332 0.003488482383418866 1.129259416566168 2.018927290067185 1.278489327537206 0.4612145818628478 2.433787429856495
5513 7 0.002734663414507152 0.005142084664160928 0.0004882859329187122 1.129422727811979 -1.410241099714451 -1.426352212608751 -0.3545446421169067 2.036900217730734
5514 7 0.008215398919714515 -0.006495946093795651 0.003487171242344414 1.129442134460432 -0.07691382483399976 0.4314439996657282 0.03196641885753246 0.4394104154804837
5515 7 -0.005658018403350886 -0.01043808734063125 0.0005059572285865033 1.129383895474255 -2.378856884387465 1.432629278673375 -0.1946496369801052 2.783752001828883
5516 7 0.01226206656160833 0.0006049660290890444 0.003112276209496001 1.129438224494647 -0.07350042096300928 -0.03113515005578194 0.02946436089883919 0.0850873551940162
5517 7 0.005603988319707946 -0.00156565602319863 0.0004859628134167387 1.129422569508947 -1.090143244504329 0.2127448488265291 0.01340159422698075 1.110789029009773
5518 7 -0.002135462958543905 -0.01003780113431632 0.0005720303182787963 1.129432490436787 -2.614279545732799 0.8751983506527787 -0.9368651906957384 2.911725619243612
5519 7 0.005628002824623735 -0.006560681379967246 0.0004824670615081595 1.129440480951309 -0.2517316309072353 0.8936971199942783 -0.08001220384228984 0.9319148614809102
5520 7 -0.00190705624638807 -0.01037553951564857 0.003572030318278796 1.129452254396273 -3.597364035556478 -0.7781636422046124 -1.515567063462731 3.980390707231814
5521 7 0.00708270112855818 0.003628042751705756 0.003498888617263351 1.129432962427253 -0.5203673917348746 -0.6821290337515525 0.002635696603061464 0.8579564021349607
5522 7 0.00564030908574091 -0.008472707393154342 0.003076956543475807 1.129449775769767 0.373759146234866 0.7072450877070624 -0.02243930957317631 0.8002468594715677
5523 7 -0.006048364939528688 -0.004298318755586472 0.003488932541432266 1.129282477053234 -0.24052831398698 5.319928524014607 1.39150850456988 5.504161088553274
5524 7 -0.007803362157454051 -0.002288229532078876 0.001404867060783897 1.129258396641814 1.610952528088403 1.694299525245566 0.8869812920504428 2.500510896086886
5525 7 0.004924410451942494 0.002393560819853565 0.0004968272278505997 1.129420838879043 -1.274374576400731 -0.5471600379440917 -0.05821375211270879 1.388093479933741
5526 7 -0.0006852134164458481 0.001244401296569929 0.003472879509169025 1.129322181288052 -6.455290023497499 -0.9997823913944334 1.897649322373402 6.802308951254195
5527 7 -0.001803533909747786 0.009486985853289496 0.0004867771605588453 1.129432473740995 -2.447221793671445 -1.409985476553846 -1.126350230058332 3.040660847951596
5528 7 -0.003889409477364077 -0.0009250735195507529 0.0004754939139332312 1.129264855089111 -2.624672398469252 1.098514837506209 2.667631675181901 3.900243428549226
5529 7 0.01226811167262432 -0.0006047510688758419 0.003112276209496207 1.129438177107145 -0.0678803102053343 0.01257834037935625 0.02946435966264207 0.07506063982275188
5530 7 0.01184430607709336 -0.001700373611438301 0.0003070439262913835 1.129438263997347 -0.04540320429178487 0.06449138455861485 -0.03109820313413061 0.0847802328400928
5531 7 0.001370060860752497 -7.274449011442103e-05 0.00350876305567354 1.129376329719144 -5.48690496107545 -0.06388832865859187 0.5743338027191078 5.517251769437296
5532 7 0.002080126471979343 -0.002037920809439321 0.0004920538389088719 1.129391770232429 -2.605566947751885 0.6046551139326448 -0.2033101899240346 2.68252156735951
5533 7 0.00990333490127897 0.003744834754844747 0.0004913716355457505 1.129438932729308 -0.1583202359302871 -0.1761335563184186 -0.005619664301881082 0.2368964064591549
5534 7 -0.001628246634893316 -0.0005690793442828514 0.000491356946797271 1.129311161073122 -4.314114341509526 0.2933103789033644 1.414243629012357 4.549472339974455
5535 7 0.002353661765960781 0.005135166530437743 0.003488285932918712 1.129424245474355 -1.368888656628603 -2.644633269729709 -0.2961589705185702 2.992599442195086
5536 7 0.0001696399989899486 -0.01050750771224732 0.0004909654977707615 1.129457606492566 -1.164813949544215 0.435979392260869 -1.282478717261917 1.786510908939188
5537 7 0.001509825249137843 0.001888372651826572 0.0004908037206239333 1.12938457916084 -2.91432447577399 -0.9111407603286817 -0.05673941317280351 3.053962016174212
5538 7 -0.005385980635891734 -0.008789019662027966 0.003514152011474062 1.129374085915902 -2.880373269567306 2.069343797951172 -0.2112700504572224 3.552938074379714
5539 7 0.003545682813753979 -0.003792537003017106 0.0004819969320133665 1.129416599063877 -1.238040294608372 1.276575155364419 -0.095941158044186 1.780896573126731
5540 7 0.008528495830598748 0.008699175968081214 0.001500127895617428 1.129447520839344 0.145369966331923 -0.3352938371200471 -0.02051953720122281 0.3660265505793008
5541 7 -0.00337348583340786 -0.0005594358620552118 0.003475493913933231 1.12919238142364 -6.034845652803835 2.120894147510346 7.188853609616668 9.622742346057468
5542 7 -0.01083048835446514 -0.005588068674409733 0.002475611064857778 1.129294882093527 -0.3609425698492344 1.375692119331107 0.1367620809929376 1.42881496797752
5543 7 -0.005463733427135989 -0.0110566656323904 0.0009984338772510253 1.129391360294424 -2.198525018512303 1.213507322945607 -0.06433959265823563 2.512021469464496
5544 7 0.007329413980094372 -0.006899747350303739 0.003487171242344414 1.129443209430385 0.05904672951827437 0.5231219427597347 0.02429762190579522 0.5270042292940356
5545 7 0.01010049435584599 -0.0008610365751401911 0.00350032416646345 1.129436254517084 -0.2659050820621153 0.03932503442131749 0.04541386085536973 0.2726066575791738
5546 7 0.007167261808687849 -0.009846340883454478 0.002491638793831973 1.129450340389001 0.2360710099923645 0.3606282939411482 -0.04696088345245972 0.433575382977809
5547 7 0.001420375849605463 0.01185432110275415 0.003510920252056628 1.1294796741186 0.3660426076219877 0.694490510905091 -1.011804411697773 1.280645316964457
5548 7 0.002011628717963984 0.01213065043243862 0.003004373144412929 1.129475055910377 0.1514376714297715 0.6796725606196773 -0.904206630942429 1.141261490381428
5549 7 -0.004034583919488902 -0.002643264197861808 0.003483376219661647 1.129227966732788 -5.827980874552148 10.82182059331265 3.545665842857146 12.79253330256346
5550 7 -0.005750686024994444 0.004830796882115688 0.00049515430380515 1.129309084877419 -1.156818465529326 -3.018732098580798 0.4911147575346125 3.269887788634334
5551 7 -0.003330951376275557 -0.006978961941268806 0.0004873381078840642 1.129375820749867 -2.802143194006638 2.805283491055037 -0.329186620162317 3.978691465268141
5552 7 -0.00351030822546866 0.009917617094277771 0.003488743033681845 1.129419230650315 -3.952240248183682 -1.311870144872314 -0.6848833460287687 4.220221730435248
5553 7 -0.005301779108320029 0.0008312477618520525 0.0004707836003004895 1.129249496290083 -1.189361471215523 -1.181513010001744 2.741033533376545 3.213069954593277
5554 7 -0.002441596215750397 -0.008176936244550449 0.0004982220096807925 1.12940842954128 -2.612817271178056 2.590561539688925 -0.55140195476008 3.7204660056497
5555 7 -0.002157601925735207 0.00332065257170633 0.0004680799906554873 1.129330696292434 -3.886095814378102 -2.746544969126433 0.5932932142743385 4.795544472118332
5556 7 0.001637341894910168 -0.001893942403821437 0.003492053838908872 1.129386532638523 -4.289668040139721 0.5261712694388584 -0.453642904193104 4.345560951580797
5557 7 0.005557608422844381 -0.007729525467179581 0.002559423604983966 1.129446607144039 0.3954534953120702 0.814314153666613 -0.07819666465427876 0.9086284863349594
5558 7 -0.001456285819504918 -0.002589803249952245 0.003518856446036902 1.12932092473109 -4.410860579687091 3.397753781198824 0.4556238211351193 5.586413418059409
5559 7 0.003782531000717356 0.002255877886594814 0.001362493481752797 1.129412627710424 -1.218594171031738 -0.6854816907486072 -0.0784333361093655 1.400360200176134
5560 7 0.002330741508107554 -0.0102869209147902 0.003510131128494887 1.129477883243747 2.29570846649093 -2.928297288257576 -2.025478964471458 4.236480544868722
5561 7 -0.00759354457768667 0.0009065064453856994 0.003474762207754114 1.129197299087828 7.117186726917084 -3.122613233254164 5.294808730166137 9.404257535783582
5562 7 0.01175230389193088 -0.001752960762571271 0.003612276209496207 1.129438079442896 -0.0591739005801618 0.04166944954653816 0.02549745511715183 0.07673339398745199
5563 7 0.006047592733378503 -0.008493075492691304 0.0005106422606330468 1.12944804578961 0.07765463208462749 0.6371019418641246 -0.05138472798296866 0.6438707296353212
5564 7 -0.001525408817372803 -0.01180753607473802 0.000476705828178019 1.129444229535938 -1.997324919665459 0.5578126662107213 -0.3692833520300539 2.106378883151912
5565 7 0.007829641102888134 -0.006320014355417179 0.0004871712423444145 1.129441458884257 -0.07739639454791436 0.3921200601505891 -0.0519153267481309 0.4030428570423786
5566 7 0.003736132556996653 0.008117569654312784 0.003486350428952624 1.129456869285879 1.53975440037459 -1.579125586664251 -0.3866263510625535 2.239187613235339
5567 7 0.007124125044878382 -0.003622497813007654 0.003535793001244682 1.129432470934298 -0.4421548038184364 0.611270489231896 0.03751242269079227 0.7553539987328154
5568 7 0.01174728537724484 0.001752160027803456 0.003612276209496001 1.129438275450536 -0.0549936873318962 -0.07570682405158699 0.02882668167707143 0.09791223841199585
5569 7 -0.006654717015154543 0.007598326889888925 0.000499395166421551 1.129343953159081 -1.874334734311321 -2.203123098535517 -0.01249705386522622 2.892583319439897
5570 7 0.005558660802475418 -0.006588083272404883 0.00348246706150816 1.129441146482481 -0.1100114478317097 0.7579448660771193 -0.0001640280653149682 0.7658870449171323
5571 7 -0.01083048835446514 -0.005588068674409733 0.001475611064857778 1.129295535349302 -0.3601880305365666 1.372959828181886 0.09299584982561968 1.422463474127836
5572 7 -0.009683998819417618 -0.004755718899490152 0.0004907098937988948 1.12929166074157 0.02487785418729167 1.886331454829524 0.1208069266790371 1.890359642671697
5573 7 0.002420546968028961 0.01012676591901422 0.00349906200267011 1.129479657484103 2.612672756195292 1.507893815011071 -2.568113195778413 3.961692576998493
5574 7 0.00211554880966725 0.009219173502726217 0.0004990620026701105 1.12945822074044 -0.02614186305239174 -1.000913140013527 -0.833068590259189 1.302502893252841
5575 7 0.003185037111115734 -0.009752774454247892 0.0005101311284948868 1.129457394538866 0.3179185683726365 0.7487440191248709 -0.5472663856183169 0.9804031411205841
5576 7 -0.0007665353016753559 0.001551545879642076 0.0004728795091690252 1.12934011095235 -3.501936955241354 -1.374861459057234 0.2670136541055049 3.771618056161685
5577 7 0.005991142885864905 -0.001092003360402793 0.003485962813416739 1.129424158164512 -0.6526630518779541 0.02047006781749534 0.05152751038301522 0.6550138680130136
5578 7 0.009457434806788194 -0.004946236353154488 0.00348784370886865 1.129439550412572 -0.1460202834879041 0.3031627927868764 0.01898602959476627 0.337031261814093
5579 7 -0.003673420256129915 0.009918955603465122 0.000488743033681845 1.129407152503944 -2.471852616254336 -1.519671371397634 -0.2715545342253299 2.914309231805593
5580 7 -0.0004922953317413414 0.001938696101656756 0.003472879509169025 1.129337007843248 -6.542603965273949 -2.875132671876762 1.945016291751844 7.406425784580017
5581 7 -0.002718714644851895 -0.005590626427409985 0.0004854798291929843 1.12936096936992 -2.725289688777269 2.999425221061211 0.2770688437273335 4.062083540334713
5582 7 -0.009355358837160212 0.004634548116138308 0.003509300095723848 1.12928614689648 0.7050860839218236 -2.506876807578067 0.412446003542372 2.636605662580411
5583 7 0.008442232899564136 -0.001914662974218175 0.003507593389649586 1.129432869192782 -0.4909376230913345 0.1668152345898524 0.09105312662833499 0.526438737296784
5584 7 0.005845889358339849 -0.004223192074227544 0.003502082597227189 1.129431163210751 -0.4245117958702353 0.6204089840883987 -0.05849332840418711 0.7540152795788501
5585 7 0.002374033919229402 -0.001884039946513361 0.003492053838908872 1.129399231854675 -1.771268380632025 0.5261771857471934 -0.4013187941956718 1.890849248777464
5586 7 -0.002067530429114397 -0.0121645998929418 0.0009840074329032114 1.129440396479997 -1.955916034946615 0.5674188741590263 -0.390182687460199 2.073599345125969
5587 7 0.002827840901226244 -0.007843568335105661 0.000493387427409996 1.129446098980679 -0.1435071539981395 1.158242594953146 -0.5957487034218227 1.310357481621419
5588 7 -0.006153772853376332 -0.004284410605296477 0.000488932541432266 1.129297098519409 -0.8362671489477943 3.259084468234184 0.4553135886217904 3.395332793626895
5589 7 0.01024615796306083 -0.002977555589701563 0.0004831399512307885 1.129437915382578 -0.1598775387019747 0.183498007553013 -0.006890936255318113 0.2434744979660126
5590 7 0.01003592206945804 -0.001002508859083651 0.0005003241664634497 1.129436505113773 -0.2263111548330096 0.07928055403765459 -0.01722558203538012 0.240413946614637
5591 7 0.004706778410721958 0.01119960643568957 0.0005232941851311605 1.129459420190128 0.3687045387437278 -0.4220512832857078 -0.2014427396178031 0.5955245586523397
5592 7 0.008514777895624274 0.006514780961820781 0.003509392708264721 1.129443331057631 -0.03680592981149664 -0.4014631922623852 0.042156670438462 0.4053449840237952
5593 7 0.00467879437496039 0.008636012497497047 0.0004863504289526245 1.129451728530647 0.1561978109606447 -0.8235983221511058 -0.3097753295149838 0.893684903741319
5594 7 0.00551644966833472 0.006736098693036879 0.003491391397098238 1.129443533642418 -0.1442546190295677 -0.819629555696392 -0.009474366001387759 0.8322810626786836
5595 7 -0.0103566758803283 0.006365864581272805 0.000492683700686266 1.129304688609123 -0.629611749760267 -1.558348112056283 0.1728961472897941 1.689601394274171
5596 7 0.01217298218140122 -0.002186538534408145 0.0007769363962050724 1.129438560326333 -0.03712032757945585 0.04729868437166791 -0.02046331536814279 0.06351245184019305
5597 7 0.006276853519942385 0.0005782627854892117 0.0004803003784608457 1.129425337519909 -0.7600844319968127 -0.08894849514552793 -0.002478677509169727 0.7652753245693774
5598 7 -0.007804785768455851 -0.006346527561912121 0.000501256810142374 1.129318736767144 -1.381947760708701 2.143070030039508 0.1054910665195382 2.552186735350052
5599 7 -0.005750079933957486 0.003299489396469889 0.003521097199412007 1.129240711640551 2.36198245721101 -10.59940608619898 4.546500973360224 11.77272447690381
5600 7 -0.001060021398448766 -0.01013548717766001 0.003572030318278796 1.129492914827098 -7.180912476358244 -7.291213436210008 -3.838966769798239 10.93000289227327
5601 7 -0.009092094192032565 -0.005034336906382848 0.0004907098937988948 1.129295986113539 -0.7215863291024632 2.106118754183005 0.1316939273881613 2.230194235392931
5602 7 0.002792191884497366 -0.01180561350653348 0.0004940427602505031 1.129461068759705 0.1894245665544355 0.1226351866421006 -0.3526810685999045 0.4186943892218394
5603 7 0.0003696119093778784 -0.006371608563390161 0.000484699105247369 1.129418291186278 -1.561401278381423 2.804059174362577 -0.5909700072044426 3.263428772759304
5604 7 -0.0004357322138965887 -0.008621686813999805 0.0004794771961427927 1.129443021471802 -1.503763156682635 1.652850189939027 -1.875324485752058 2.917200594515027
5605 7 0.007447662005464734 0.007601534789368336 0.0004833808416850515 1.129445962046129 0.002673370045617278 -0.4875966903684534 -0.03927153491909469 0.4891829236804693
5606 7 0.01044832976397737 0.001734351151128783 0.00351419864220469 1.129437286854762 -0.2861463129495723 -0.1085423694408082 0.03859644135751499 0.3084653038251199
5607 7 0.001488958966173351 0.001859188166558459 0.003490803720623934 1.129385309727619 -4.201720870739856 -0.6267337179536663 -0.09900721281364289 4.249359464321658
5608 7 0.0009968484687107916 -0.0007191673151449693 0.00350876305567354 1.129367507368585 -4.663243566810064 1.478541138027739 0.8596941015415858 4.966990880650095
5609 7 -0.0002084998396075677 -0.00404893891587706 0.003493567053292282 1.129375396540578 -2.884627421658453 2.761772300059222 0.04782390341083174 3.993838845634078
5610 7 -0.01177210483609465 0.002818062831810456 0.0004926837006863033 1.129274699719448 0.1714137982962353 -0.9696717800906955 0.1433935160221731 0.9950918308316081
5611 7 -0.009222577563294821 0.004479295845386417 0.0005093000957238485 1.12928940943596 -0.08086274727375907 -2.069994596652067 0.1882268665690978 2.080107152856274
5612 7 0.005430752468232639 0.00667237896586846 0.0004913913970982377 1.129442068590393 -0.1544315107544441 -0.9625575733061221 -0.1020580885779914 0.9801948922979877
5613 7 0.003066693182894194 0.003159856632536719 0.000448376604785651 1.12941018135055 -1.824695649255772 -1.007775640623854 -0.1403825638426577 2.089218327145059
5614 7 -0.01217819851329357 -0.0009575694459667744 0.003492734041975967 1.129265015228746 0.6895890091368291 0.4012251040604383 0.08663779914693204 0.8025089992589787
5615 7 -0.006581817562729048 -0.002268006669433313 0.0004698015616810932 1.129261119973935 -0.4223518441130031 2.229132139472803 1.967874659953615 3.00332180306137
5616 7 -0.00325491766499402 -0.004914503197722852 0.0004854798291929843 1.129340666250488 -2.856533881296549 3.164925064854898 0.2441929591770751 4.270382498378051
5617 7 0.01024271090227136 0.001778912707000248 0.00051419864220469 1.129437323554969 -0.2670132625400144 -0.1145416182837071 -0.0004440631152157488 0.2905444232529054
5618 7 0.005081764252921345 -0.008573736617342499 0.00356631428284276 1.129452151489645 0.6557433881576203 0.6935829375091175 -0.2627933913623046 0.9900086104978649
5619 7 0.0009032151850559089 0.012185686787013 0.000510920252056628 1.129463129962828 -0.7179679819786682 0.2596745832342962 -0.7068051931395281 1.040424189152402
5620 7 0.0028297701077919 0.01183311049473571 0.0004934528923563015 1.129464508827803 0.1779348425425333 -0.1706895505559241 -0.3863114002918041 0.4582927327102558
5621 7 -0.006376262224538146 -0.01041927946426209 0.0005059572285865033 1.129375335484059 -1.866320662767544 1.400968476497441 0.033341914650045 2.333875997495406
5622 7 0.008434303993396152 -0.002110726804004423 0.0005075933896495858 1.129433946317848 -0.3663576621355892 0.238735624681545 0.01893683444274407 0.4376885180082452
5623 7 -0.005538775880047305 -0.006434243552895294 0.003561983297215411 1.12933666099699 -1.878384045580251 3.750840774675712 0.3944540388212196 4.213398524754417
5624 7 -0.003978500132085351 0.002477855289735283 0.003494510583437191 1.12922479460833 -7.138554592376527 -10.75396765032293 5.069192963469894 13.86735371992165
5625 7 0.007562069440155429 0.003798220313662993 0.0004988886172633515 1.129435164469581 -0.3676442134552172 -0.3822233315138247 0.01265381749602398 0.530487570012583
5626 7 0.005617622967358218 0.002042486481313306 0.0034968272278506 1.129423917063476 -0.6096182067214694 -0.3330230231073854 -0.09964951224448211 0.7017611539380372
5627 7 -0.01214781868834218 0.001028353948704518 0.003505185050544924 1.129264818810827 0.5698113615389326 -0.2605269369082097 0.1625064500325973 0.6472770804654089
5628 7 -0.01044569251089805 0.006389905623751812 0.003492683700686266 1.129302852758987 -0.5860504040148407 -1.595600951133226 0.01576131598507606 1.699895846922627
5629 7 -0.01051077250109452 8.94522275766226e-05 0.0005021972764069947 1.129263654725919 0.679493493811039 -0.000847991544288517 0.3168200937920722 0.7497246821678002
5630 7 0.008574999228004429 0.0007856346332817244 0.000474896871125994 1.12943352051344 -0.4947554763384604 -0.1114399864268991 0.04253407648493939 0.5089312326868444
5631 7 0.007733679780436823 0.004015090900838711 0.003498888617263351 1.12943575315254 -0.2533044184017343 -0.5005826016478988 0.007773014856242772 0.5610761884221921
5632 7 -0.01038247773280416 -0.001806773508582376 0.0004884823834188663 1.129268117863912 0.6268908581807796 0.8128474153675483 0.2168494369570263 1.049160019753382
5633 7 0.003099668405520138 -0.009645131510221797 0.003510131128494887 1.129467361834003 2.33491198811924 -0.2157974475028016 -1.13409569151484 2.604717944063078
5634 7 0.002552242250274245 -0.009857586032012051 0.003510131128494887 1.12947673490951 4.03437508688123 0.4513965509012783 -1.32644604629615 4.270761091602782
5635 7 0.01207553305028076 -0.002264590674511413 0.003082168679409896 1.129438414113876 -0.06414303744989708 0.05571284352118746 0.02929409540892393 0.08986876104822163
5636 7 0.01207663262562908 0.002263266007404614 0.00308174600017556 1.129438690682704 -0.05610033392514331 -0.07884758704866839 0.02967597856835141 0.1012168620038142
5637 7 -0.008787795919834872 -0.0007629242206566996 0.0004361541442220083 1.129257351991481 1.165254360273105 0.4199333514655444 0.4731042465454569 1.325891915620543
5638 7 -0.007947363958688693 -0.009277996832440124 0.0004926449535114375 1.129349333148839 -1.65637129114679 1.584626754891509 -0.02113328585444421 2.292390547490608
5639 7 0.00101227745325419 -0.007452534459677759 0.003687459334259444 1.129473221072823 0.8159867389205187 11.40746740662713 -5.666135687214757 12.76327703285027
5640 7 -0.004399880233395263 0.007885317143006205 0.000496703183449469 1.129374946711867 -2.347186193233405 -2.33798845121852 -0.182323029589448 3.317938322340452
5641 7 0.002109644165219925 -0.004097873084549464 0.003543865021362802 1.129409148940405 -1.195390489408093 1.52602740589256 -0.4078296699100439 1.980919762474349
5642 7 0.009363897506415296 -0.005095562302199971 0.0004878437088686505 1.129439748668756 -0.1356963236282129 0.2429194471840347 -0.01448019801806669 0.2786270378140861
5643 7 -0.009330786521627452 -0.007955351414040858 0.0005109202168714585 1.129325166352597 -1.136281519704613 1.598072301112001 0.06358211796794393 1.961890276577393
5644 7 -0.008675163341947543 0.002290638765554871 0.003497685331042665 1.129247635151857 3.262460724637107 -2.020316575958745 1.555637700517222 4.140692901213981
5645 7 -0.01132776713326292 -0.004670494785642324 0.003476817956573962 1.129285540903047 -0.1122951046590979 1.428076466392268 0.1098008901184086 1.436686750779243
5646 7 -0.002919910128043358 0.01188502836775462 0.003476356924189834 1.129438996535475 -2.908664748072757 -0.1872292239643605 -0.8018110432673781 3.022959865445284
5647 7 0.004344582231913275 0.002042486481313306 0.0034968272278506 1.129417816807591 -1.143459992819039 -0.4098048645037884 -0.1239775792019841 1.220987805956091
5648 7 -0.002865394023048529 0.01185085252172102 0.0004763569241898338 1.129428721074969 -2.053887304811337 -0.6422901437322451 -0.2750858896151079 2.169484255823512
5649 7 -0.007506190613901032 0.0005630855838845674 0.0004747622077541135 1.129247510925652 0.7853075736935281 -0.4296811255720087 1.865920182013482 2.069539074436255
5650 7 0.00299906605333325 -0.01187593668358529 0.003494042760250503 1.129468553597766 0.8305371513768897 0.04853867799916046 -0.5368410266031264 0.9901243613422727
5651 7 0.007953320555176295 -0.00930278894581181 0.0004919167852555493 1.129447814614383 0.1909877465270488 0.3364104448475917 -0.02259614287554183 0.3875034095319507
5652 7 0.006351238156418227 -0.01045210161078426 0.0004890797479433767 1.129452305018482 0.2720319322201146 0.3478478918498101 -0.03712633694041573 0.4431454534420719
5653 7 -0.007650191291282705 0.005606169147760689 0.0004855612195396782 1.129309221642024 -0.8269612333625874 -2.493454833022379 0.1250272684356785 2.629983593800486
5654 7 -0.005896182169427975 -0.005913675327715882 0.003561983297215411 1.129322462044427 -1.638058516689943 3.431397713194425 0.3939301521980063 3.822683211440248
5655 7 0.004981102599635746 0.002405966113590834 0.0034968272278506 1.12942183905147 -0.8085984730672606 -0.2205842517281402 -0.02719141669448698 0.8385870711494556
5656 7 -0.01044573154991846 -0.006389842059564357 0.003508083214484921 1.129303035684633 -0.6355902130456021 1.693232418586299 -0.06653515989444805 1.809817081854722
5657 7 -0.00796712445117285 -0.009347690953550543 0.003492644953511438 1.129349792717465 -1.571310650272944 1.499514610554888 0.01981549973842504 2.172085145881405
5658 7 0.005641800631114273 0.004511427421970884 0.0004734991151981682 1.129432258884974 -0.406236740267063 -0.7528521913095465 -0.02052266685571896 0.8557078303704285
5659 7 0.01194373490541361 -0.002859343192280897 0.003469892469913689 1.129438617804068 -0.08218236304031241 0.1066943160759514 0.008419188722913862 0.134938877335469
5660 7 -0.002831470787161191 -0.002751012071778163 0.003518856446036902 1.129269895770949 -4.730392167968715 10.49682329818447 3.756246674138189 12.11071007385869
5661 7 0.0119448344807619 0.002858018525174336 0.00346946979067956 1.129438919914262 -0.06597864551168339 -0.1068833750970282 0.01821691829989748 0.1269216043391886
5662 7 -0.007962330451755947 0.009351778208146873 0.003492083020370654 1.129349904384646 -1.556070610783317 -1.567574308180551 -0.01591417681158198 2.208822812820188
5663 7 -0.01130751915122061 0.004683727789229017 0.0005236430758101707 1.129287939672723 -0.2354654570839453 -1.335355377277115 0.1082510435759506 1.360270654516204
5664 7 0.009364210443216781 -0.007935702513415802 0.0005231820434260428 1.129444189309958 0.1061980590801293 0.2772520848795306 -0.01292023770586702 0.2971761747933525
5665 7 0.003363448313571893 0.001152575078722931 0.0004172896491165465 1.129404878749326 -1.963557825022677 -0.4221828573914955 -0.09539624768105309 2.010695934584505
5666 7 0.007785888803599292 -0.004002855334539158 0.003535793001244682 1.129435145375463 -0.3161307252755247 0.5243821937918802 0.05198662872004623 0.6145062491097143
5667 7 0.00193613956849011 0.009338100783719973 0.00349906200267011 1.129492194613122 6.58707135842231 1.741235204796602 -1.71503228537241 7.025862570477757
5668 7 0.006437580347869872 0.01036907136279001 0.0004913511061056695 1.129453945110239 0.3159761033426373 -0.3826517275402163 -0.1134738734903181 0.5090575237023863
5669 7 -0.004712507551160771 -0.0113760046891177 0.003492476648664522 1.129406291531729 -2.48088187932161 1.113413431763953 -0.2980633998126351 2.735563225276757
5670 7 0.0104946574328197 0.006396958560909435 0.0005109202168714735 1.129442570478999 0.03812417375855804 -0.2558193225830624 -0.009112131637152306 0.2588049639682409
5671 7 0.006355085737735015 -0.008635801855761753 0.003510642260633047 1.129449118134167 0.2998488707125275 0.710826021701743 -0.03760936851558316 0.7723972054558754
5672 7 -0.002211298567468381 -0.002277010592621809 0.003518856446036902 1.129278749009584 -11.03593973275223 6.676370125860051 1.908791680628482 13.03876411023884
5673 7 -0.009321871416745266 0.007968473009015931 0.003505185050544919 1.129325033485987 -1.226993056681448 -1.810401381858487 0.04702276754281158 2.187527431884452
5674 7 0.009372482364662536 0.008008566661223203 0.003493452882110407 1.129445738618104 0.1193359892878921 -0.3264959072500348 -0.02338649047371598 0.3484072096369712
5675 7 -0.009321672724157086 -0.007968705757729098 0.003510920216871459 1.129325152654873 -1.146192023201337 1.746809464625291 -0.0693173053334207 2.090431617770253
5676 7 0.01130754970681478 -0.004683654018875465 0.0005240254569820352 1.129439830006073 -0.05787912637183074 0.1602384841686228 0.01383975869909383 0.1709324544932105
5677 7 0.006041911545977347 0.0008321100980357675 0.003480300378460846 1.129424359083218 -0.6651392829656549 -0.06118719979312155 0.01183713566469448 0.6680525854626516
5678 7 -0.004184592422900259 -0.00710526554983291 0.0004873381078840642 1.129365836090152 -2.101238666911968 2.815885400587595 -0.2170715237736036 3.520161156964513
5679 7 0.002743304398208824 0.01198506955914725 0.003493452892356301 1.129474787933767 1.15398839258259 0.7488833146552056 -0.4260245127138827 1.440143157681701
5680 7 0.004688373358791546 -0.01133626613527986 0.0005073550449433327 1.129457300288014 0.3035674793849295 0.2489581678966454 -0.2114744309252566 0.4459314059782457
5681 7 -0.008872070527222883 0.002390147555791642 0.0004976853310426649 1.129267097544023 0.3842498010026471 -1.768835479867286 0.4956697973722651 1.876729978562437
5682 7 0.005862302763290747 -0.001842063943155717 0.003485962813416739 1.129424551946398 -0.5802403648429939 0.3734351892476814 0.02077119083100001 0.6903362687343901
5683 7 -0.006427624445071492 -0.01048722075702259 0.003505957228586504 1.129376369853649 -2.18538539609564 1.491293771584496 -0.1336419409039479 2.649099207467207
5684 7 0.000938800338606096 -0.01227070838664401 0.0005067777075852905 1.12946117474996 -0.3712863022295801 -0.09906597324493321 -0.6154309140829333 0.7255499950294505
5685 7 -0.006429969353921604 0.01048341800478447 0.003510761436187152 1.12937706934017 -2.19141489454632 -1.492146302091809 -0.036134218836117 2.651434613309672
5686 7 0.001494752367328209 -0.004031807627920351 0.003543865021362802 1.129402049263919 -2.585393694359541 1.768954833767517 -0.3301989746080287 3.149998908186435
5687 7 -0.0122364572343528 0.0009484568871560945 0.0005051850505449243 1.129268641611237 0.360100273337602 -0.240793807344938 0.2066729601628669 0.4799662248283402
5688 7 -0.004719022404207738 0.01132967232585139 0.003508054319028943 1.129406858136503 -2.560642869906534 -1.344467504073132 -0.3268874046766166 2.910556673911028
5689 7 -0.001494567616758281 -0.01006011789299744 0.003572030318278796 1.1294741898021 -10.85197351635618 -6.380573111355063 -3.490188022917085 13.06363099847653
5690 7 -0.001587676148908032 -0.0004077284055044998 0.003491356946797271 1.129273694161414 -12.60652237230931 1.942010330193 3.403349616998022 13.20146200470358
5691 7 0.003918583602644264 0.008415345897469314 0.0004863504289526245 1.129451295831928 0.1244283025590606 -0.8287655372664905 -0.3191058974948412 0.8967515219135855
5692 7 0.009344978329709559 0.007967193745355493 0.0004934528821104065 1.129445524633441 0.09996531791750957 -0.3065497211761889 0.005743578334571718 0.3224884261979541
5693 7 -0.0009884445719398629 0.01228240293867296 0.0005080616479767973 1.129450884673042 -1.410643038346108 -0.02640121566706022 -0.7654169710854118 1.605139852302161
5694 7 -0.0009452712741162961 -0.01220625356158814 0.000476705828178019 1.129450525563871 -1.481943179695135 0.1801734536537444 -0.6600203721187511 1.632251498041347
5695 7 0.004552581270001781 0.01133788409542581 0.003523294185131161 1.129464187561036 0.8053424984693068 -0.1267093276314078 -0.110570901295122 0.8227136304710191
5696 7 -0.01198995685153134 0.002925408691150916 0.003492683700686303 1.129271996330678 0.2984970079360994 -0.9756306540607474 0.2371276665975243 1.047466069691898
5697 7 0.004621714653901397 -0.008038164430088916 0.00356631428284276 1.129450909899719 0.3734750213752535 1.049729762732611 -0.1402309961275913 1.122978583336676
5698 7 -0.01051670042311873 -0.00638859811341877 0.000508083214484921 1.129304232775219 -0.6257382614569195 1.496994783549334 0.2068351113124375 1.635641316761311
5699 7 -0.0009051771069665043 0.007853442905005224 0.003684724317412645 1.129477994932826 -7.931256965846344 -10.31248779433797 -4.510841213615031 13.76952904136897
5700 7 0.008043667261627009 0.009345002363710372 0.0005232941718219705 1.12944924590654 0.1978530215922127 -0.3236298274365632 -0.005923707551416524 0.37936417025194
5701 7 -0.01033714488219573 9.850951517386016e-05 0.003502197276406995 1.129254243578076 2.915557898939254 -0.2457583191876226 0.5917013065612904 2.985127375792085
5702 7 -0.009364688835622317 0.008021802961783814 0.0005051850505449193 1.129325832277152 -1.107809143920109 -1.568347345501325 0.004721454798904729 1.920150199236892
5703 7 -0.01190100258663528 -0.002857172166955984 0.003524719052284401 1.129272735690751 0.1872215403560507 0.9693992709210318 0.03558887003934064 0.9879541585044306
5704 7 -0.007984906843002515 0.009338436213642349 0.000492083020370654 1.129349370521031 -1.646138005115122 -1.597993124483402 -0.01745249978690663 2.29426610216196
5705 7 0.01140383508317309 0.004733446067549713 0.0005077384188985893 1.129440490729312 -0.01657263007724628 -0.16590086650296 -0.0008911293587112474 0.1667289527515967
5706 7 0.01201853801629594 0.001836867839169031 0.001915494833196881 1.129438531594237 -0.09497655862488689 -0.09083174410247839 0.01757757238144944 0.132589303775794
5707 7 -0.006431043952074792 0.01049442999968768 0.0005107614361871515 1.12937589899717 -1.909310772768503 -1.459031344809634 -0.07877919586583086 2.404255862808311
5708 7 0.003961548806532219 -0.0008887387098265619 0.003490382347750167 1.129412932632443 -1.14668898168642 -0.04322987335921735 -0.2611301114224328 1.176840421536915
5709 7 -0.00291333200031588 -0.01194372930666018 0.003507301604725193 1.129436500563566 -2.693208987191452 0.5385214814276698 -0.4290951128108291 2.779838601517361
5710 7 0.006430579198918056 -0.01049296799969391 0.003489079747943377 1.12945387986339 0.4418845877710043 0.3624674503273685 -0.1310792735296217 0.586367135338797
5711 7 -0.01134521580586882 0.004673036291102395 0.003523643075810171 1.129285146849471 -0.2596539608331329 -1.547048046912497 0.1882794755447603 1.579945252134869
5712 7 0.006384887742454342 0.0104829349316874 0.00349135110610567 1.129455752846533 0.4271221756480584 -0.3364782039715724 -0.03112600619496501 0.5446280959883679
5713 7 0.001381424833104066 -0.007706912540223639 0.003687459334259444 1.129475324562896 8.233421876660845 6.622410848509253 -3.346339411739012 11.08348089293649
5714 7 0.01046451897792292 0.00646245858689019 0.003510920216871474 1.129442681382099 0.04304766997945442 -0.2614352326284355 0.00894388127566605 0.2651065366271029
5715 7 -0.01224897143121778 -0.0009622190918989036 0.000492734041975967 1.12926889015591 0.3945491560819088 0.3157069768608542 0.2535778691628803 0.565368612086622
5716 7 -0.004732227225475064 0.01140864395691339 0.0005080543190289428 1.129403219827055 -2.126528944233471 -1.064087711748541 -0.1833392524507475 2.384957293212222
5717 7 -0.01195407348463623 -0.002892455004102912 0.0005247190522844008 1.129275414274973 0.1036193320893007 0.8374490119403365 0.2127401906824596 0.8702391638590439
5718 7 0.0008965298647875691 0.01228693024890312 0.003510920252056628 1.129477675531981 -0.08683957534799606 1.176914410721132 -0.7539978913621561 1.400421887214087
5719 7 -0.0002618218304647293 -0.002016284919278733 0.003492571291692701 1.129343203850104 -5.53420691025079 2.733273422920227 0.4286947291497803 6.187245663517043
5720 7 -0.0008971154582284725 -0.01237493996485532 0.003476705828178019 1.129465327326174 -2.013218517833551 -1.314880548291799 -0.690777234372713 2.501825902086649
5721 7 0.01047926321782382 -0.006450295773187329 0.003491380029999441 1.129441715360112 0.01715612948920529 0.2048931614820906 -0.005726661272719889 0.205689900215127
5722 7 0.001337014589102714 -0.008202461953448755 0.003687459334259444 1.129493733614048 8.137519968513821 4.936556918015688 -3.829913427764651 10.25948645434759
5723 7 0.01136938430301669 0.004709166750378062 0.003507738418898589 1.129440359963344 -0.01279543102049612 -0.1829381184403261 0.01292114735493365 0.1838396972431552
5724 7 0.01190481762498486 0.002872004415677751 0.0004694697906795598 1.129439079358528 -0.06331475297099173 -0.1090030911502437 -0.0005978652264000011 0.1260586739059038
5725 7 -0.006153016898701812 0.002696736820267867 0.003521097199412007 1.129213258325825 3.194496039364907 -9.352301124761565 4.299003931251158 10.77737333837181
5726 7 0.008004325777178909 -0.009424147623673995 0.003491916785255549 1.129448492593113 0.2619949025610355 0.3811565588491104 -0.03034033515918 0.4635107196810374
5727 7 0.004774069582402071 -0.01140817862846801 0.003507355044943333 1.129460848812506 0.6480355793123604 0.3259841476025728 -0.2083886895102595 0.7547460648845318
5728 7 -0.008334891373145518 -0.001436945085600312 0.0004361541442220083 1.129258529655667 0.4513779384402427 1.252518923325641 0.6817312511648621 1.495761744200658
5729 7 0.01219072572123473 0.001023546266202977 0.0003195501908166308 1.129438349428162 -0.08133197737877301 -0.04550354400094737 -0.000411676048185786 0.09319674102754907
5730 7 0.008006946279725688 0.009312548953633249 0.00352329417182197 1.129449797940087 0.2530926856381032 -0.3794688146266185 -0.06801047665542086 0.4611701570272476
5731 7 0.003918129555428457 -0.008198897982013283 0.00356631428284276 1.129454848351715 1.54019377640798 1.086839787998898 0.1329128153119005 1.889731041745756
5732 7 0.0008938358235512802 -0.0123047070102126 0.003506777707585291 1.129474744809505 0.08795474245021156 -0.9491731214547112 -0.7619502105071855 1.220341663020446
5733 7 -0.000903992351570857 0.01236733780835596 0.003508061647976797 1.129467202486139 -1.782129278346709 1.098334237723062 -0.8257235365463742 2.250364908476381
5734 7 -0.002799428142723081 -0.01201900152868471 0.0005073016047251925 1.129430429726405 -2.081841751316152 0.5381865418584401 -0.4481479835488676 2.196485020781969
5735 7 0.0113741446605393 -0.004712860883456624 0.003524025456982035 1.129439825716473 -0.05409810206575663 0.17140497568951 -0.008927934913895005 0.1799610467853121
5736 7 0.01222297704299789 0.001101645455591779 0.003612276209496001 1.129438243258599 -0.07954048366781684 -0.04258407206114051 0.01842283187378603 0.09208415971093199
5737 7 0.01222902215401388 -0.001101430495378572 0.003612276209496207 1.129438141632394 -0.0733682738956745 0.02283908580838275 0.01957327462321339 0.07929464379432644
5738 7 0.01054001824360047 -0.006458900648823257 0.0004913800299994412 1.129441692323814 0.01278792861433319 0.2003430860296695 0.002992191559134944 0.2007730969240236
5739 7 -0.00275903469775047 -0.008979362725985176 0.0004982220096807925 1.12941357132391 -3.003787185732632 1.604596994165792 -0.5268747724625972 3.446021763819111
5740 7 0.009299965510185857 -0.008014550991601904 0.003523182043426043 1.129444479887799 0.1261698254610651 0.269362996183898 0.004683919834193131 0.2974847688118762
5741 7 -0.01142967139196648 -0.004732842939848547 0.0004768179565739615 1.129288410662803 -0.4359507611981752 1.321507884055867 0.1008501433103404 1.395208552588751
5742 7 0.01223348348455532 -0.001035033293579214 0.0003070439262913835 1.129438248662389 -0.07447785348427205 0.02140968172363287 -0.000326947322829219 0.07749472256666165
5743 7 0.01203127576003465 -0.002873153242947285 0.000469892469913689 1.129438808516594 -0.06280317543272061 0.1006083331568112 0.003494884823380916 0.1186528118712477
5744 7 -0.004785894806924386 -0.01136915877408272 0.000492476648664522 1.129401482632635 -2.123711142314045 1.122591621132647 -0.1179323846792887 2.405050729440482
5745 7 -0.002819596424412424 0.000427823868079612 0.003491356946797271 1.129207795127161 -7.926499566178513 -3.582902611069068 6.692346368532646 10.97515769405824
5746 7 -0.003183670013922757 0.00101943975075462 0.002985867530234462 1.129224878267522 -7.495545122990256 -3.793152044927136 7.258111376582636 11.10186380215485
5747 7 0.00479513071382133 0.005905175453149758 0.002964890512296406 1.12943846322312 -0.3045270393405086 -0.8956188036897411 -0.08988103207151472 0.9502359491928198
5748 7 0.004257183797529041 0.005655696037877009 0.002453176445215118 1.129434684235939 -0.6377563518759536 -0.8745566527740438 -0.4006964151172778 1.154183746358136
5749 7 -0.004519631294929808 0.006469013174571558 0.002495029161669433 1.129350253021904 -2.759858335999309 -3.067625228768881 -0.05170537349502811 4.126719765699201
5750 7 -0.004708625301800584 0.0059344531959737 0.002998325978219963 1.129337035679833 -2.482164040251431 -3.630387349035378 0.4813361525027969 4.424085794654035
5751 7 -0.004492322726890315 -0.01020120385234376 0.001006628660138584 1.129396947049032 -2.499539436298401 1.428983537005238 0.04573384904934281 2.879545611306026
5752 7 -0.003980282130454127 -0.009783802098688465 0.001504850669819376 1.129402442255052 -2.94253622606478 1.364459592424602 -0.4007289631583285 3.268157450762894
5753 7 0.0008539571867160437 0.007703991364868695 0.002996588449845141 1.129473033901512 -2.17626080220125 -7.549132235308312 -5.012775542700765 9.319518615618923
5754 7 0.0007306608634768189 0.007300294755254125 0.002544098527054774 1.129451324903413 -0.2649203405848954 -3.473224118359704 -2.811590184973233 4.476439202250933
5755 7 0.009119645660436913 0.001783404465332803 0.002989095513330684 1.129434862309958 -0.3688625055090005 -0.1002245558092432 -0.003562675747261336 0.3822527988334652
5756 7 0.009173279648003341 0.002321923544262362 0.002480467148876435 1.12943569762921 -0.3221916467036087 -0.2119944786655693 0.1319532159436797 0.4076282220211805
5757 7 0.009349770674158592 0.00242767140231446 0.00351419864220469 1.129435876684316 -0.4318136265754909 -0.1774210929613703 -0.03076969423169876 0.467854706513675
5758 7 0.009403404661725019 0.002966190481244018 0.003005570277750441 1.129436712003568 -0.4194921257697763 -0.2487597999497434 0.03355732971404474 0.4888570098008407
5759 7 -0.007316309588494862 0.003315244304771389 0.003521097199412007 1.129256646568357 -0.1930337742806511 -5.264102081324439 1.362255518570705 5.440934925037577
5760 7 -0.007805399975413668 0.002961805778561713 0.003018782530454672 1.129255901195469 1.345182848948568 -4.617814824463938 2.888852946250271 5.610632940694228
5761 7 -0.001110247908096728 -0.005752178688163669 0.003523877556210437 1.129394909556224 -2.901922581243748 4.261466567533422 -0.8717324803637299 5.228878416167139
5762 7 -0.0008256144613427636 -0.005298710689346698 0.003017444609502719 1.129389334547612 -3.657923252415217 3.838337891250466 -0.09237728685062938 5.3029966859404
5763 7 0.002578469986858704 0.006595371061335668 0.00350984695714963 1.129442691439417 -0.1828960665292661 -2.457517721258848 -0.7383106529589494 2.572537063236568
5764 7 0.002562048263013577 0.006141452677188665 0.002998132890068342 1.129436176199926 -0.2150420892415097 -1.831544418263506 -0.262013247461351 1.862645698479129
5765 7 0.004681261396686477 -0.005924299734611772 0.00348246706150816 1.129436913080063 -0.226450720639203 1.011700241745336 -0.07598291659394847 1.039514651960091
5766 7 0.0041901072198517 -0.005762441716396843 0.002982651233447247 1.12943407294684 -0.4303116357148573 1.248916669024372 -0.3403533023975831 1.364111916395231
5767 7 -0.0009571060572093035 0.01000915248885479 0.00298994075820409 1.129479155340857 -5.384632697641725 6.69215407138024 -5.675144305814561 10.29497247667146
5768 7 -0.0006341957580638185 0.01018302030735678 0.003503163597645245 1.129500822978975 -6.641632347039633 6.294827100039782 -6.760856230929052 11.37740328141403
5769 7 0.003642358278506919 -0.007330748151318412 0.003059701710252756 1.129446545469542 0.3592351021387294 1.703140109425755 -0.4217539712225994 1.79098087739245
5770 7 0.003345215576588405 -0.006890776209427691 0.002559885882191843 1.129441361417474 0.3992085132684153 1.814095037066888 -0.5391783760710777 1.934172061063684
5771 7 0.003208941535562466 -0.007066944609262939 0.003493387427409996 1.129445971489608 0.3908441484364661 1.713822258959092 -0.4462683127483135 1.813587960545034
5772 7 0.002911798833643952 -0.006626972667372217 0.002993571599349083 1.129440787437541 0.2288696683372519 1.833881542605683 -0.475674406919091 1.908341944933463
5773 7 -0.001421718922671807 0.0008573087097522427 0.003472879509169025 1.129280811575216 -11.85782267259069 -2.753815921329848 0.2510891083438454 12.17598071629159
5774 7 -0.001481059744071516 0.000320432833036378 0.002964236455966296 1.129282536698343 -12.66071331273778 2.281255569223755 3.296116286800682 13.28014198476668
5775 7 0.003532181412404644 0.007180572158094544 0.003486350428952624 1.129447798193999 0.7242210626232849 -1.744382561888875 -0.4341077678454799 1.937992833803309
5776 7 0.003038065648904869 0.007190106307226803 0.002996197386102254 1.129447353502458 0.3411097089073316 -2.045571183494195 -0.8455846552400385 2.239582708771904
5777 7 -0.004280124429622798 -0.004896652798042295 0.003485479829192984 1.129314016070693 -2.583391271546651 5.578606973637465 0.8422478451101885 6.205171042027184
5778 7 -0.004831021321750712 -0.004790881214847885 0.00297441237062525 1.129309425753278 -1.495310912682071 5.642339693483463 1.899537221119153 6.138419470569133
5779 7 0.004197929204876127 -0.006959891986087052 0.00356631428284276 1.129443780987487 -0.09207780998560962 1.550605385381186 -0.4686232920533924 1.622486725406356
5780 7 0.004575278140999546 -0.006752282247365873 0.003048781344350919 1.129441853951686 -0.1776712926478411 1.207335236897153 -0.08535365883789735 1.223319545156406
5781 7 -0.008925387640688209 -0.005861452145230256 0.0004907098937988948 1.129306455377919 -0.7155412842181467 2.06582796578624 0.1433070168962541 2.190931631689308
5782 7 -0.008466465082078687 -0.006027268543355765 0.0009919667039412689 1.129310456106064 -0.9514161426913104 2.093167219594017 -0.007215696371993264 2.299259392071867
5783 7 -0.009114559981247298 0.006994153949109861 0.001483429970770864 1.129316495132709 -0.838796732749083 -1.802830692553965 0.2516198899763617 2.004268204087682
5784 7 -0.008949108773213527 0.006336570130238787 0.0009782449202259441 1.129310858662194 -0.8806973820192232 -1.959621879007521 0.1408672225549942 2.153041885744641
5785 7 -0.002233417529517523 -0.009232247504252897 0.003070252327959589 1.129438314940562 -6.058823466980255 -1.053857866412057 -1.959799176584011 6.454515552632016
5786 7 -0.002101567781283248 -0.009541508112292815 0.003572030318278796 1.129447500997266 -6.167038551247455 -0.3290575798289239 -2.449915724498467 6.643999581619496
5787 7 -0.001400581972529701 0.00907154506433446 0.00317150147797149 1.129470667964404 -11.94920461729607 -5.80685716471839 -4.139952248100087 13.91554115850332
5788 7 -0.001289686652742377 0.008805159241805402 0.003684724317412645 1.129487196451582 -12.68425312595055 -2.074569159436352 -9.275897227520574 15.85043797300234
5789 7 0.003391794585647962 0.004491031546348712 0.002936662537704363 1.129423183154448 -0.8623665324669973 -1.418793030545661 0.00932527931843123 1.660342332375604
5790 7 0.003984845508134771 0.004468348814874021 0.002410161652902532 1.1294256024108 -0.7748313394960469 -1.391827397327415 -0.08259797916607384 1.595108000976349
5791 7 0.001844058524979451 -0.0115175149834139 0.00151095159633068 1.129463486083882 0.1673639475829655 0.07592636912537595 -0.5476410429238802 0.5776557940277858
5792 7 0.001185860526685153 -0.01104384795475445 0.001507874333850939 1.129464744256882 0.4766869463664702 -0.1064221988587533 -0.7155410960798906 0.866345883250641
5793 7 0.001519952624368859 -0.01019702663648079 0.0005101311284948868 1.12945892560233 -0.3645469662509541 0.6231342871278525 -0.4073877752549718 0.8289485085482128
5794 7 0.001029749185705391 -0.01024781001643979 0.001001096626265648 1.129461355960103 0.271320367008495 0.7718426309013446 -1.08523063504826 1.35907369913393
5795 7 -0.008484464251528104 -0.004716934930306498 0.0004907098937988948 1.129294499214538 -0.6389731219649369 2.14824914774247 0.1742964199703742 2.248030314160455
5796 7 -0.008553510136759411 -0.004161291921523959 0.0009896212486796905 1.129285955293565 -0.5280117243769721 2.483435457357267 0.4151740249809485 2.572667394545537
5797 7 -0.006800907294194482 -0.005556170117417145 0.002552172648790051 1.12931112145243 -1.500074264930234 3.332058217430158 0.04681673521521027 3.654452978401287
5798 7 -0.006421412643614144 -0.00523250400011452 0.003050915838647677 1.129306982125576 -0.9493908650287176 3.478264125978568 0.5657405067432353 3.649620071410108
5799 7 -0.008219833296248803 -0.008189255554066729 0.00250482198052527 1.129335714975589 -1.251995780017058 1.887465613480442 -0.3741906593375866 2.29565644746489
5800 7 -0.008251430469489236 -0.00757041176271077 0.003012177027013833 1.129329118948756 -1.482482896408646 2.122079646964988 -0.0540441080657936 2.589188740092896
5801 7 -0.00731656952246414 -0.001188368930724024 0.002380717913657215 1.129222803856191 0.8215934844611167 1.010607325611019 6.689884537317933 6.815489574706515
5802 7 -0.007534693930982506 -0.0006384962754491731 0.002910916351976122 1.129202124272678 1.539198783601537 0.6809328421100499 6.09699014714299 6.32503686038771
5803 7 0.005965916901456113 -0.007306044067812012 0.0009931093221412063 1.129444027194311 -0.05425166954302006 0.650356602910457 0.02347778385864405 0.6530376412829112
5804 7 0.006359739342004235 -0.007739902690822977 0.0005106422606330468 1.129445452508502 0.03971309794760314 0.5345703647203535 -0.08254192938152495 0.5423612957170453
5805 7 0.007900503620296194 -0.007914784382298465 0.0009790880275999639 1.12944522991556 0.1155461988373361 0.3614451783212611 0.03893632150912005 0.3814571773215271
5806 7 0.008539588361009426 -0.007897766255328294 0.001502270071026007 1.129444686660807 0.1049142969815925 0.3593673140590294 0.03470098874745919 0.3759734495216306
5807 7 -0.007960562243120604 0.004850200559716368 0.0004855612195396782 1.129297808453284 -0.6906912700193011 -2.220851132185444 -0.0002348572320092024 2.325776050476091
5808 7 -0.008550226738222083 0.004862957107358003 0.0009948613152635268 1.129295611688592 -0.7058306019566479 -2.22459186332958 0.01229466034341507 2.333914513370963
5809 7 -0.01012218824185548 0.003522098075823754 0.001499669127452817 1.12927803145936 0.2587442345196164 -2.035631223809572 0.05168390663273643 2.052660294459465
5810 7 -0.01032007034747259 0.002950938729761765 0.0009903690317289683 1.129273338488528 0.3702027890445886 -1.468127187688779 0.5229793688793865 1.601859845467398
5811 7 -0.01164204808464416 0.002226846627276415 0.003492683700686303 1.129267696445209 0.2673090227224305 -0.9163824326021968 0.2632856654247238 0.9902172579938607
5812 7 -0.01205868664085601 0.001775377361756682 0.002997868751231227 1.129267408917965 0.3733758212744082 -0.6864199010250916 0.3872270779414024 0.8720817589691189
5813 7 -0.009628601461638414 -0.0008113609237632667 0.002426833804047869 1.129254405162718 1.293733173641885 0.5899160586608021 1.43187947377339 2.017925991770005
5814 7 -0.009240202774608311 -0.001215555483178677 0.002924636527640875 1.129249748712285 1.120840249335759 0.9330800224559679 1.157898836988397 1.86216296535415
5815 7 0.00876070423747537 -0.00571240955416262 0.000975014951213065 1.12944063457961 -0.06629982287921064 0.373437873501621 -0.0623715570645698 0.384371855121946
5816 7 0.008567828969773048 -0.006218325995602863 0.0004871712423444145 1.129441513671644 -0.05475400224639712 0.3951531576688995 -0.04261072989154072 0.4011978228749384
5817 7 0.003597753336043666 -0.01151077699864025 0.001511528933688723 1.129461585230605 0.4237972517740863 0.1013895662101843 -0.2417644177558346 0.4983312035588133
5818 7 0.003907702104752091 -0.01097776300187863 0.001017486173438219 1.129459515142108 0.5196515213980591 0.2164499016365792 -0.3054275548845172 0.6404484794989658
5819 7 0.01147902515319922 -0.001963710083752266 0.002582492845873345 1.129438005401057 -0.1036745823441198 0.07613868330201436 -0.002936546757244386 0.1286628984052886
5820 7 0.01086343328390491 -0.002322264206727737 0.002453356587607927 1.129437854420213 -0.08536780201777916 0.09438845660415796 0.007887343894251206 0.1275109899387811
5821 7 0.001094345494092162 0.01011580467209751 0.0005031635976452445 1.129462475996116 -0.2497825487285396 -0.7839921121974122 -1.079877444643779 1.357634063025623
5822 7 0.001484589204542755 0.00977526788523749 0.001002225600315355 1.129463679834508 -0.0210627796887873 -1.005844661870406 -0.8346169956665976 1.307192661376641
5823 7 0.001700516293883088 0.01006501328168567 0.00349906200267011 1.12949704644672 6.970232408425109 0.1329627858795089 -1.33918573316832 7.098960301185668
5824 7 0.001345850628039696 0.01020556004082426 0.003002225600315355 1.129490131570404 3.060438946585239 5.318340715823322 -5.38697124716248 8.165200164914218
5825 8 -0.0008783930958530049 -0.009518235313456639 0.02063232018306722 3.999999999316442 2.622502560602534e-08 -7.058357503936076e-09 -4.801341108269916e-08 5.516212489096403e-08
5826 8 -0.0008665598456237609 -0.009466702489174274 0.01986780509472117 3.999999998361851 1.814133685525425e-08 -1.988288120304648e-08 -1.116928729349495e-07 1.14890099365842e-07
5827 8 -0.0004146776710537587 -0.009597462925118316 0.0207145463185766 3.999999999369018 -9.904070282507287e-09 -2.15679915245776e-08 -7.058782857224475e-08 7.447086953372914e-08
5828 8 -0.0003960581638075131 -0.009843837620647718 0.005425644812673458 2.724211247511896 4.607760995246803 3.166762502387642 -36.72630017664717 37.14944105637446
5829 8 -0.0003653226879844915 -0.008816797907511975 0.07775377682752729 4 0 0 0 0
5830 8 -0.0006658745339508345 -0.009235103245822213 0.00605996399583488 3.175888891502471 -2.794927928888298 -1.014994938299967 -30.19260165777125 30.33867221414453
5831 8 -0.0006999887304039965 -0.009166386516747111 0.07811446145910597 4 0 0 0 0
5832 8 -0.0005854664460854491 -0.008174581171131845 0.005379506751025698 2.681637377590152 0.08314454804155759 1.974018060915932 -34.81625132420359 34.87226715587617
5833 8 -0.0006907628899835814 -0.00949089741751305 0.04193738946098741 4 0 0 0 0
5834 8 -0.0005801609456366108 -0.008619836489563276 0.00650796005328865 3.426013708346801 -2.416985964614119 0.201032520637387 -27.26968132834132 27.37732191023773
5835 8 -0.001018003297901195 -0.008896804152607128 0.006241011439389215 3.259764412402183 -5.405966926646031 -0.2154126970997589 -29.45203639466785 29.94483809999483
5836 8 -0.0004837812981693689 -0.009337289562263028 0.06004337439700731 4 0 0 0 0
5837 8 -0.0001072001133385337 -0.009335394294980167 0.04205781370222531 4 0 0 0 0
5838 8 -8.626471747225076e-05 -0.009249575121936136 0.07797081132760736 4 0 0 0 0
5839 8 -0.0004508855124711469 -0.009580839032752701 0.07169999027232438 4 0 0 0 0
5840 8 -0.0007477784651416471 -0.008878643347836382 0.05981387016603917 4 0 0 0 0
5841 8 4.742242617193292e-05 -0.009396643437836694 0.03481783689070388 4 0 0 0 0
5842 8 -0.0003983314278593416 -0.00929888936755803 0.07921659412216303 4 0 0 0 0
5843 8 6.657397172493817e-05 -0.00939522413896614 0.03513905305191456 4 0 0 0 0
5844 8 -0.0007915748320062493 -0.008917056020844243 0.0790359624503347 4 0 0 0 0
5845 8 -0.0007432206641671549 -0.009579914841870122 0.05373903546497454 4 0 0 0 0
5846 8 -0.0001541828637106016 -0.008958481195587589 0.07817695710099598 4 0 0 0 0
5847 8 -0.0007652423505397259 -0.008637344397443519 0.04259202340657715 4 0 0 0 0
5848 8 -0.0007737695334939369 -0.009235372464931672 0.06098244384608004 4 0 0 0 0
5849 8 -0.0001168252481340474 -0.009030895789103394 0.005914285300749019 3.130408651985771 -3.432735680459691 -1.25825124744869 -28.39335335581048 28.62777297034335
5850 8 -0.0002925644608637337 -0.009568303214775711 0.06596989782434087 4 0 0 0 0
5851 8 -0.0003609835524966228 -0.009195946407364139 0.006808204028199708 3.559020609814548 -1.633932563029817 -0.6215259336985761 -21.82396304328268 21.89386656169616
5852 8 0.000116559344024072 -0.009603818385878345 0.005650524821358071 2.914076695660971 -0.9112739440997115 -3.417602997074026 -40.21656752025317 40.37180617160801
5853 8 -0.0005028910679863949 -0.009135312065991028 0.07863417653474149 4 0 0 0 0
5854 8 -0.0003695415278372993 -0.00897942761836564 0.02081095611534734 3.999999999601455 6.791295867415537e-10 -7.815741814375066e-09 -4.496569445370122e-08 4.564494183157839e-08
5855 8 -0.0008012544131088693 -0.00926685846224121 0.02501118074724144 3.999999999998685 4.196439810312845e-12 -1.717528756533908e-11 -1.939034245384692e-10 1.947078289586207e-10
5856 8 0.0002833703086036236 -0.009724438532869126 0.0214196000639545 3.999999999773539 6.608360917256966e-09 -4.228678781336309e-10 -3.046470921173134e-08 3.117607670330626e-08
5857 8 -0.0001910682908338416 -0.009337802627241615 0.02172449201646068 3.999999999912317 -4.214132741525178e-11 2.684128858044475e-09 -1.310984539106315e-08 1.338186720139021e-08
5858 8 -4.10109868106838e-05 -0.009244337119225223 0.006166408635989686 3.275596882267006 -3.657361742031535 -1.288023655520068 -32.41216923377905 32.64328436736089
5859 8 -7.812588300459644e-05 -0.008418903509403107 0.005646708275758651 2.917722348427313 -1.078051499613959 3.246136773426402 -38.7140876163459 38.86489648710926
5860 8 -0.0004121330417693864 -0.008993399463078389 0.09366974030795699 4 0 0 0 0
5861 8 0.000155258709153523 -0.008991826106178057 0.005382947796367702 2.701390392102513 -0.1982208046222895 -0.7395046501752236 -40.9084240737015 40.91558772410359
5862 8 -0.0001073270303203689 -0.008297369450418986 0.0775662724694173 4 0 0 0 0
5863 8 -0.0008439801272747645 -0.00859279171273813 0.02111584806785351 3.999999999740233 -9.376506614808134e-09 4.676951479221576e-09 -1.817696196060278e-08 2.098081737096375e-08
5864 8 -0.0003568330069178593 -0.008782820125414611 0.007078144135157623 3.650671819396796 -1.995926073559331 0.2375345928795581 -19.09947538381522 19.20494997418353
5865 8 -0.0004677552361977123 -0.00910048059013099 0.06347034692403916 4 0 0 0 0
5866 8 0.0005901154302659418 -0.009185296730111743 0.03457439075817038 4 0 0 0 0
5867 8 -0.0003585095857358158 -0.00867086988337913 0.03737185895632937 4 0 0 0 0
5868 8 -0.0001122968052713863 -0.008335322443793283 0.07835920649301903 4 0 0 0 0
5869 8 -0.0007168070159828132 -0.008824206233999248 0.06179541845918655 4 0 0 0 0
5870 8 -0.0006019999824954264 -0.009210181915013551 0.0376504426701534 4 0 0 0 0
5871 8 -0.0001493700946545037 -0.008712321222923869 0.04235189941546397 4 0 0 0 0
5872 8 0.0001033826331780907 -0.009188239319670949 0.05994111689139654 4 0 0 0 0
5873 8 0.0006092669758189469 -0.009183877431241189 0.03539560691938107 4 0 0 0 0
5874 8 -0.0001606145337941876 -0.008729593105244302 0.0597116126604284 4 0 0 0 0
5875 8 -0.0001096476638394871 -0.009517145412704814 0.07881480820656983 4 0 0 0 0
5876 8 -0.0003971331918891933 -0.008790927778339164 0.06125860569047387 4 0 0 0 0
5877 8 1.95585330611412e-05 -0.008648835953151333 0.03817766860047277 4 0 0 0 0
5878 8 6.554973299689142e-05 -0.008471353946203275 0.0797076538379765 4 0 0 0 0
5879 8 -0.0001966741251155194 -0.009399739285528071 0.07751300032233178 4 0 0 0 0
5880 8 -0.0004389745197229641 -0.009093896932301235 0.06567161115503256 4 0 0 0 0
5881 8 0.0001083894355952003 -0.009212519644451217 0.03343765984070103 4 0 0 0 0
5882 8 -0.000337563968129327 -0.009336625249304033 0.03997992305549899 4 0 0 0 0
5883 8 -0.0001589353914484031 -0.009402028491000265 0.0668436898372539 4 0 0 0 0
5884 8 -0.0004519121165934532 -0.009154169396396733 0.0929064064411973 4 0 0 0 0
5885 8 -0.0005242971423580084 -0.009061812627348863 0.01308442193265539 3.999999938113968 5.847925713229246e-07 1.610004079513751e-07 9.160298269967841e-06 9.180357720568997e-06
5886 8 4.35375513322237e-05 -0.008648327637036454 0.006321748215215625 3.364869884880692 -2.576497993626887 0.3323154361688027 -26.47350287557133 26.60066032945729
5887 8 -0.0003938360206622541 -0.009244321593667396 0.0615551488713082 4 0 0 0 0
5888 8 -0.0001698893107518762 -0.008728047729624341 0.05939164417454476 4 0 0 0 0
5889 8 -0.0007231890240817068 -0.009324475587772985 0.01106780308507353 3.999526181887814 -0.04847141242072315 -0.04847968346139728 -0.06757552323721307 0.09626114933533796
5890 8 -0.0001459591512650683 -0.0100190489454029 0.01348495246219825 3.999999936924302 -9.559452828078117e-07 3.202502970937244e-06 3.599902798547202e-06 4.912143811165585e-06
5891 8 -0.0001772754808583415 -0.009292099792714684 0.02540710295870304 3.999999999999344 3.477589483206845e-11 -1.286937750487783e-11 -1.089400830403262e-10 1.150779102676414e-10
5892 8 -0.0006691837644808194 -0.009184245365504249 0.06663761355208647 4 0 0 0 0
5893 8 -0.0004596841633878229 -0.008365404963327012 0.08066828642745749 4 0 0 0 0
5894 8 -0.0005500881920731505 -0.009026669730986663 0.07082119572779799 4 0 0 0 0
5895 8 -1.685104728527096e-05 -0.009415783454044761 0.04117643535913751 4 0 0 0 0
5896 8 -0.0002270904870487934 -0.008678902787706054 0.04544043514141952 4 0 0 0 0
5897 8 0.0001781664063293042 -0.009820447037026087 0.006466652610900743 3.408603783734753 -0.4956564973457995 -4.077621583373967 -25.00861092482198 25.34370323235505
5898 8 -0.000800786794225908 -0.008648305007833406 0.07023692797914746 4 0 0 0 0
5899 8 -0.0001029342142528319 -0.009767766256294641 0.02850760668932869 3.99999999999999 -1.371066207118675e-13 -6.016696619312353e-13 -7.463942592115629e-13 9.684570190336032e-13
5900 8 0.0002627657694755483 -0.008718974249231888 0.03753031140699806 4 0 0 0 0
5901 8 1.92753727159377e-05 -0.00925828628086631 0.03780889512082209 4 0 0 0 0
5902 8 -0.0004799743647983119 -0.009586804552147084 0.04069426065818596 4 0 0 0 0
5903 8 -0.0005205226791652436 -0.009150834297614745 0.02392317760007077 3.999999999993607 -1.310207959736296e-10 6.1723873048021e-12 -6.340166022666946e-10 6.474423520997124e-10
5904 8 -0.0002439851388501028 -0.008715277963520425 0.0214519533470247 3.99999999983976 -3.145997625249778e-10 1.940127729377632e-09 -1.160901976583005e-08 1.177422645188692e-08
5905 8 5.742726184890483e-05 -0.009162921840389616 0.0451627665357294 4 0 0 0 0
5906 8 -0.000461368642763849 -0.009146771838936311 0.04328658443781775 4 0 0 0 0
5907 8 -0.0004960335391420726 -0.009093353472080769 0.07050712951607949 4 0 0 0 0
5908 8 -0.0008536272412339877 -0.008647938998990558 0.02574490892158518 3.999999999999786 2.932838630475462e-13 -4.949693230000583e-12 -8.564261469703898e-12 9.89606250065613e-12
5909 8 -0.0006017111343930493 -0.008802448202502932 0.01134487991828166 3.999886503337999 0.00170045142229827 -0.0002037468431349837 -0.01694502656797322 0.01703135265341546
5910 8 -8.880183205382873e-05 -0.008834710441936958 0.08066251737362494 4 0 0 0 0
5911 8 0.0001187066789126108 -0.0091866781422208 0.0593425092989881 4 0 0 0 0
5912 8 -0.0009245585005362299 -0.00888453514730507 0.05614770690292542 4 0 0 0 0
5913 8 -0.0005305704208270076 -0.008997271015820485 0.01914941187926597 3.999999996919007 1.514127646051908e-08 -4.44185736074241e-09 -1.726246254484155e-07 1.733443095716522e-07
5914 8 -0.0001245833075809937 -0.008509189655131881 0.04716072659951104 4 0 0 0 0
5915 8 -0.0007343947754362251 -0.00961842054047608 0.0152027796714631 3.999999970542254 -1.219973900675774e-06 -2.528186081593972e-07 -2.769684268616834e-06 3.037005847012035e-06
5916 8 -0.0007309890942956499 -0.008670143161360741 0.09270673003057017 4 0 0 0 0
5917 8 -0.0001277716086884395 -0.009530741601655759 0.06310579668086062 4 0 0 0 0
5918 8 -0.0005034633741174843 -0.008292867879860468 0.07976397756561197 4 0 0 0 0
5919 8 -0.0002801232346979538 -0.008678793906550922 0.09315633112789692 4 0 0 0 0
5920 8 0.0001391011098151835 -0.009081952502329229 0.07949337803954704 4 0 0 0 0
5921 8 0.0004676222562936737 -0.009001059979581068 0.004989392436522507 2.266253080878156 19.36048950021398 -1.169533496082292 -51.94295784487159 55.44607499147673
5922 8 -0.0007165976360002644 -0.009559409769480024 0.06793143714471002 4 0 0 0 0
5923 8 -0.0001999107915563506 -0.009515269585464824 0.0243600938514447 3.999999999996834 -7.289090264802421e-11 -1.177859824112495e-10 -2.5544684691897e-10 2.905851216808435e-10
5924 8 0.0002304534605873624 -0.009101913869147937 0.02114706139451852 3.999999999700982 7.005505346834639e-09 -5.925157510086512e-09 -2.668140607667472e-08 2.821492560529405e-08
5925 8 -8.324529605201395e-05 -0.009458239401532328 0.08100500835165456 4 0 0 0 0
5926 8 -8.812894495117512e-05 -0.009417010037885728 0.07105144892786758 4 0 0 0 0
5927 8 -0.0001144281476095854 -0.009399685681484742 0.06971716388157602 4 0 0 0 0
5928 8 -0.0004258096984115178 -0.00897764454816964 0.04688818213214836 4 0 0 0 0
5929 8 -0.0005860670758426547 -0.009134810645346957 0.08965733766189496 4 0 0 0 0
5930 8 -0.000777657876617693 -0.009084914515619713 0.02850645920078227 3.999999999999985 6.512890131641198e-14 1.570014168120346e-13 -7.486195906403724e-13 7.676734397894901e-13
5931 8 -0.0004367249373757449 -0.00908470412317804 0.06906828742515668 4 0 0 0 0
5932 8 -0.0001346776898322845 -0.009402308927153036 0.02205029398371242 3.999999999949222 -9.033767907891044e-10 1.742934966198738e-09 -2.645666042307337e-09 3.29445909520103e-09
5933 8 -0.0007084266869966171 -0.00957378840546059 0.02186112898374669 3.999999999917115 -4.723251495963739e-09 -7.486261774714558e-10 -6.54142037389742e-09 8.103068946748478e-09
5934 8 -0.0008528695499676947 -0.008577519081167606 0.07117053093203241 4 0 0 0 0
5935 8 -0.0007466945504468382 -0.009651721095092788 0.03419296028305616 4 0 0 0 0
5936 8 -0.00015930762809865 -0.009388104827426885 0.0853618127471842 4 0 0 0 0
5937 8 -2.864080082749262e-05 -0.008483074726154389 0.06098690398248315 4 0 0 0 0
5938 8 -0.0002050105464405768 -0.008815916612920818 0.03362215683369563 4 0 0 0 0
5939 8 -0.0005376323290477741 -0.0096981082731026 0.08751810749829286 4 0 0 0 0
5940 8 0.0001456997682665751 -0.009223380609192752 0.08334426241597653 4 0 0 0 0
5941 8 -0.0004096745257639352 -0.009041623625709374 0.04755043084418125 4 0 0 0 0
5942 8 -0.0009222112729901253 -0.00881479183189952 0.0120198009730588 3.999991953584394 -0.00241751527214979 0.0003520736872147214 -0.001831554216607721 0.003053346822861754
5943 8 -0.0006556671336515887 -0.009697288507430016 0.01608883653428096 3.999999988866154 -1.127466090256436e-07 1.075657501986873e-07 -1.763554101461751e-07 2.353368206431229e-07
5944 8 -0.0005338679842775765 -0.008449811675127176 0.03839928204438812 4 0 0 0 0
5945 8 -0.0007687727052093354 -0.009654014860072077 0.07834690103652647 4 0 0 0 0
5946 8 -0.0002040015463528293 -0.009440374387367837 0.03394951415052266 4 0 0 0 0
5947 8 -0.0008265173377806521 -0.008757323912013391 0.04358360003523372 4 0 0 0 0
5948 8 0.0001951581144732139 -0.00984339522255083 0.04242024717372504 4 0 0 0 0
5949 8 -0.0004628841227279783 -0.009145345325014181 0.04295445687807688 4 0 0 0 0
5950 8 -0.0005279189677719017 -0.009073370797998286 0.08722873950343105 4 0 0 0 0
5951 8 6.318146517896374e-05 -0.008877004288273999 0.06370640329893357 4 0 0 0 0
5952 8 -0.0001668274517035685 -0.009293205259916058 0.05015266468059118 4 0 0 0 0
5953 8 -0.0007895094365355979 -0.009381040961286075 0.0955253010845494 4 0 0 0 0
5954 8 3.45414696881301e-05 -0.008918375200762229 0.07841096045212548 4 0 0 0 0
5955 8 -0.0001292733375860382 -0.009530896279960512 0.04919832606702211 4 0 0 0 0
5956 8 0.0001529881331572439 -0.009220322150494533 0.0427143328869637 4 0 0 0 0
5957 8 0.0002627149444722117 -0.009224437554837317 0.006621992190126684 3.497876786348439 -0.9594903824825808 -1.050290196643151 -22.90661988224251 22.95075087487966
5958 8 -0.0001305834293765867 -0.009468237380655406 0.01586575483602761 3.999999988377442 -5.467047285178178e-08 1.271222726695406e-07 -2.533770476817742e-07 2.887020282270952e-07
5959 8 -0.0006677188075838023 -0.009685988060394246 0.04321688805109202 4 0 0 0 0
5960 8 -0.0005655020737109514 -0.009192347769503471 0.05636584235396619 4 0 0 0 0
5961 8 5.988997281876955e-05 -0.009807932014246751 0.0596211484055129 4 0 0 0 0
5962 8 -0.0005096690425749413 -0.009177851772291528 0.01784568079021679 3.999999992709169 2.198755896981322e-08 -2.211893731520607e-08 -1.537020483694833e-07 1.568343706283161e-07
5963 8 0.0002107150389403091 -0.009030009827728421 0.09383675480798828 4 0 0 0 0
5964 8 -0.0002060083994868653 -0.009974375529231961 0.07986773528031495 4 0 0 0 0
5965 8 -0.0001576408789090795 -0.01001774176443439 0.04549078268273575 4 0 0 0 0
5966 8 -0.0007406471514898591 -0.009566592551611802 0.07065142856255874 4 0 0 0 0
5967 8 -0.0004854352610642467 -0.009157759948501874 0.03101088435025821 4 0 0 0 0
5968 8 -0.0002378554297034831 -0.009314148365700669 0.09222038721003677 4 0 0 0 0
5969 8 -0.0005408743119006862 -0.009205313235995679 0.02630265653762004 3.999999999999877 -3.332316923993528e-12 -1.714548522506259e-12 -1.215772885149258e-11 1.272220042069678e-11
5970 8 3.155310619297445e-05 -0.009857085223787136 0.0656917322264419 4 0 0 0 0
5971 8 0.0005667117293597767 -0.009260280331511878 0.04129685960037541 4 0 0 0 0
5972 8 3.277962989008412e-05 -0.009521649576981279 0.0877528669017284 4 0 0 0 0
5973 8 -0.0006945401819587701 -0.008614041100932349 0.05863505310061543 4 0 0 0 0
5974 8 -0.0005688563740153044 -0.009189164542264807 0.05663898576256186 4 0 0 0 0
5975 8 -0.0007190799898108613 -0.009272975284031201 0.00732978547719095 3.720519591901778 -2.245855405960129 0.07720177993886695 -19.19575852821466 19.32684589095779
5976 8 0.0001093984356829478 -0.009836977418898237 0.03376501715752807 4 0 0 0 0
5977 8 -0.0004723013960716678 -0.009157613682945754 0.08310858476600015 4 0 0 0 0
5978 8 -0.0004733511998756089 -0.009156636046967294 0.08282976489936958 4 0 0 0 0
5979 8 -0.0003371009907505849 -0.008980703720254193 0.04081470096010119 4 0 0 0 0
5980 8 -0.0005374917132731629 -0.008970892177395639 0.09173074927629483 4 0 0 0 0
5981 8 -0.0001520825535357717 -0.008783705233215837 0.04807944185174843 4 0 0 0 0
5982 8 0.0001922600319294023 -0.009232771841351795 0.08398150760825347 4 0 0 0 0
5983 8 -0.0001781114390512056 -0.009438082819767518 0.01233663630413678 4 0 0 0 0
5984 8 1.012776894781226e-05 -0.009397138732819998 0.08467702774502826 4 0 0 0 0
5985 8 -0.0005050839860412466 -0.009126951550721463 0.03450530044235513 4 0 0 0 0
5986 8 -0.0005803923904567153 -0.008781167312138155 0.02483476677938286 3.999999999998419 -2.042109655885675e-11 -3.219902566182257e-11 -1.73994301293239e-10 1.781230342228632e-10
5987 8 -0.0002009295569490608 -0.009541710485630763 0.05564009028021679 4 0 0 0 0
5988 8 -3.8386831531977e-05 -0.00977326353032016 0.03964215827788276 4 0 0 0 0
5989 8 5.335209441738943e-05 -0.009451748579424222 0.06877653319851333 4 0 0 0 0
5990 8 -0.0006430674463022566 -0.009625384714625426 0.06938868157119714 4 0 0 0 0
5991 8 0.0003865169967548078 -0.009315867671214458 0.06043968298274402 4 0 0 0 0
5992 8 -0.0007114962911829801 -0.008470094135950063 0.0601688016233103 4 0 0 0 0
5993 8 -0.0004972513689198141 -0.009078684376728922 0.08136139309406916 4 0 0 0 0
5994 8 8.238384539672132e-05 -0.009832516499952232 0.07773003482241186 4 0 0 0 0
5995 8 -0.000193221055062515 -0.00956270932255761 0.01835192817997002 3.999999994027884 1.035438614283773e-08 2.788203497072292e-09 -2.229769046129237e-07 2.232346016680589e-07
5996 8 6.132153254860315e-05 -0.008880310828435083 0.07732549596422181 4 0 0 0 0
5997 8 0.0004379902538014248 -0.008696591533184141 0.04739674260450526 4 0 0 0 0
5998 8 0.0001962284546734422 -0.009846084052902224 0.08364981306359959 4 0 0 0 0
5999 8 -0.000455191649000314 -0.009218829633283715 0.07468622730927782 4 0 0 0 0
6000 8 -0.0002170892656915503 -0.008827400248158111 0.08224609789030732 4 0 0 0 0
6001 8 -0.0007842535209626778 -0.008618089063681684 0.09551744507933799 4 0 0 0 0
6002 8 -0.0004454790867894995 -0.009125062783125602 0.0769165762672277 4 0 0 0 0
6003 8 -0.0005844245689077206 -0.008569192808336307 0.05697452553165315 4 0 0 0 0
6004 8 4.249299116595655e-05 -0.008896912101876967 0.08746349890686658 4 0 0 0 0
6005 8 0.0001035884118467358 -0.009431301429614201 0.04031468489942387 4 0 0 0 0
6006 8 -0.0001766070510080475 -0.009451041724701027 0.08187492752176573 4 0 0 0 0
6007 8 0.0001446499644626341 -0.00922240297321429 0.08256544254934597 4 0 0 0 0
6008 8 0.000427784873835038 -0.009300208547476015 0.07859159212395384 4 0 0 0 0
6009 8 -0.0005383868942730928 -0.009048615682382202 0.01515864931814691 3.999999965291539 -2.133719208497633e-07 8.610860805875193e-07 -3.712880978897916e-06 3.817392038846762e-06
6010 8 -0.0002537233002137986 -0.009613082349564444 0.06815980315217851 4 0 0 0 0
6011 8 0.0001728794166045603 -0.009844237921659692 0.01055558285620755 3.998976037069688 -0.03328614428445041 -0.1083728820967612 -0.1192016908454803 0.1645043831504353
6012 8 -0.000424224656411435 -0.009172727634905948 0.03707079593027217 4 0 0 0 0
6013 8 -0.0009790467009162373 -0.008733609302322949 0.07789742695902591 4 0 0 0 0
6014 8 0.0001970506987999291 -0.009220832000758707 0.03672924838094085 4 0 0 0 0
6015 8 -0.0001860053890529722 -0.009445084271907329 0.07356114450334883 4 0 0 0 0
6016 8 0.0005979010095091428 -0.009249216817503627 0.08446107840186839 4 0 0 0 0
6017 8 0.0002599185449101563 -0.009723431099546462 0.04549470374364203 4 0 0 0 0
6018 8 -0.0008350904300297933 -0.008761633321911115 0.08251042024033092 4 0 0 0 0
6019 8 9.191436131692632e-05 -0.008859005090037352 0.06939676973553555 4 0 0 0 0
6020 8 -9.85135134180988e-05 -0.009338712881824722 0.01067102774202687 3.999518314996252 -0.04432744156832696 -0.04835171225267795 -0.07383439651932468 0.0987640028711477
6021 8 -0.0007987231774068278 -0.008815577715676669 0.07405517295542842 4 0 0 0 0
6022 8 -0.0004904797157141065 -0.00914386854445046 0.03539385516036324 4 0 0 0 0
6023 8 -0.0005250160846733934 -0.009065411725298582 0.08681005749615475 4 0 0 0 0
6024 8 -0.0005561887862925283 -0.009079343281227076 0.04475664162705238 4 0 0 0 0
6025 8 -0.000708100073806997 -0.00974480076382709 0.005819518440765132 3.002141866674969 -5.931922596818104 -5.632854285994348 -31.61892686064724 32.65996461909972
6026 8 9.288096698938107e-05 -0.009799103385355393 0.02563366022849603 3.99999999999937 3.362887819092758e-11 -3.135274166997477e-11 -8.447794862800993e-11 9.617910200766642e-11
6027 8 -2.751540147356592e-05 -0.00950780809500882 0.08623988902265095 4 0 0 0 0
6028 8 -0.0003028892282307448 -0.008930039114847438 0.05598938182414485 4 0 0 0 0
6029 8 9.153091676163222e-05 -0.009798353870706551 0.05037127549515679 4 0 0 0 0
6030 8 0.0004017376942561905 -0.009307492656526951 0.04936511092214613 4 0 0 0 0
6031 8 -0.0005187162229826099 -0.009061981188567525 0.09095580886168859 4 0 0 0 0
6032 8 -0.0002032060350862367 -0.009371455689859191 0.06403992477572179 4 0 0 0 0
6033 8 -0.000101258356082254 -0.00900420617325871 0.06627390233947086 4 0 0 0 0
6034 8 -0.0008753593124505549 -0.008841224814290224 0.02667606728898439 3.999999999999903 -5.385809683419967e-12 5.590265012320846e-13 -5.841233044247741e-12 7.96488920527535e-12
6035 8 -0.000206432863597818 -0.008783266527495477 0.0700656307377793 4 0 0 0 0
6036 8 -0.0005024423293736845 -0.009143783080204205 0.03171802899743051 4 0 0 0 0
6037 8 -9.13588014086179e-05 -0.008714279838897547 0.05210998820832308 4 0 0 0 0
6038 8 -0.0004374251521438008 -0.009085821020696612 0.0488781720200641 4 0 0 0 0
6039 8 -0.0001081410135859545 -0.008706753526010773 0.09237374453060146 4 0 0 0 0
6040 8 -0.0002641949842162749 -0.008715673818858814 0.07235368254120235 4 0 0 0 0
6041 8 6.031485804338901e-05 -0.008898154099873762 0.01616295480490867 3.999999989157538 -4.232986248321881e-08 9.771344985201818e-08 -3.682118134803112e-07 3.833010241654601e-07
6042 8 -9.180728528091311e-05 -0.008823795976470376 0.06195374826531217 4 0 0 0 0
6043 8 7.384930576871601e-05 -0.008243194317277399 0.04833545791465453 4 0 0 0 0
6044 8 -0.0001244471950384378 -0.009335686573395447 0.05160998820832308 4 0 0 0 0
6045 8 -0.0007146561149181902 -0.008596303355163577 0.0478434258467542 4 0 0 0 0
6046 8 0.000168084315225505 -0.009845522162351185 0.05733817422448286 4 0 0 0 0
6047 8 0.0001528990356184833 -0.009229025503761631 0.04778644684917547 4 0 0 0 0
6048 8 3.760901805276227e-05 -0.008915604842996513 0.03426185430982163 4 0 0 0 0
6049 8 0.0001391145540979052 -0.008237188522391675 0.0596191033614402 4 0 0 0 0
6050 8 -0.0007888933343003576 -0.008620088993254497 0.004409456526723265 1.675379143113596 0.9628026254731863 2.003603844713066 -34.73211198030636 34.80317542803685
6051 8 0.0001809831171199218 -0.009235817937587459 0.03845210591450221 4 0 0 0 0
6052 8 -0.0001059441922947625 -0.008760421613608908 0.05833591822505875 4 0 0 0 0
6053 8 -4.076239359865296e-05 -0.008774454562484726 0.0849747192440336 4 0 0 0 0
6054 8 1.405181300513433e-05 -0.009413313991606109 0.04664183046887944 4 0 0 0 0
6055 8 -0.0006561364896530434 -0.009605919754345429 0.05780985065537771 4 0 0 0 0
6056 8 -0.0001399119308145489 -0.009480832977470793 0.02364641618347453 3.999999999992411 -1.711830764988345e-10 1.029361262100759e-10 -4.736515095606042e-10 5.140479007522369e-10
6057 8 -0.0003290172157848756 -0.00883725830096452 0.09008803461014646 4 0 0 0 0
6058 8 0.0004089900169501624 -0.009221989298754726 0.06647997862463831 4 0 0 0 0
6059 8 0.0004031650926882365 -0.009307265299798768 0.06334185305575503 4 0 0 0 0
6060 8 -0.0002975357623265173 -0.008829029125951258 0.01212302563001213 4 0 0 0 0
6061 8 0.0007004926241826967 -0.009303244313539448 0.004751805066994186 1.966811105494997 0.00148763320592642 3.451447527860056 -33.88878773576931 34.06409291982765
6062 8 -0.0008231554014461001 -0.008521633089272639 0.07936907009535417 4 0 0 0 0
6063 8 -0.0004531402685841568 -0.00860129806577839 0.07499844505351071 4 0 0 0 0
6064 8 -0.0001974455561441857 -0.008749121693277066 0.06430855506382373 4 0 0 0 0
6065 8 -0.0003863316734230361 -0.008612677448268212 0.08931043508783942 4 0 0 0 0
6066 8 4.122154799871364e-05 -0.009798174600736663 0.09242006362066388 4 0 0 0 0
6067 8 0.0007046296321109769 -0.008697815666041621 0.004737587369528321 1.96384348414931 0.001484986149787476 -4.738470988608154 -33.82848690161538 34.1587417152305
6068 8 -0.0005811123067493014 -0.009069931944235039 0.07291747491956535 4 0 0 0 0
6069 8 4.358654179381249e-05 -0.008806408642611627 0.02523068899084447 3.999999999999078 2.893182282896304e-11 -1.749059036823542e-11 -9.615530362020125e-11 1.019255293728171e-10
6070 8 -0.0001737758369331466 -0.008821314389880725 0.07391155000911981 4 0 0 0 0
6071 8 0.0001695108219546123 -0.009241523254655049 0.0585598623126901 4 0 0 0 0
6072 8 -0.0007506275720096316 -0.008519804195877318 0.04109657000709807 4 0 0 0 0
6073 8 -0.0007232305353896247 -0.009686101565980728 0.007059845370233036 3.62886838231953 -3.147144603916889 -1.473684187374641 -20.08663982470673 20.38502792957556
6074 8 0.0004284656124626806 -0.009240182912110513 0.08564586340402433 4 0 0 0 0
6075 8 -0.0005409836517987481 -0.009263648248907252 0.09516514635218393 4 0 0 0 0
6076 8 -0.0009018364453539836 -0.009442985173389495 0.04592711792596593 4 0 0 0 0
6077 8 -0.0005110204613248948 -0.009112498670378444 0.0891003348590598 4 0 0 0 0
6078 8 -0.0006913842578691674 -0.008591865126190484 0.0524112607161403 4 0 0 0 0
6079 8 0.0001417313455225352 -0.00861006839764232 0.08367595696063042 4 0 0 0 0
6080 8 0.000154403412519716 -0.009035024749204382 0.05535690422327526 4 0 0 0 0
6081 8 -0.0006978384835457973 -0.009516608883349618 0.04998587982546718 4 0 0 0 0
6082 8 -0.000758934970152347 -0.009598266254171376 0.01265927380774884 3.999999978739981 -3.875036626037866e-06 -3.169808236755196e-06 4.288678289267859e-06 6.59214339799837e-06
6083 8 -0.0007941702790510922 -0.009375607903243606 0.004451778042771604 1.7216057921097 1.364970209100784 -2.837446558178418 -35.28397412871691 35.42418773886305
6084 8 -0.0004540207622296976 -0.009219930108325143 0.07435478419558972 4 0 0 0 0
6085 8 -0.0001749263663555785 -0.009471897403656081 0.0360749086877431 4 0 0 0 0
6086 8 -0.0006714166794473575 -0.009639540481714283 0.0527407625997695 4 0 0 0 0
6087 8 -0.0005569082291870599 -0.009105484320250597 0.08841103730348507 4 0 0 0 0
6088 8 0.0001553891716324111 -0.009245478718676982 0.07659108030300579 4 0 0 0 0
6089 8 -0.0005749837708816861 -0.009174061438261315 0.01885310011798115 3.999999995936398 -1.092507911557789e-10 -1.006804945963071e-08 -2.257480640051865e-07 2.259724893825501e-07
6090 8 -0.0007107558637445132 -0.009634631867457189 0.08944723743311533 4 0 0 0 0
6091 8 9.832039148601743e-05 -0.00922831499174284 0.07033583227471132 4 0 0 0 0
6092 8 -0.000721929140201091 -0.008645520865153689 0.07667873335362463 4 0 0 0 0
6093 8 0.0001545036131213732 -0.009221748664416662 0.04354646044670456 4 0 0 0 0
6094 8 0.0001089062693060431 -0.009213075470871183 0.03262553040471579 4 0 0 0 0
6095 8 -0.0006693384845454006 -0.009697882206737615 0.08294330534343479 4 0 0 0 0
6096 8 5.652638874313285e-05 -0.008901629192945005 0.01276178442904332 3.999999959373986 2.029470823988979e-06 1.3804645046501e-06 6.396154892354542e-06 6.85092924215484e-06
6097 8 -0.0004700247103713506 -0.00832406414185646 0.08473396463507656 4 0 0 0 0
6098 8 -0.0007644188392008434 -0.009609237514429235 0.07324340565137002 4 0 0 0 0
6099 8 -0.000209477798522281 -0.009516643695215403 0.08880727550922105 4 0 0 0 0
6100 8 5.114153932025989e-05 -0.00883858525554671 0.01933480245889643 3.999999997310266 1.369985801285431e-08 -4.679638625584214e-09 -1.746252416091877e-07 1.752243137646874e-07
6101 8 -1.489600670552131e-05 -0.008651641431637698 0.05451704745919247 4 0 0 0 0
6102 8 -9.356404268504338e-05 -0.008915960488599418 0.07497159391362029 4 0 0 0 0
6103 8 -0.0001414220416303775 -0.009427273081581856 0.06221037796388168 4 0 0 0 0
6104 8 5.221328837990227e-05 -0.008932521836725509 0.03565040902782974 4 0 0 0 0
6105 8 0.0004889046753703101 -0.00866941749465883 0.08043280531060405 4 0 0 0 0
6106 8 0.0005005882297038211 -0.008708207525463946 0.06078946322622382 4 0 0 0 0
6107 8 -0.0002293978794656639 -0.008669871965308721 0.02569339712081455 3.999999999999738 5.862056478078984e-12 -5.491391514630478e-12 -1.345215430597005e-11 1.566778677384818e-11
6108 8 -8.350583077108714e-05 -0.008688881668774552 0.0503934524463746 4 0 0 0 0
6109 8 -0.0004464268837026938 -0.009110238467500252 0.06273033765189362 4 0 0 0 0
6110 8 -0.0002286965674205618 -0.008923708967769202 0.0569304422470366 4 0 0 0 0
6111 8 -0.0005561331294663054 -0.00882554644952749 0.01640670741515544 3.999999989620326 -1.023082191101298e-07 7.68897089063046e-08 -2.905058766212278e-07 3.174471032859658e-07
6112 8 -0.0001988321738129221 -0.008780636393580916 0.02226952748750723 3.999999999953598 -1.054381825507642e-09 4.217834719696237e-10 -5.499188729688315e-09 5.615220299856326e-09
6113 8 -0.0007341427364629127 -0.009594931991716182 0.06380386840082738 4 0 0 0 0
6114 8 -0.0006812444529314712 -0.009564880442977932 0.06497696703392181 4 0 0 0 0
6115 8 0.0003427248460117417 -0.008715404271200954 0.09332334562792818 4 0 0 0 0
6116 8 -0.0008756013125007073 -0.009001625943894516 0.09576044477908816 4 0 0 0 0
6117 8 -0.0007109009165944593 -0.009510078518747132 0.04727788637681857 4 0 0 0 0
6118 8 2.896122300239655e-05 -0.009165358588266543 0.07260031435330846 4 0 0 0 0
6119 8 -0.0001775283745592176 -0.008850057812365107 0.03640376755879061 4 0 0 0 0
6120 8 -0.0001586912485738995 -0.009146024710313129 0.02821183361547238 3.999999999999985 -5.509092917456136e-13 3.516147578164171e-13 -7.521019712793578e-13 9.963891613462318e-13
6121 8 -0.0001268503300443148 -0.009380841965565418 0.05804272330968839 4 0 0 0 0
6122 8 -0.0002854806290228135 -0.008989137910215864 0.0684534798137643 4 0 0 0 0
6123 8 -0.0007831644248093934 -0.009366763425030511 0.01642487811154101 3.999999989601147 -2.596905598707987e-07 -5.226786044338098e-08 -3.052165599053731e-07 4.041389174056464e-07
6124 8 -0.0001907079476404053 -0.009441156772187424 0.0902622489056356 4 0 0 0 0
6125 8 -0.0002106450818954299 -0.008832300737493743 0.04384347604412053 4 0 0 0 0
6126 8 0.0002022725272928817 -0.00920004179459024 0.05461113998424717 4 0 0 0 0
6127 8 -0.0008969042791129036 -0.009489613488037615 0.07198070097890785 4 0 0 0 0
6128 8 -0.000149515949258863 -0.009471071932222635 0.01762057406860511 3.999999991862482 2.802693761753753e-08 -3.5658910822491e-08 -1.720673806988748e-07 1.779445156610206e-07
6129 8 -0.0007343566178564749 -0.008584624095855269 0.04925121880832529 4 0 0 0 0
6130 8 0.0001709359641162423 -0.009190779761046767 0.09257342094122856 4 0 0 0 0
6131 8 4.539587426446481e-05 -0.008888953029177263 0.08654481689959029 4 0 0 0 0
6132 8 8.64770687150931e-05 -0.009789874197875616 0.05435722187296727 4 0 0 0 0
6133 8 -0.0005357277362258298 -0.008771873688251336 0.09515729034697253 4 0 0 0 0
6134 8 -0.0001323459796060599 -0.009402928313201489 0.04828894081228201 4 0 0 0 0
6135 8 -0.0001210608817791806 -0.00876593680070507 0.07635323738940274 4 0 0 0 0
6136 8 0.0004041466814361001 -0.00930775608917293 0.016628329796899 3.999999990690968 1.26134300584654e-07 5.339236975731884e-09 1.755187638574688e-08 1.274615141920235e-07
6137 8 -0.0008283127182477001 -0.009456962915887782 0.09206338462717702 4 0 0 0 0
6138 8 0.0002311637100396459 -0.009243911336138524 0.06171347867743383 4 0 0 0 0
6139 8 -0.0001403011182267296 -0.01002599510053248 0.06706635054118903 4 0 0 0 0
6140 8 -0.0007645301092414242 -0.008567895438765532 0.06458672058474249 4 0 0 0 0
6141 8 -0.0001781500116370335 -0.009456267341880386 0.04425869824669188 4 0 0 0 0
6142 8 9.358587969842786e-05 -0.008862417397263051 0.04854495687518812 4 0 0 0 0
6143 8 -0.0007598335213815509 -0.009690767093335226 0.02610699665721466 3.999999999999813 -3.516109386480559e-12 -1.895280172312583e-12 -1.238367763049855e-11 1.301194004771649e-11
6144 8 -0.0007089239231053828 -0.008493521026752836 0.04648103835485905 4 0 0 0 0
6145 8 -0.0009402732398633654 -0.008745600851311952 0.08992046195484703 4 0 0 0 0
6146 8 0.0001979708822071687 -0.008814546308711143 0.05131356056198606 4 0 0 0 0
6147 8 -1.036789535191437e-05 -0.00889840614144285 0.08816015405133724 4 0 0 0 0
6148 8 -0.001027707952735687 -0.009105229239338293 0.04222801427544803 4 0 0 0 0
6149 8 -0.0003736627980399738 -0.00898920593702167 0.05097806753216994 4 0 0 0 0
6150 8 -0.0001189129439364225 -0.009388805381943482 0.07606031611559258 4 0 0 0 0
6151 8 -0.0005814339088520968 -0.009181867326462173 0.03027163798992426 4 0 0 0 0
6152 8 -0.0006460156900110418 -0.009615965922921075 0.07588574316637273 4 0 0 0 0
6153 8 0.0005819913931100606 -0.009226049546283536 0.0691050155088922 4 0 0 0 0
6154 8 -0.0003448104052976225 -0.0086123580613469 0.02408138185101202 3.999999999994754 -1.224145681268248e-10 1.598425115759481e-10 -6.196882187290335e-10 6.515738203980778e-10
6155 8 0.0002464617858944627 -0.008825200597721308 0.04043512520133909 4 0 0 0 0
6156 8 0.0002208945635052563 -0.009683569387517892 0.07981915285702496 4 0 0 0 0
6157 8 -0.0008551825460969007 -0.008700586181310619 0.01899870533012864 3.999999996430927 -2.106954370294057e-08 5.501744854370122e-09 -2.112226211843527e-07 2.123421544778174e-07
6158 8 -0.0003724434002187958 -0.009036793659563305 0.03867371935841757 4 0 0 0 0
6159 8 5.244374123803189e-05 -0.008423353378421056 0.05570619576720333 4 0 0 0 0
6160 8 0.0001748525376941136 -0.009194030279565045 0.05061206326094021 4 0 0 0 0
6161 8 0.0001913694470655812 -0.009228093103221842 0.05235894900776222 4 0 0 0 0
6162 8 -0.0004730819351364546 -0.00917742903702462 0.02294549246410297 3.999999999983922 -3.196065479666241e-10 -7.524558173274275e-11 -1.008257555752671e-09 1.060374246106435e-09
6163 8 0.0001475299524735226 -0.009229614424954737 0.02263240871547691 3.999999999976507 2.037240689384271e-10 -1.969408575427627e-10 -1.804130830076255e-09 1.826246765819489e-09
6164 8 -0.0004086560093949683 -0.009105678390514779 0.05266022151557945 4 0 0 0 0
6165 8 -0.0007709923996456221 -0.009690745515318368 0.02470072813315084 3.999999999997246 -6.652038216155952e-11 -1.135977976362532e-10 -2.599042820533212e-10 2.913411345834628e-10
6166 8 0.0001996527070035682 -0.009842671592049681 0.03640038950989334 4 0 0 0 0
6167 8 0.000102680417460523 -0.009183549943610569 0.06455895577207106 4 0 0 0 0
6168 8 0.0002749159984788725 -0.009387383316423758 0.06798828546255739 4 0 0 0 0
6169 8 0.0003370625353128645 -0.009309565516407653 0.08855639225707321 4 0 0 0 0
6170 8 0.000122101589497482 -0.00983676717999534 0.03233230652099953 4 0 0 0 0
6171 8 0.00070691497644436 -0.009007556921587546 0.03894608985159294 4 0 0 0 0
6172 8 -0.0004644041356367156 -0.009002323689099034 0.06483712129298984 4 0 0 0 0
6173 8 8.450981767398221e-05 -0.008886762165643261 0.06246639402678801 4 0 0 0 0
6174 8 2.518894823583516e-05 -0.009226468094999524 0.08982491031719439 4 0 0 0 0
6175 8 -0.0004025348048313498 -0.009062608149342203 0.07572365241401793 4 0 0 0 0
6176 8 0.000491857567284549 -0.009255432762961412 0.0707313666532427 4 0 0 0 0
6177 8 -0.0002476684149414843 -0.008529799890784232 0.06597561567016257 4 0 0 0 0
6178 8 -0.0007238240701351867 -0.009669275319513513 0.03189945234696087 4 0 0 0 0
6179 8 0.0001732631038622028 -0.009223130438632566 0.05733115070310851 4 0 0 0 0
6180 8 -0.0007864105112119666 -0.008679977455975483 0.06309488789507217 4 0 0 0 0
6181 8 -0.0008404139733087197 -0.008618763399389148 0.01492321539948459 3.999999943252602 -4.051447078365923e-07 1.097890104612226e-06 -3.944862934555672e-06 4.114784136321689e-06
6182 8 -2.419851768872964e-05 -0.008976793349196979 0.02451829810238595 3.99999999999798 -4.385944426489764e-11 -2.444856453578651e-11 -1.04030699297493e-10 1.155152351658066e-10
6183 8 -0.0007579199118738512 -0.008699762538073428 0.05740128990009373 4 0 0 0 0
6184 8 0.000177707425966123 -0.009881304044533485 0.01570694309876694 3.99999998573547 3.002668500263243e-07 -3.033161616377143e-07 -9.309149762529305e-07 1.024091581914118e-06
6185 8 -9.22716661123283e-05 -0.01003049300682592 0.02099987347020172 3.999999999470998 -8.263133469921731e-09 -5.259623937746591e-08 -5.106719917552216e-08 7.377331904574911e-08
6186 8 0.0004309069579563346 -0.009311239770080616 0.05332184483954101 4 0 0 0 0
6187 8 -0.0007569173125704208 -0.009619845991017884 0.04457696256613451 4 0 0 0 0
6188 8 9.551706983445083e-05 -0.008195430541901373 0.06567288436754658 4 0 0 0 0
6189 8 -0.0007777890264328747 -0.00858862316539194 0.0810366682419186 4 0 0 0 0
6190 8 5.29655752710541e-05 -0.008828077627208528 0.09188775185915457 4 0 0 0 0
6191 8 0.0002116844364541601 -0.009851286958526858 0.0224131752116821 3.99999999997213 -3.606357047904321e-11 7.19663460085301e-10 -1.12898824971723e-09 1.339339592820738e-09
6192 8 7.983307759185286e-05 -0.009778025985054051 0.009618121731161382 3.988592331322692 0.1037734534145141 -0.407690925571598 -1.374216953969997 1.437168416367955
6193 8 -0.0006960808752855803 -0.009510346201705974 0.05127449517850695 4 0 0 0 0
6194 8 0.0007241903535354094 -0.008993706333748054 0.0370547487210275 4 0 0 0 0
6195 8 9.691993851847193e-05 -0.009805883940192696 0.06429032548396912 4 0 0 0 0
6196 8 -0.0001341055968304227 -0.008332277989682385 0.05370717998276243 4 0 0 0 0
6197 8 -0.0005459311261617045 -0.008315424020697681 0.004232798475267048 1.428300862623114 -0.001054722938986546 0.001325270216826289 -27.1877095708624 27.18770962362119
6198 8 6.728189265581434e-06 -0.00901537567798754 0.01853849069761161 3.999999994745314 7.245004949616951e-09 -1.170356941588232e-08 -2.448083806447332e-07 2.451950384238819e-07
6199 8 0.00019032510747425 -0.009844734145732104 0.06998736541850806 4 0 0 0 0
6200 8 0.0006621897909705137 -0.009000726763986463 0.0769999999999999 4 0 0 0 0
6201 8 0.0008891064301801356 -0.008873088855584721 0.03499703344134335 4 0 0 0 0
6202 8 0.0006500000000007913 -0.008999999999999814 0.033 4 0 0 0 0
6203 8 6.758297181074387e-05 -0.01001968191341308 0.0349664103687416 4 0 0 0 0
6204 8 -0.0002517260173138264 -0.008856653499600563 0.0285004431378744 3.999999999999988 -7.55923091484431e-13 6.310970627479583e-15 -1.493444713642541e-12 1.673868770631824e-12
6205 8 -0.0007078097563176301 -0.009505578422152144 0.03879542463831011 4 0 0 0 0
6206 8 -0.0005203555209834815 -0.009172603265783735 0.0274266423803287 3.999999999999962 -8.766985285872176e-13 9.787540727629021e-13 -4.622617083221814e-12 4.805741206418747e-12
6207 8 0.000689857653907805 -0.008995832761191135 0.06288504904857398 4 0 0 0 0
6208 8 -0.000911296759102476 -0.008961462169060127 0.09403626268486268 4 0 0 0 0
6209 8 -0.0008407065351902265 -0.008595324228543514 0.04503431023274251 4 0 0 0 0
6210 8 -0.0007034747444536221 -0.009644491240218591 0.07710408062533768 4 0 0 0 0
6211 8 0.0001851321791461369 -0.009846044449757204 0.08219427218080438 4 0 0 0 0
6212 8 -2.698856601430206e-06 -0.008905778701713133 0.07323521377154416 4 0 0 0 0
6213 8 7.174106556160713e-05 -0.008919166638380414 0.09061281144454833 4 0 0 0 0
6214 8 -0.0009234904563743064 -0.009490612032163412 0.0139593226922191 3.999999913175177 2.854713164496964e-06 2.599335510533428e-06 -1.053047975209116e-06 4.001854868178551e-06
6215 8 6.894194412101474e-05 -0.008254670291691872 0.0639750335870355 4 0 0 0 0
6216 8 0.000576878354942204 -0.008451012689171922 0.09576720152473298 4 0 0 0 0
6217 8 0.00014860468420506 -0.009861943606611559 0.05826666739731973 4 0 0 0 0
6218 8 -0.0006723587430070536 -0.009650749383438847 0.06247432158898727 4 0 0 0 0
6219 8 -0.0007025127352445358 -0.009436104192590986 0.008758187315048866 3.937498014133362 -1.286661820181954 -0.4464826822511471 -6.532927795842919 6.673379279702386
6220 8 -0.0005412955427623293 -0.008311798147230343 0.09575700030024983 4 0 0 0 0
6221 8 0.0006690679177257383 -0.009001348441945296 0.06497543429528285 4 0 0 0 0
6222 8 0.0001575371094751692 -0.009868347299915394 0.07629815902919565 4 0 0 0 0
6223 8 0.0005828331872635502 -0.009547566651810708 0.004251805066994186 1.431951264459654 0.000998117926518496 -0.000468893975437532 -25.52681652244683 25.5268165462669
6224 8 -0.0008584508919896735 -0.008701339295413639 0.08870409665332384 4 0 0 0 0
6225 8 -0.0005453101613810088 -0.009900492982193625 0.07954039668912802 4 0 0 0 0
6226 8 0.0007495951617447078 -0.008987847268603235 0.07904906165965186 4 0 0 0 0
6227 8 0.000636194562782292 -0.008999343191252118 0.04484450221628677 4 0 0 0 0
6228 8 -6.656820258286311e-05 -0.008315268167157509 0.09043859714905918 4 0 0 0 0
6229 8 0.0005869701951918317 -0.008453493327770361 0.004237587369528321 1.428982097932046 0.0009953589284631475 0.0006016538508081828 -26.71503207272926 26.71503209804697
6230 8 -0.0001481041545766027 -0.01002998968257176 0.07135065506808996 4 0 0 0 0
6231 8 -0.0007543135584321863 -0.009616334671979155 0.08160463958478661 4 0 0 0 0
6232 8 -0.0006928285620369153 -0.009716847029146844 0.05653367815572743 4 0 0 0 0
6233 8 -0.0004647247927614517 -0.008187202915388476 0.05536210324214863 4 0 0 0 0
6234 8 -0.0002519554941217565 -0.008915336204421306 0.02704649984428596 3.999999999999947 -2.671309275512574e-12 4.871552042107499e-13 -2.593060816309789e-12 3.754620864416315e-12
6235 8 0.0008117642302889988 -0.009020230098118498 0.006976313495040822 3.611154467656447 4.32408815411993 -0.3659607697157065 -18.61702390771774 19.11609910076073
6236 8 -0.0005760104000578474 -0.008206710207613748 0.006777900160246564 3.517664917929049 -5.815506028157231 6.451141973665744 -22.07229569828628 23.71968761431129
6237 8 5.616719859453363e-05 -0.009237851737045839 0.05620751727518563 4 0 0 0 0
6238 8 0.0007570955693440204 -0.009015650320119847 0.06121949474034018 4 0 0 0 0
6239 8 0.0001341245740234466 -0.008283285060531781 0.06220976432821852 4 0 0 0 0
6240 8 8.045513850432468e-05 -0.008913391429450794 0.08163168103104827 4 0 0 0 0
6241 8 -0.0006320211665051745 -0.008484057326231177 0.05075945671760432 4 0 0 0 0
6242 8 -0.0005512080709124418 -0.009680272875800429 0.004275119991315387 1.474536301896965 -0.0008168361609420347 -0.0008096079605911932 -27.71049117570472 27.71049119957089
6243 8 3.660001796501481e-05 -0.008291147068549493 0.0339344969929946 4 0 0 0 0
6244 8 -0.0008343708581417234 -0.008770071920885471 0.03141938021347196 4 0 0 0 0
6245 8 0.0006706447172211848 -0.00899420078097117 0.08297850302358373 4 0 0 0 0
6246 8 0.0002136169986310872 -0.008106987913048841 0.0779655563615204 4 0 0 0 0
6247 8 -0.0002412156957979571 -0.01005849364625351 0.08070989773989973 4 0 0 0 0
6248 8 0.0001709265782439836 -0.009225666782529202 0.07421116124928111 4 0 0 0 0
6249 8 0.0003490108053786921 -0.008713530983538595 0.09540704679236749 4 0 0 0 0
6250 8 4.427646102632082e-05 -0.008941443258805644 0.02330885549681696 3.999999999989683 -1.817812746129625e-10 9.302796782229051e-11 -4.41228932051731e-10 4.861909142266744e-10
6251 8 -0.0006957804760368307 -0.009743054329845194 0.01141481128496162 3.99959886838503 -0.04801546311417432 -0.04789767704774074 -0.06799579432261289 0.09603697314160511
6252 8 0.0006842178834025916 -0.009003261729644036 0.0589999999999999 4 0 0 0 0
6253 8 -0.0005749923596290174 -0.008464710852551021 0.008120249482460519 3.879466732065261 -1.98804644519705 -0.03270187867162744 -6.896007331885341 7.176929371433556
6254 8 -6.289793453217877e-05 -0.008292575499128747 0.01254817375491868 3.999999959373986 1.913603363535522e-06 3.505317361110331e-06 4.777294119527649e-06 6.226689870188607e-06
6255 8 -0.0007988037297705816 -0.008801953446512349 0.03674531510812193 4 0 0 0 0
6256 8 -0.0001626669696924977 -0.01001179761105301 0.04653362971554949 4 0 0 0 0
6257 8 -0.0007418198741185167 -0.008745526029833202 0.07541019663413667 4 0 0 0 0
6258 8 0.0006885730972472062 -0.008996048314050856 0.04890834239717314 4 0 0 0 0
6259 8 3.997292382082186e-05 -0.008289749952907878 0.08200285139958986 4 0 0 0 0
6260 8 -0.0001532445574759674 -0.00923215057042126 0.009346041999270908 3.983851332264759 0.165910940104893 -0.04417601380097524 -1.901194084261334 1.908930828048027
6261 8 -0.0003156665301811786 -0.008874005326901951 0.02979418021806577 3.999999999999998 1.589813105342243e-14 1.002743131218824e-14 -5.955311887157348e-13 5.958277407799074e-13
6262 8 7.104057160730847e-05 -0.008924011726266367 0.01732285034136553 3.999999991423155 5.300230824570992e-09 -3.817990025419354e-08 -1.181086279426751e-07 1.242394672586581e-07
6263 8 0.000687488559117003 -0.008996619376612639 0.01707909773111876 3.999999990960368 -2.719002927899792e-09 -3.56866840725251e-08 -1.073713625580394e-07 1.13179246748616e-07
6264 8 -0.0005465514583352523 -0.009684079989948375 0.09576485630546122 4 0 0 0 0
6265 8 0.0007421908835514706 -0.009015559494901355 0.09288603332776926 4 0 0 0 0
6266 8 -0.0001597244213329979 -0.01002188428593765 0.04105599505722229 4 0 0 0 0
6267 8 4.961128017626313e-05 -0.008310682245434535 0.03597926789887726 4 0 0 0 0
6268 8 -0.0007096955984705747 -0.008541368535584643 0.0939651423567774 4 0 0 0 0
6269 8 1.607673384113529e-05 -0.008264656071082762 0.08615027799454628 4 0 0 0 0
6270 8 -0.0008194301079433811 -0.008737805566705763 0.03283247928576734 4 0 0 0 0
6271 8 0.0006313403145327427 -0.008999810612577597 0.01893919724674894 3.99999999587758 3.802215186478974e-08 -6.564777953632182e-09 -2.014574559198463e-07 2.051192016552972e-07
6272 8 -0.0006916551304348213 -0.009698437732959003 0.03056076123216491 4 0 0 0 0
6273 8 0.0002431586696698577 -0.008763438877075178 0.06828196212414317 4 0 0 0 0
6274 8 -0.0003300936193911154 -0.008985879577701656 0.008454630680416745 3.9181548235673 -1.460010656218147 -0.5203243896921866 -6.400449721247665 6.585447989392856
6275 8 -0.0007201041872097523 -0.008370812418671018 0.06149887527835222 4 0 0 0 0
6276 8 2.25785146408591e-05 -0.008915764632089578 0.04443837730760975 4 0 0 0 0
6277 8 0.0003501404806008687 -0.00932260088229734 0.09540650615500433 4 0 0 0 0
6278 8 0.0006499999999989098 -0.009000000000000043 0.08699999999999994 4 0 0 0 0
6279 8 0.0006570571848101581 -0.009000362473879319 0.01511358067967051 3.999999955867286 1.001236484887852e-06 7.287452532009634e-07 -3.061122826598731e-06 3.302123120396531e-06
6280 8 -0.0007811652361846224 -0.009583971322374535 0.09060524632277586 4 0 0 0 0
6281 8 -0.0008307101775827192 -0.008733212017715493 0.06706542434905272 4 0 0 0 0
6282 8 -6.545340760419474e-07 -0.008273668666338538 0.08787078605647544 4 0 0 0 0
6283 8 5.071392053553437e-05 -0.008275129961272826 0.01597730341879895 3.999999983060672 1.895120997922987e-07 8.142476608642769e-07 -1.122570795325489e-06 1.399671132698083e-06
6284 8 -0.0007755576608159478 -0.008622093453969682 0.06874523404040765 4 0 0 0 0
6285 8 0.0001110151667847602 -0.008176307735078709 0.04187281436061097 4 0 0 0 0
6286 8 0.0002249243506554537 -0.008704334897920777 0.08947800774313885 4 0 0 0 0
6287 8 0.0002630489298207518 -0.008109523921516912 0.03789908488664875 4 0 0 0 0
6288 8 -9.035467130627146e-08 -0.00824258593604809 0.06974523659173883 4 0 0 0 0
6289 8 0.0005780080301643792 -0.009548727264473186 0.09576666088736979 4 0 0 0 0
6290 8 0.0006467758965887406 -0.008997077941223262 0.08901702426221142 4 0 0 0 0
6291 8 -0.0008194440614228992 -0.008728451005650799 0.0225826112361333 3.999999999961014 -2.666982850335192e-09 8.455711284660778e-10 -3.885768952054578e-09 4.788213487933548e-09
6292 8 0.0006804354724262837 -0.008993487648398489 0.0430404443837982 4 0 0 0 0
6293 8 0.00011083617276299 -0.008211151184009577 0.04572645051440058 4 0 0 0 0
6294 8 0.0007464862179412561 -0.009019370651254518 0.05094755629075633 4 0 0 0 0
6295 8 -0.0006633570114482886 -0.009626331936635049 0.04862215595715799 4 0 0 0 0
6296 8 0.0007173013063697221 -0.008999832087202949 0.0528649650706688 4 0 0 0 0
6297 8 0.000599780414561798 -0.009002034679670453 0.02491422031384755 3.999999999998639 -1.079070386789228e-11 -1.462052047824758e-11 -5.207298772744385e-11 5.515247011586988e-11
6298 8 0.000295320969794528 -0.00817626798198174 0.05411670535509733 4 0 0 0 0
6299 8 0.0007822324166059478 -0.008943716982630275 0.07107733366958323 4 0 0 0 0
6300 8 -0.0005954542316984549 -0.0084405125427102 0.009780421187624247 3.990704769079961 -0.3678329472359627 0.1869449417905573 -0.8832192359397667 0.9748465043622995
6301 8 0.0006073746731502679 -0.009001205345744638 0.07291805320528727 4 0 0 0 0
6302 8 0.0006648883486362981 -0.00899362864673576 0.0229957717481909 3.999999999982268 5.952924542994985e-10 -1.579479930388846e-11 -1.344328350645605e-09 1.47032013390979e-09
6303 8 -0.0001847487228312225 -0.008148828355213538 0.004470385844795369 1.727750664926035 0.5102279639301341 0.1184578546223267 -34.44545551567738 34.44943788396274
6304 8 9.530695518395351e-06 -0.008282008819686529 0.07358561927731515 4 0 0 0 0
6305 8 -0.0008374258295858056 -0.008632602776311997 0.01344006848760755 3.999999909636964 4.989542240472986e-06 -1.614629924989807e-06 5.281838668914158e-06 7.443143239826415e-06
6306 8 -0.0008756055424390121 -0.008999999999999994 0.004176658051456217 1.376603436963793 -0.001356042846598989 0.0005297937333959444 -28.19642909892503 28.19642913651017
6307 8 0.0001245679412432695 -0.00883544760836461 0.07589822536323777 4 0 0 0 0
6308 8 0.0008253595770097657 -0.008921292196900991 0.06877769913694985 4 0 0 0 0
6309 8 0.0003597164692599878 -0.008141935846359255 0.005913656889658085 3.083971644371931 3.10029823084102 10.55374059964999 -36.34821755806439 37.97612683533218
6310 8 0.0008456389224928932 -0.008949588978817473 0.04084736042372285 4 0 0 0 0
6311 8 0.0006860238077504923 -0.00900030495557369 0.09098995003899366 4 0 0 0 0
6312 8 -0.0008325230935052601 -0.008650073927255544 0.0870235564030214 4 0 0 0 0
6313 8 -0.0006068869850005671 -0.008553666134546681 0.02707878241435745 3.999999999999939 2.258744840727782e-13 -4.603375431824681e-13 -2.568967324976511e-12 2.619641779521656e-12
6314 8 -0.0006745996535338651 -0.009700123058997246 0.01734365576685845 3.999999991507848 8.302124024491767e-08 3.784759086330436e-08 -1.055397805406428e-07 1.395120487360409e-07
6315 8 -1.197960914963913e-05 -0.008232669782566059 0.02180957372323917 3.999999999878697 1.181167975943885e-10 4.118911326685872e-09 -9.948965665205408e-09 1.076853285747001e-08
6316 8 -6.25749405109636e-05 -0.008326470689173559 0.02364575943872236 3.999999999991276 -1.680054902959347e-10 4.518471169667004e-11 -5.003256360992435e-10 5.297105295147541e-10
6317 8 -0.0008742685139679729 -0.00862024717482731 0.07267084310745925 4 0 0 0 0
6318 8 0.0001697972475907464 -0.009844317932443137 0.01200872344924772 3.999967236250821 0.002196732392620613 -0.005347763363150495 -0.006492408886842313 0.008693421613323055
6319 8 0.0001869986833797696 -0.009845715268803307 0.04396168264927591 4 0 0 0 0
6320 8 0.000180699956794344 -0.009845268265320872 0.02408333243484847 3.999999999995637 -8.022589116017575e-11 -1.00550180319864e-10 -2.427213232212773e-10 2.7470015129426e-10
6321 8 -2.11544339563414e-05 -0.008239858771730189 0.07184720462132678 4 0 0 0 0
6322 8 0.0001272534034424743 -0.008211200546559921 0.05822583747562385 4 0 0 0 0
6323 8 0.0001826799913885828 -0.00822068278751863 0.09204110917971925 4 0 0 0 0
6324 8 0.000632286666800272 -0.008998981276265052 0.02692044829019426 3.999999999999883 8.377164313505723e-12 -2.882080655135147e-12 -1.133619331091752e-11 1.438723564902824e-11
6325 8 -0.0005592002124001506 -0.008194767671514929 0.0929566547172698 4 0 0 0 0
6326 8 -9.916555617537303e-06 -0.008291798027702933 0.04402315510503841 4 0 0 0 0
6327 8 2.063570781803558e-05 -0.00821435452283102 0.01976148566191438 3.999999998157003 2.034363133805957e-08 5.117593335151882e-08 -1.2528728621413e-07 1.368566533907625e-07
6328 8 -0.0007749330152097825 -0.009721395082831387 0.01866653760033956 3.999999995218968 6.48890811829853e-09 -1.768610781939546e-10 -2.204880191669023e-07 2.205835528876824e-07
6329 8 0.0001669320382535633 -0.009855929482488717 0.01812682145835835 3.999999993181198 1.163053748921231e-08 -5.194562601637218e-11 -2.249928680760437e-07 2.252932817145688e-07
6330 8 0.0002310592758369886 -0.008193139574213243 0.05181356056198606 4 0 0 0 0
6331 8 0.0001815489536901816 -0.009847388441250002 0.06197010837600334 4 0 0 0 0
6332 8 0.0008042024577516948 -0.008930434390840384 0.02083622639448426 3.999999999460435 1.977687005019965e-08 -7.190550631848129e-10 -3.471317664256034e-08 3.995805628135548e-08
6333 8 -0.0008240402433859625 -0.008748726837183403 0.03492977867532013 4 0 0 0 0
6334 8 -0.0008711779471361277 -0.00880494830914046 0.02817130527251572 3.999999999999978 -7.747503258027271e-13 3.756034942820314e-13 -1.238537997730608e-12 1.508407247420552e-12
6335 8 -0.0008085428599332949 -0.00857876862094452 0.09138053191483973 4 0 0 0 0
6336 8 0.0001634982163803054 -0.009830366566222428 0.08999912461268353 4 0 0 0 0
6337 8 -3.808490294906596e-05 -0.008634665219327917 0.009621885146937098 3.990761542270009 -0.05676799071519514 0.08110705499742872 -1.270127417296711 1.273979833164171
6338 8 0.0006615108053786923 -0.008713530983538595 0.09490704679236749 4 0 0 0 0
6339 8 4.174344749116421e-05 -0.008217285359132621 0.06785916945540403 4 0 0 0 0
6340 8 0.0001581268698762178 -0.009849523107829165 0.05585822573125756 4 0 0 0 0
6341 8 -0.0008202627948677584 -0.0085200622700642 0.08522080291475684 4 0 0 0 0
6342 8 0.000158697026124158 -0.009849436664555804 0.07386075574351014 4 0 0 0 0
6343 8 0.0001881278494759978 -0.008201972140544102 0.04997894547619074 4 0 0 0 0
6344 8 0.0001582810534357613 -0.009849499837719742 0.05185894900776223 4 0 0 0 0
6345 8 0.0006626404806008687 -0.00932260088229734 0.09490650615500432 4 0 0 0 0
6346 8 -0.0006905303459690122 -0.009710355927864588 0.02747843151709289 3.999999999999964 -2.625523664177703e-12 -8.662963718477347e-13 -3.179534625415817e-12 4.213464649104317e-12
6347 8 -0.000912058315934381 -0.008706400287606835 0.03804473974212649 4 0 0 0 0
6348 8 -0.0006572703269773243 -0.009716818755689768 0.02328305315076055 3.99999999998665 -4.891971370269014e-10 -2.472382907871839e-10 -8.266021078222409e-10 9.918223913397281e-10
6349 8 0.0001806999567747183 -0.009845268265302437 0.03808333243485153 4 0 0 0 0
6350 8 0.0004027655484440859 -0.009867939710630328 0.03997692012180764 4 0 0 0 0
6351 8 -0.000194162675510238 -0.009847928520865641 0.004526925058309574 1.776946599237554 1.347128401428206 -0.30873683622982 -34.4409629834136 34.46868150348727
6352 8 0.0001224200034005114 -0.008212579027126198 0.07619114663704793 4 0 0 0 0
6353 8 -0.0001902049796814751 -0.008142721843147762 0.09552420182498278 4 0 0 0 0
6354 8 -0.0007780581398194997 -0.009707927100708749 0.05529043238431192 4 0 0 0 0
6355 8 0.0001726356095481952 -0.009848248583747285 0.04799594580970905 4 0 0 0 0
6356 8 -0.0001578204146535269 -0.009566427231214657 0.09517136246046555 4 0 0 0 0
6357 8 -0.0006677150531710456 -0.009712039666540368 0.03734937964409619 4 0 0 0 0
6358 8 0.0004154563117442113 -0.009846680944287116 0.06606069407329335 4 0 0 0 0
6359 8 -8.535856813509965e-06 -0.008184180815205664 0.02551698315295597 3.999999999999472 3.229275503960479e-11 2.953934026621582e-11 -5.621144591315173e-11 7.123988561935219e-11
6360 8 -0.0001084174655521848 -0.01001078899776216 0.08506412124817886 4 0 0 0 0
6361 8 -0.0001943312200322196 -0.009852896247676065 0.09553151719283101 4 0 0 0 0
6362 8 0.0006642872119305835 -0.008996604386543448 0.03105806308002863 4 1.071409028745376e-14 8.435468137516341e-15 -1.413490437770296e-14 1.964037614592884e-14
6363 8 3.72992997264445e-05 -0.00924413667657675 0.03011351065759908 4 1.479311601161267e-14 -2.237949334337518e-15 -3.355720082540572e-14 3.674139934450923e-14
6364 8 0.0007794011101633207 -0.009033825179512255 0.05496079788015203 4 0 0 0 0
6365 8 -0.0001536941743027853 -0.008465582771799996 0.09516404709261732 4 0 0 0 0
6366 8 -0.0009343997387597198 -0.008811735976787374 0.02995230755039095 3.999999999999998 -3.442781719836823e-13 7.678385914356863e-14 -3.30549526644235e-13 4.834110159006858e-13
6367 8 -0.0007704723622669978 -0.009688766280259902 0.06127898702691437 4 0 0 0 0
6368 8 0.0004590663145379673 -0.009860719597512869 0.01998981659771352 3.999999998311158 1.039347690734603e-08 -4.91617672818799e-08 -1.150994234296855e-07 1.255897328540326e-07
6369 8 0.0008296645111881707 -0.008928809270791784 0.06690352643441122 4 0 0 0 0
6370 8 -0.0007841726628818332 -0.009592936551990386 0.08801899075044069 4 0 0 0 0
6371 8 0.0002049324033304848 -0.008148828355213539 0.004237587369528321 1.428974249545932 -0.0001672713587231123 0.001528810341744592 -26.71562591338636 26.71562595765335
6372 8 0.0003343342129043545 -0.008184440604438585 0.009318328512304977 3.971418351703947 1.087469524101407 0.9742163569601316 -2.94361533798832 3.285811731377516
6373 8 0.0002765296324819361 -0.008689489630203349 0.02737467521633796 3.999999999999967 1.568809307946038e-13 8.966460933717677e-13 -2.567988436652273e-12 2.724545917026471e-12
6374 8 0.0001948405630808571 -0.008146347716615102 0.09576720152473298 4 0 0 0 0
6375 8 -0.0007176193704495873 -0.009683244111381033 0.0358183548202766 4 0 0 0 0
6376 8 0.0002620447678389633 -0.008413375759838193 0.09434435909252641 4 0 0 0 0
6377 8 -0.0006933530604268711 -0.009758610631409531 0.07457980574059889 4 0 0 0 0
6378 8 0.0001584772061075439 -0.009849470119690012 0.02814017019099063 3.999999999999991 -6.360212025190312e-13 5.706829570613379e-13 1.191761944299232e-13 8.62789066257116e-13
6379 8 0.0002282361563642209 -0.009634851206463981 0.0939224925974395 4 0 0 0 0
6380 8 -0.00102928564200175 -0.009106569201036103 0.08395060666262691 4 0 0 0 0
6381 8 0.0001580673425627406 -0.009849532070920385 0.02985793996193533 3.999999999999998 1.088858232730942e-13 -2.099765376181523e-13 -3.772589340967261e-13 4.452758383471584e-13
6382 8 0.0002007953954022006 -0.009852231624367528 0.004251805066994186 1.431952206351286 0.0002991012508683462 -0.00102634228176516 -25.52730066085283 25.5273006832375
6383 8 -0.0008295508499703782 -0.009383586658682334 0.09467357898042812 4 0 0 0 0
6384 8 -0.0008150822299643229 -0.008631811856091 0.09471228963598775 4 0 0 0 0
6385 8 -0.0009134444484544758 -0.008999698477604678 0.09446372196398213 4 0 0 0 0
6386 8 -0.001005362019988179 -0.009276098433966507 0.06525513263182078 4 0 0 0 0
6387 8 0.00045778475288601 -0.009864479870205015 0.08604040230906834 4 0 0 0 0
6388 8 0.0008386858458435436 -0.009559852450408964 0.0451764394241994 4 0 0 0 0
6389 8 -0.0005895524974423568 -0.008330030688496078 0.09438915715705851 4 0 0 0 0
6390 8 0.0002806955604850517 -0.009627287037332496 0.09442955624461445 4 0 0 0 0
6391 8 0.0008272493941408996 -0.009560546934583589 0.01476753322614703 3.999999943129749 9.095377375627023e-07 8.168465557400788e-07 -3.061122819078224e-06 3.296205410036899e-06
6392 8 -0.0006305934235478873 -0.008175263278430055 0.05723345409833248 4 0 0 0 0
6393 8 -0.0005024875759213432 -0.008206845506748814 0.0751851750891275 4 0 0 0 0
6394 8 0.0001959702383030296 -0.009853392237030006 0.09576666088736979 4 0 0 0 0
6395 8 8.510942322640428e-05 -0.0100756930187728 0.06848285653692754 4 0 0 0 0
6396 8 -0.0002406602118425141 -0.008165427548099595 0.09460135939277624 4 0 0 0 0
6397 8 -0.0005865000000244999 -0.009686646869822971 0.09443618429095009 4 0 0 0 0
6398 8 0.0007432477117977445 -0.009786487652653952 0.06771826435843045 4 0 0 0 0
6399 8 -0.000227265334769344 -0.009871113386249816 0.09469441255007567 4 0 0 0 0
6400 8 -0.0007074580709124376 -0.008995696896498111 0.004684576518038652 2.020381498259503 4.325341419617475 -0.2538490031541314 -38.07093083656385 38.3166907818915
6401 8 -0.001019821618052588 -0.008986463023095101 0.005078131877883847 2.45551880948386 -2.742112472382269 0.8255763986885384 -35.26402586362051 35.38011132417989
6402 8 -3.971830678717889e-05 -0.008756737641309806 0.004722190911789556 2.030168110040995 0.798592607112126 -0.799764052790695 -40.68637388673989 40.7020686543554
6403 8 -0.000319465446729741 -0.00929894121003756 0.004759723533576622 2.075720662883981 1.603796989978164 -0.4249128273886635 -41.50320912630614 41.53635857267514
6404 8 -0.0003520818539273296 -0.008747503767906796 0.005115746271634749 2.465305421265352 0.6448888239315538 -0.6277303322085755 -35.05890399398205 35.07045303705753
6405 8 -0.0006318289938698916 -0.009289707336634551 0.005153278893421816 2.510857974108338 4.145870883465714 1.267613318745272 -30.40235597404442 30.70990618156857
6406 8 -0.0004052771424322363 -0.008927519412746894 0.06071074213808931 4 0 0 0 0
6407 8 -0.0002006469345926517 -0.009464917913806537 0.0605419404883548 4 0 0 0 0
6408 8 -0.0002606995951366371 -0.008404307559390938 0.02023618313599426 3.99999999909117 -2.786839072108538e-09 -7.315233632030019e-10 -7.689911988065083e-08 7.695307815067212e-08
6409 8 -0.0008848428739011551 -0.009185530478118202 0.02021709039518044 3.999999998926238 3.245917417633998e-08 1.277785747599856e-09 -7.400830079219324e-08 8.082363089328823e-08
6410 8 -0.0003058357383530963 -0.009022342866143614 0.02013977333922352 3.999999998858733 -7.165095306382573e-09 -1.834327971942278e-08 -7.976519018461959e-08 8.216020975388917e-08
6411 8 -0.0004303776285443175 -0.008954883929667888 0.0414583044061344 4 0 0 0 0
6412 8 0.0001531851481007302 -0.008799380807135004 0.0415787286473723 4 0 0 0 0
6413 8 -5.683454189689538e-05 -0.00888351113691432 0.08584535011760694 4 0 0 0 0
6414 8 0.0002042074693270332 -0.008807948140058088 0.02050012111531307 3.999999999360907 9.488145485326277e-10 -7.29831343767998e-09 -5.831575776381951e-08 5.877833981706699e-08
6415 8 0.0001590713261105738 -0.009425983446810764 0.02040371131854233 3.99999999912847 -7.512323075680979e-09 -1.82657111416367e-08 -8.109431173999512e-08 8.346471468882303e-08
6416 8 -5.840749925702874e-06 -0.009457079016845719 0.01972587861839471 3.999999998041421 -4.055379146037318e-09 -3.237820786161599e-08 -1.187234551543519e-07 1.231261680071931e-07
6417 8 -0.0005875527100729704 -0.009615764777119496 0.01954048803876425 3.999999997650161 2.054277112532829e-08 -1.947930682988105e-08 -1.133317450018705e-07 1.168140970313484e-07
6418 8 -0.0003909103028457193 -0.008967859388066671 0.07140078413210196 4 0 0 0 0
6419 8 0.000189076209390005 -0.008806282113142355 0.07158070185747711 4 0 0 0 0
6420 8 9.666858875567337e-05 -0.008879836135592633 0.05350815227668935 4 0 0 0 0
6421 8 -0.0006845963721998556 -0.008966309254635353 0.05895150648723497 4 0 0 0 0
6422 8 -0.0003960003825353685 -0.00942493966723181 0.0589023716116783 4 0 0 0 0
6423 8 0.0001019833646284997 -0.008820122187433763 0.06525359981620162 4 0 0 0 0
6424 8 -0.0001148569526662559 -0.00938267894131266 0.0653934455571336 4 0 0 0 0
6425 8 0.0001040310170045095 -0.009166145145662266 0.02904621621173072 3.999999999999995 -1.254412454512347e-13 9.816983087889903e-15 -1.696188525324357e-13 2.111928842355371e-13
6426 8 0.0004229976450510348 -0.009539505240275491 0.02900159062642082 3.999999999999994 -6.973982080245034e-15 -2.649071518146405e-13 -1.696188525324356e-13 3.146346939595517e-13
6427 8 -0.0004219008422993113 -0.009394406161681459 0.02954020014882284 3.999999999999996 -1.937356071333163e-14 8.788394417030303e-14 -4.66061182350532e-13 4.746703573972341e-13
6428 8 -0.000102934214252786 -0.009767766256294684 0.02949557456351294 3.999999999999996 5.708437745792878e-14 -8.825317477511867e-14 -4.671296305816534e-13 4.78808250529373e-13
6429 8 -0.000746104277135325 -0.009028992083792192 0.03324768723841141 4 0 0 0 0
6430 8 -0.0004327042950995479 -0.00942559511532259 0.03306319024541682 4 0 0 0 0
6431 8 -0.0003018275313286294 -0.009574961752743721 0.06749416133815531 4 0 0 0 0
6432 8 0.0002660978770699361 -0.009394922560498183 0.0676304501255397 4 0 0 0 0
6433 8 -0.0003204618045503029 -0.008950995143211508 0.06727150063422016 4 0 0 0 0
6434 8 0.0002474636038482626 -0.00877095595096597 0.06740778942160455 4 0 0 0 0
6435 8 0.0003133274558242415 -0.008771660443166424 0.04605838772231321 4 0 0 0 0
6436 8 -0.0004421586278067778 -0.009533722711750823 0.04576845128842588 4 0 0 0 0
6437 8 -2.45992039875419e-05 -0.0092394120468629 0.04577237234933215 4 0 0 0 0
6438 8 0.0001473431866869642 -0.009072970831391938 0.08003342865545443 4 0 0 0 0
6439 8 0.0001048062285435164 -0.008806295731685607 0.04973815771040732 4 0 0 0 0
6440 8 -0.0004262048032987123 -0.009029699355119169 0.0495713728552833 4 0 0 0 0
6441 8 0.0002391918663487429 -0.009731781929678709 0.07233381158945879 4 0 0 0 0
6442 8 -0.0001561562431646225 -0.01003309976975802 0.07230880095782682 4 0 0 0 0
6443 8 -5.396434086992857e-05 -0.00928209716027098 0.07208717977735268 4 0 0 0 0
6444 8 -0.0004493124503832939 -0.009583415000350291 0.07206216914572072 4 0 0 0 0
6445 8 -0.0005743025863481732 -0.009221026944575141 0.01169188811816974 3.999959189835216 0.001666341867615918 -0.001472288934452921 -0.009390762043367612 0.009650427020678209
6446 8 5.037292431543487e-05 -0.009235264238626879 0.01179511277512307 3.999967236250821 0.0004851344451652274 -0.001426774058759679 -0.01138173175158583 0.01148106516442148
6447 8 -0.000444322573330472 -0.008807651439338343 0.05410752208685757 4 0 0 0 0
6448 8 -0.000213548387744376 -0.009355209585248591 0.05390849438078449 4 0 0 0 0
6449 8 0.0003427922122217392 -0.009311290194831533 0.09146302880600343 4 0 0 0 0
6450 8 -0.0002476650763224778 -0.009454104745018644 0.09130602622314368 4 0 0 0 0
6451 8 -0.0003955132086319282 -0.009380693756668166 0.08419745695141331 4 0 0 0 0
6452 8 -0.0006656505189015442 -0.00886529102825258 0.08424426293251337 4 0 0 0 0
6453 8 -0.000422725170350723 -0.009201241364282367 0.0550072463273704 4 0 0 0 0
6454 8 -0.000639893704349126 -0.008652841001329825 0.0549131538023157 4 0 0 0 0
6455 8 -0.0001535067322962077 -0.009531471107820608 0.03130953313421676 4 0 0 0 0
6456 8 0.0003774825321200812 -0.009308046195747604 0.03151483919631237 4 0 0 0 0
6457 8 -0.0001818778969931918 -0.00927731740615223 0.03928940857540085 4 0 0 0 0
6458 8 0.0001534884591056424 -0.008808532643563389 0.0391677032955083 4 0 0 0 0
6459 8 -0.0004810550335905418 -0.008840679125136103 0.03962717335301708 4 0 0 0 0
6460 8 0.0004356468800805075 -0.009311665375033565 0.07550284008325901 4 0 0 0 0
6461 8 -9.145586599411179e-05 -0.009538825916011158 0.07532826713403917 4 0 0 0 0
6462 8 -0.0002123013060735944 -0.009235148438826656 0.01687208240714577 3.999999991153756 -6.151119224414681e-09 2.881066160548444e-10 2.527542408609021e-08 2.601473305392326e-08
6463 8 -0.0004393326014166824 -0.009776365414329677 0.01689025310353135 3.999999991134576 -3.476161094881486e-09 2.697713089026236e-09 2.51025477225131e-08 2.548527523942637e-08
6464 8 -0.0001472415516967681 -0.009469350568015077 0.01556652277024737 3.999999984074831 1.15347906204773e-07 1.869592232341472e-07 -1.321366002800002e-06 1.339502521077805e-06
6465 8 4.876632946636417e-05 -0.0088995457099212 0.01552239241693118 3.999999978824117 2.634355780408592e-07 5.310300584545024e-07 -1.928815543494147e-06 2.017850496836804e-06
6466 8 -0.0001822358847236837 -0.009536205406064893 0.02663529886493217 3.999999999999918 -1.454840766114076e-13 -1.313503178329883e-12 -6.425228401958245e-12 6.559726841367794e-12
6467 8 0.0003462492418800089 -0.009310358831846936 0.02646347423698417 3.999999999999849 1.125354171414832e-11 -1.086414503319499e-13 -7.117003116265159e-12 1.331562005442235e-11
6468 8 -0.00053212311796601 -0.009031830063267229 0.01476440366222393 3.99999994061063 7.65108885215992e-08 9.640943171718459e-07 -4.296933148945372e-06 4.404425757686353e-06
6469 8 0.0005470108469626775 -0.008626532647168355 0.08525876990087375 4 0 0 0 0
6470 8 0.0008763299873870937 -0.008938579705342894 0.08490330880591773 4 0 0 0 0
6471 8 0.0005077903257773907 -0.008520611872208867 0.01068437918835333 3.999882841678223 -0.00776642505894403 -0.002027241857485684 -0.002025971243879108 0.008278383128725128
6472 8 0.0004312870913547843 -0.009114131722407154 0.01100279572297411 3.999878636446437 -0.006994783996696132 0.0001879522692586599 -0.00202596960053828 0.007284701918284717
6473 8 9.946761069316498e-05 -0.008223165646356383 0.01112968804061421 3.999898754985391 -0.007507731021837272 -0.01177564157903332 -0.007991110952746723 0.01609004704633348
6474 8 2.296437627055872e-05 -0.00881668549655467 0.01144810457523499 3.999894549753605 0.002339691990993637 2.02460289128439e-05 -0.01735796962724237 0.01751495584050028
6475 8 0.0007382285921720033 -0.00901642900694747 0.008771473941661431 3.945863716881487 0.5831349691188019 0.4623609572822726 -3.021490953249898 3.111789136107898
6476 8 0.0002191745583774531 -0.008781925955531927 0.009042485364638787 3.964508141698697 0.9406990047729201 0.3198807804783722 -3.279024765233753 3.426257687669811
6477 8 -0.0005834707933862651 -0.009154942591631269 0.02597146619137817 3.999999999999811 -3.346198654556846e-12 -1.719788767768951e-12 -1.250513766495123e-11 1.305883558595039e-11
6478 8 4.07585683820586e-05 -0.009176875557949431 0.02591995439060754 3.999999999999763 8.587333321058075e-12 -6.247046512677568e-13 -2.857674892039584e-11 2.984565509965588e-11
6479 8 -0.0008874347675823624 -0.009516665245406942 0.0862273582780477 4 0 0 0 0
6480 8 -0.0005979273604114241 -0.009684266791130141 0.08650512961921542 4 0 0 0 0
6481 8 0.0007025492634709313 -0.008998052649852555 0.0570640233574192 4 0 0 0 0
6482 8 0.0003005895921881667 -0.008698631178989192 0.05666331490134727 4 0 0 0 0
6483 8 -0.0003097197982468448 -0.008630518127721459 0.01803224330785838 3.999999993426599 2.160658702993745e-08 -4.828990532204481e-08 -1.60201092568864e-07 1.687102534505595e-07
6484 8 1.683991808840227e-05 -0.008302787213583103 0.01763786085886347 3.999999992641067 1.668484796815208e-08 -5.869420242755459e-08 -1.513090426665623e-07 1.631496856969044e-07
6485 8 0.0001023895995615033 -0.009212100511637594 0.03202641357618495 4 0 0 0 0
6486 8 -0.0005125467956521439 -0.009133433639002573 0.0320488654642419 4 0 0 0 0
6487 8 8.919427937006442e-05 -0.00858840880251344 0.03231963745990121 4 0 0 0 0
6488 8 -0.0005257421158435828 -0.008509741929878419 0.03234208934795817 4 0 0 0 0
6489 8 -0.000141429428205064 -0.009367658229334417 0.05774998834268752 4 0 0 0 0
6490 8 -0.0001362506395683662 -0.008745266505615797 0.05774296482131318 4 0 0 0 0
6491 8 5.509408222310015e-05 -0.008515490379915332 0.00741340623874603 3.749105092064535 0.6147292181456683 0.9905172529649848 -15.57066695343642 15.61424624549326
6492 8 0.0005999928224611239 -0.008724409205146041 0.007497787436702254 3.770731563790295 0.1000065892907684 1.041588518717894 -15.68018386787732 15.71505883191872
6493 8 -0.0003071529006699019 -0.009005645538531922 0.007665047580779357 3.818952864569518 -0.09468857001453895 -0.002390986552063199 -12.71540042460211 12.71575320616437
6494 8 0.00078293666097344 -0.008981371309260024 0.08089424770884765 4 0 0 0 0
6495 8 0.0004944612113721247 -0.009292946454254198 0.08127529628863367 4 0 0 0 0
6496 8 -0.0007704700657252373 -0.008646580954170991 0.08348687626779468 4 0 0 0 0
6497 8 -0.0004068349426250316 -0.008405302781387467 0.08378053253768111 4 0 0 0 0
6498 8 0.0005964416805181066 -0.009255783964583228 0.04696553149960252 4 0 0 0 0
6499 8 0.0008864473089126299 -0.008944094610825236 0.04662191202416051 4 0 0 0 0
6500 8 0.0002435191690970192 -0.008703458892119622 0.03056363377569237 4 1.966374496750808e-14 4.205062765458449e-15 -4.716090977519755e-15 2.06539810476549e-14
6501 8 -0.0003752140394815221 -0.008641189542005046 0.03072176110801756 4 0 0 0 0
6502 8 -0.0001696657317669239 -0.008367408355130564 0.04000418166984405 4 0 0 0 0
6503 8 0.000186426381276947 -0.008187103757894311 0.03961250674382078 4 0 0 0 0
6504 8 -0.0009271151184323711 -0.009563234466305618 0.09355185583128232 4 0 0 0 0
6505 8 -0.0006203398572980458 -0.009755265151863946 0.09330302044323296 4 0 0 0 0
6506 8 -0.0007013871854797999 -0.009406210156255619 0.09400431348545757 4 0 0 0 0
6507 8 -0.0003946119243454746 -0.009598240841813949 0.09375547809740822 4 0 0 0 0
6508 8 0.0002752763376378706 -0.008629398159244883 0.02874885251145359 3.99999999999999 -2.331462722938616e-14 1.044226525250654e-12 -1.696188525324355e-13 1.058169723160855e-12
6509 8 -0.0001454917051956937 -0.008336252664821056 0.02925442320711733 3.999999999999991 8.328035786574006e-14 1.100385367682761e-13 -7.688519582375286e-13 7.811385480604779e-13
6510 8 -0.0005178022536836554 -0.009175017707584929 0.02776083381528858 3.999999999999978 -9.924651465907932e-13 5.060430766947681e-13 -5.99511104706839e-13 1.265100876347418e-12
6511 8 0.0001027201717864763 -0.0092277285737085 0.02784439711713432 3.999999999999986 -5.876938796819593e-13 4.639174189939797e-13 2.931219419758075e-13 8.040671245171871e-13
6512 8 0.0007213091512670215 -0.00900031992972862 0.07504576135706917 4 0 0 0 0
6513 8 0.0004335387033895759 -0.008688799947621825 0.07464616686284015 4 0 0 0 0
6514 8 -0.0006446077824582259 -0.00903143305223069 0.08556129946076679 4 0 0 0 0
6515 8 -0.0009047960492058345 -0.009488128464601992 0.08567806702464309 4 0 0 0 0
6516 8 -0.0001691184985042149 -0.009188825057373553 0.05312311734735824 4 0 0 0 0
6517 8 -0.0004318791685566041 -0.009722687148573057 0.05320365843154828 4 0 0 0 0
6518 8 -0.0002402928471367275 -0.008570732529438206 0.01455883912648998 3.999999916226595 5.562766070123354e-07 1.044092692429868e-06 -4.766341925584034e-06 4.910966153973648e-06
6519 8 0.0003617342318999838 -0.008688334912511298 0.01454427304515229 3.999999917950674 -7.560639682960773e-07 1.057617567766174e-06 -4.759121943359286e-06 4.933500716080531e-06
6520 8 -7.010063780598611e-05 -0.009130916990142478 0.01421279167296649 3.999999903489059 4.711650289888565e-07 1.898106110398903e-06 -3.097909337782685e-06 3.663583703970318e-06
6521 8 0.0005319264412307252 -0.00924851937321557 0.01419822559162881 3.999999905213138 -5.175712809640048e-07 1.457984186631476e-06 -3.972872959163374e-06 4.26348653908954e-06
6522 8 -0.000350924168906043 -0.008978850524626374 0.01378542917657855 3.999999888667106 7.930885516123878e-07 2.337587645321528e-06 -9.019704932718293e-07 2.628089842640755e-06
6523 8 -0.0004590878384928655 -0.009589839094366037 0.01384059901715041 3.999999908447298 -2.555593952783191e-07 9.790129750534817e-07 9.484976565778054e-07 1.386875918880877e-06
6524 8 -3.779548167824579e-05 -0.009408060375663239 0.01342978262162639 3.99999991714411 -1.20382278275747e-06 2.458437721414685e-06 3.846104731491806e-06 4.720765502327373e-06
6525 8 -0.0002690624116887308 -0.008929190470189308 0.04623468669159014 4 0 0 0 0
6526 8 -0.0004457811943863627 -0.009527674089636206 0.04612648593826018 4 0 0 0 0
6527 8 -0.0004216699204274115 -0.008894484765049131 0.08008975238308991 4 0 0 0 0
6528 8 -0.000388882375922026 -0.008965672478601265 0.08037514806621561 4 0 0 0 0
6529 8 -7.640019790390487e-05 -0.008675015594125741 0.01000940976464689 3.996044819254505 -0.2098778654797119 -0.07693339590196609 -0.6208768266663148 0.6598905210067514
6530 8 -0.0001499675271809086 -0.009690357244551695 0.01003635375021414 3.995170778395149 -0.2387621181288816 0.01335868613524026 -0.6038822096014701 0.6495071413170173
6531 8 -0.0004213604572035677 -0.009184832204716727 0.01015179863603345 3.995713056321713 -0.2096177760111505 -0.0719881522873559 -0.6260201234411537 0.6640957017199296
6532 8 -0.0001782643073928086 -0.009741905559882141 0.01426796151353835 3.999999923269251 1.516755997106427e-07 1.47670465473527e-06 -3.457440897633385e-06 3.76265327734198e-06
6533 8 -0.0006426669252742494 -0.009642678497679517 0.01438668518860704 3.999999927997129 -5.266067679057229e-08 1.374153952391968e-06 -3.382543304165524e-06 3.651393081593589e-06
6534 8 -6.225416043199991e-05 -0.009526814263682555 0.007999428778735581 3.857640956071556 0.8080886304594692 -1.594605183906174 -8.328886163035431 8.51857485991767
6535 8 0.0004870140173365686 -0.009322860641512828 0.008087283462957624 3.880009799211199 -2.41587654213514 -1.268223417284886 -8.725340592723843 9.142013922655284
6536 8 0.0008319264412318095 -0.008936269473295606 0.01344822559162881 3.999999911651204 -1.293480668162997e-06 2.362626770459522e-06 3.406072711371422e-06 4.34239896952738e-06
6537 8 0.0005430280494228954 -0.009247876941259382 0.01310714511801433 3.999999938404129 -7.65941344916425e-07 2.559103054131456e-06 3.625460088474375e-06 4.503291622650919e-06
6538 8 -0.0007053444422484204 -0.009371731526928455 0.08028090684435438 4 0 0 0 0
6539 8 -0.0005632342981261662 -0.00984102373498533 0.08027316554000888 4 0 0 0 0
6540 9 -0.0004575250442297251 0.008693462676706426 0.03772336651879354 4 0 0 0 0
6541 9 -0.0005177475392772688 0.008211181233282844 0.03754573623012104 4 0 0 0 0
6542 9 -0.0004282301874373651 0.008449835406385104 0.0952098292807822 4 0 0 0 0
6543 9 3.910505226797619e-05 0.007947666040112995 0.03694725659179621 4 0 0 0 0
6544 9 -0.0002878071468208511 0.008508170694569703 0.0382404404735896 4 0 0 0 0
6545 9 -0.0007787954734623106 0.00880046315944282 0.03802163908966724 4 0 0 0 0
6546 9 -4.582499389708237e-05 0.008325072074510616 0.02567804479061431 3.999999999999806 3.304613682793586e-12 -4.382412009967823e-12 -1.910656645542005e-11 1.987930804462266e-11
6547 9 -0.0004446272090937723 0.009541288716583914 0.09519644891737197 4 0 0 0 0
6548 9 -0.0002922125959757062 0.009388833791938863 0.00605398894726513 3.20134990892754 0.1833701264073737 -1.595465593085477 -31.86767883863734 31.90811949370429
6549 9 -0.0001690217119549242 0.009684517364513076 0.006580316459402135 3.465503788989673 1.040505849566751 0.2685128838075245 -22.66010182934906 22.68556736139129
6550 9 0.0004116542837271754 0.009210717452976717 0.02530642606983502 3.999999999999697 -2.452678741392187e-12 -2.208249093411733e-12 -1.468264421712891e-11 1.504898794849075e-11
6551 9 -0.0001652098314246217 0.008999899538209843 0.09521410665700725 4 0 0 0 0
6552 9 -0.0006889779233892591 0.009490695402867181 0.03860819761573712 4 0 0 0 0
6553 9 -0.0005192256336987565 0.008885701199887255 0.03163792992178285 4 0 0 0 0
6554 9 -0.0007212907386123711 0.00841678281987578 0.03150560865431405 4 0 0 0 0
6555 9 -7.906614221190404e-05 0.008876880166366631 0.02540858706269083 3.99999999999973 5.587043376407598e-12 -1.019810050476789e-12 -2.866716293020127e-11 2.922432713845811e-11
6556 9 -0.0003510929802987285 0.008359205114156741 0.01497797979769625 3.999999979854334 1.448104720215057e-07 1.816291949808538e-06 -9.626693121358952e-07 2.060732569809724e-06
6557 9 -0.0003843272579779026 0.008219542576470926 0.06452298027221695 4 0 0 0 0
6558 9 -0.0007014948638421168 0.008842765881128013 0.09420105267202605 4 0 0 0 0
6559 9 -0.0006643536220739484 0.008860257602242128 0.01468453364558085 3.999999946107242 -1.046718657155277e-06 2.351580147252084e-06 -4.913776619649934e-06 5.547138884506625e-06
6560 9 0.0007880564579459664 0.008716085032942866 0.02527065273103719 3.999999999999694 -4.906808866187195e-12 -1.286877906663148e-12 -1.278690814938267e-11 1.37563748137618e-11
6561 9 -0.000473912944268395 0.008140692501358453 0.09471515606273403 4 0 0 0 0
6562 9 -0.0004513719906874475 0.008452511110959373 0.01450399350600249 3.999999956123476 3.806888857419994e-07 3.937653569326746e-06 -2.064657232079684e-06 4.462381555373553e-06
6563 9 -0.0008254396361321638 0.008292701749303273 0.09444100774305184 4 0 0 0 0
6564 9 -0.0007819154883920416 0.008286933987856749 0.0538094411032785 4 0 0 0 0
6565 9 -0.000774605539081257 0.008748587724243091 0.02344569301875762 3.999999999995687 -4.919402155589157e-11 -5.706290842255769e-11 -3.40573436693182e-10 3.488072434102933e-10
6566 9 -0.0003888229617786628 0.009279865839827742 0.0247031688935076 3.999999999999244 -7.872955045138084e-12 -1.758079123008476e-12 -8.191597722430102e-11 8.231222016175804e-11
6567 9 -0.0001487839133948645 0.008827546028878515 0.01511187207104281 3.999999937586667 4.438228441872919e-06 5.789473959698149e-06 8.354695790885773e-07 7.342607837128109e-06
6568 9 -0.0005647388886229639 0.008835601078091768 0.06496643237710983 4 0 0 0 0
6569 9 -0.0008791421983979638 0.009284143544970194 0.03183116934301697 4 0 0 0 0
6570 9 -0.0006102334504152427 0.008337234174737085 0.06235311652954578 4 0 0 0 0
6571 9 -0.0004870452241032559 0.0091063958523871 0.02395115505566132 3.999999999998096 -4.17569181184512e-11 -2.98050931856654e-11 -1.501378363046374e-10 1.586611284492687e-10
6572 9 4.069145635049901e-05 0.008485628305717282 0.06127360702399297 4 0 0 0 0
6573 9 -0.0008390179685098544 0.008318181716019238 0.03784400880099474 4 0 0 0 0
6574 9 -0.0002152494168682368 0.009127095208817175 0.03845607310651546 4 0 0 0 0
6575 9 0.0003026168063783322 0.009415572794047904 0.00651980111518736 3.44382357771708 -0.2830405493325043 1.525289812762281 -22.7179685531183 22.77087429472033
6576 9 -0.0002875491991739158 0.008541061717248936 0.05395726448175084 4 0 0 0 0
6577 9 -0.0005332466415844418 0.008329294131055928 0.01539819570321572 3.99999998154616 -3.711663213376648e-07 1.50105053157741e-06 6.229959899348832e-07 1.667045632224596e-06
6578 9 0.0006072585007916726 0.008727812737040734 0.02456185202439856 3.999999999999372 -2.257915821803494e-11 -1.842233583824375e-12 -3.487342340749549e-11 4.158566905282251e-11
6579 9 8.583146863903437e-05 0.00901272881376076 0.02445334651654434 3.999999999999166 -1.889388598280685e-11 -4.832082537895608e-12 -2.948827944376582e-11 3.535373493335552e-11
6580 9 -0.0003875237946108851 0.0087796870222724 0.05912826750081367 4 0 0 0 0
6581 9 0.0001794259223575503 0.009119889221473691 0.005993473603050354 3.179669697654948 -3.104356310832095 1.311294409453086 -33.10699584131623 33.27806627149175
6582 9 -0.0006827246347999856 0.009271433693062221 0.02851514476894008 4 -3.002625933812245e-14 6.960090345413724e-14 -1.517851883002974e-13 1.696602646432837e-13
6583 9 -9.384359377978695e-05 0.00855026461567319 0.0652366053962489 4 0 0 0 0
6584 9 -0.0003695182924018336 0.008599334867914778 0.02418280172822867 3.999999999998508 -4.24145101240798e-11 -2.56952132381162e-11 -1.562347354399734e-10 1.63916220095561e-10
6585 9 -0.0008795433877177422 0.008946028553217657 0.02480532988636341 3.999999999999278 -1.20985697024829e-11 -3.716327139619843e-12 -7.4822104474e-11 7.588500375023172e-11
6586 9 -0.0003309375746805779 0.008797635045777701 0.01553208797656228 3.999999939278493 3.84072079567717e-06 5.463010654954116e-06 3.10022945789641e-06 7.362543333529383e-06
6587 9 0.000175791364015412 0.008212106492950271 0.06403814446581335 4 0 0 0 0
6588 9 -0.0006254118800188898 0.008250830575440496 0.05307777443059875 4 0 0 0 0
6589 9 -0.0004703713457317383 0.008852213642762972 0.05879676939233891 4 0 0 0 0
6590 9 -0.0001475269401870508 0.008748960391531901 0.06470390125823275 4 0 0 0 0
6591 9 -0.0005141650009551191 0.009845953689140735 0.09471941799485412 4 0 0 0 0
6592 9 -0.0004720428612711228 0.008317735946822004 0.06576113048940513 4 0 0 0 0
6593 9 -0.0005301304766094727 0.008275201587389208 0.05650764362160159 4 0 0 0 0
6594 9 -0.0001818600865361112 0.00856575347343343 0.06975278032248435 4 0 0 0 0
6595 9 -0.0005541507352434763 0.008780235705762428 0.07040925636576706 4 0 0 0 0
6596 9 -0.0004951000480837071 0.008885977626358607 0.04873759671222179 4 0 0 0 0
6597 9 -0.0005231256238653252 0.008293411170206846 0.06313093759620955 4 0 0 0 0
6598 9 -0.0003212907590809423 0.008169322313232133 0.02282943411315418 3.999999999991386 4.395125207031109e-10 4.031157945884415e-10 -4.489076399151623e-10 7.464527238048462e-10
6599 9 -0.0005266051558257995 0.008934780101944109 0.06922329293451304 4 0 0 0 0
6600 9 -6.218249143725638e-05 0.008531893706576735 0.06431306500795805 4 0 0 0 0
6601 9 -0.0001436342407103516 0.007948526363009644 0.03087658726566044 4 0 0 0 0
6602 9 -0.0009209765323077915 0.009182646668754417 0.07013574816020128 4 0 0 0 0
6603 9 -0.0002847448132262048 0.008572029958439347 0.06377168576523218 4 0 0 0 0
6604 9 -0.0006101284155662637 0.009111048730084823 0.02608301611767959 3.999999999999896 -4.74910750444294e-13 1.1488265864988e-12 -1.01830057902295e-11 1.025860369010235e-11
6605 9 -0.0005105820253746154 0.008899871988133249 0.05675746472649365 4 0 0 0 0
6606 9 -0.0008063485040547857 0.009294976976162404 0.04838580250547768 4 0 0 0 0
6607 9 0.0003233683546561262 0.008463623929113324 0.06497407427737181 4 0 0 0 0
6608 9 -0.0001381113489122277 0.007951458622873985 0.0147974396581179 3.999999989870568 5.084972714445382e-07 2.810694315604854e-06 -7.360892870231127e-07 2.949643952972998e-06
6609 9 -0.000296036960917828 0.009176501408006819 0.06998238610736554 4 0 0 0 0
6610 9 -0.0001774957681947668 0.007933805751740812 0.0654830417040384 4 0 0 0 0
6611 9 0.0004597417514786066 0.008175248415297156 0.02591921990566505 3.99999999999984 3.653005013461079e-12 -4.893287707837056e-12 -1.867332029949712e-11 1.964641446238097e-11
6612 9 -0.0006437928383935986 0.008272236252184484 0.05894603898094199 4 0 0 0 0
6613 9 -0.0005174010614828959 0.008890841856886073 0.04139948734657638 4 0 0 0 0
6614 9 -0.0007605265182842072 0.008402010746540033 0.06946822906751128 4 0 0 0 0
6615 9 -0.0004899279103829324 0.008881561345046573 0.01944683762887613 3.999999998556108 8.699936405658572e-09 1.4012928293158e-08 -1.030826217633342e-07 1.043938597926828e-07
6616 9 -0.000700370006414962 0.009192627721309483 0.01578560294908354 3.999999933393664 6.144023472646836e-06 4.591461041342597e-06 -8.656348535360125e-07 7.718799299519223e-06
6617 9 -0.0005519532780990732 0.008968995531634317 0.04904079586331321 4 0 0 0 0
6618 9 -0.0001227902377567515 0.00847930564406061 0.01911774620623598 3.999999997960726 2.406410987653804e-08 7.572987960642338e-09 -1.228032434029618e-07 1.253677315783021e-07
6619 9 -0.0004886809310273324 0.008886473525774732 0.03527374806421248 4 0 0 0 0
6620 9 5.085140388622928e-05 0.008353931683928522 0.06764237451451297 4 0 0 0 0
6621 9 -4.86221675664162e-05 0.008582315869842408 0.06889976765999266 4 0 0 0 0
6622 9 -5.5222036369809e-05 0.008534324164482085 0.06215027617626194 4 0 0 0 0
6623 9 -3.22605333570932e-05 0.008230865096430021 0.02396631517147348 3.999999999997834 -2.610899480589216e-11 -6.899412533487647e-11 -2.019480361433476e-10 2.149997168431939e-10
6624 9 0.0003427990540157501 0.00870998374899809 0.0633510383891879 4 0 0 0 0
6625 9 -0.0005339858837276725 0.008293350605746526 0.04643034107480147 4 0 0 0 0
6626 9 7.937644216790322e-05 0.008169004569069615 0.03607992795136863 4 0 0 0 0
6627 9 -0.0002938805936063952 0.008332568243754123 0.03250614526653544 4 0 0 0 0
6628 9 -0.0002060905099613016 0.009206873522143945 0.05563433339105681 4 0 0 0 0
6629 9 -0.0002256389611966795 0.008582203121399925 0.05588451228616474 4 0 0 0 0
6630 9 -0.0002779732582881302 0.008788002397818909 0.05650017889510753 4 0 0 0 0
6631 9 -0.0007876643228073932 0.009385030845865739 0.004525800515121151 1.837413193849952 0.7752444308774777 1.612617626945795 -39.33287242248875 39.37354940238584
6632 9 0.0001521395715568765 0.008812850193195236 0.05848740021695691 4 0 0 0 0
6633 9 0.0003408836033287848 0.00932279702656468 0.03831629094773015 4 0 0 0 0
6634 9 -0.0001808323986494565 0.007955192457866307 0.0300275397996699 4 0 0 0 0
6635 9 0.0005165505661835608 0.008752030353822302 0.06082283722797473 4 0 0 0 0
6636 9 -4.111048176682743e-05 0.008932569600662729 0.02593682281328998 3.999999999999876 1.850687405361652e-13 1.010491585545129e-12 -1.090147402816453e-11 1.094977075878426e-11
6637 9 -0.0001402392914847728 0.008486335948917198 0.03493787532268319 4 0 0 0 0
6638 9 -0.0002825163469568082 0.008817169634686961 0.02834759882966564 4 4.255136397741985e-14 7.747785630961013e-14 -2.561395815727642e-13 2.709629532665714e-13
6639 9 0.0002720033788256887 0.008774156728806975 0.06667722588136889 4 0 0 0 0
6640 9 -0.0004293623845246202 0.00828488909460841 0.04718499153141197 4 0 0 0 0
6641 9 7.40004420871914e-05 0.008467010631112932 0.0592844809238548 4 0 0 0 0
6642 9 0.0001472901685753784 0.008999899538209842 0.09471410665700725 4 0 0 0 0
6643 9 -9.254389044046783e-05 0.009556331626994138 0.02390840514303941 3.999999999998839 -7.580696797035491e-11 -1.748235447718081e-10 -2.71159486054423e-10 3.314173125784735e-10
6644 9 -0.0003612925588355517 0.008337041990063963 0.01782765124628483 3.999999994403159 6.755213930794512e-08 2.321435295711272e-08 -2.974873174740506e-07 3.059426445695401e-07
6645 9 -0.0001463891079589979 0.008485448957662109 0.04109644642219439 4 0 0 0 0
6646 9 2.202674171347051e-05 0.009100252297738894 0.05625017889510753 4 0 0 0 0
6647 9 -0.0002681142098202669 0.00880275105987178 0.0631780972429257 4 0 0 0 0
6648 9 -0.0005227186686788733 0.008891817172065811 0.06404660630737688 4 0 0 0 0
6649 9 -5.07465992604269e-05 0.008468728736585079 0.05271159830256633 4 0 0 0 0
6650 9 -0.0001449974529896365 0.009436336091870839 0.0308055281280542 4 0 0 0 0
6651 9 -0.0004549646854866829 0.008408661671629649 0.06846545730512421 4 0 0 0 0
6652 9 4.097175567517655e-05 0.00841876936870372 0.04446173027612155 4 0 0 0 0
6653 9 -0.0007645990714281709 0.008353821809777605 0.01688324751781694 3.999999988393454 2.070852049244283e-07 7.003691820743006e-07 -2.585262151872915e-07 7.747496868260632e-07
6654 9 -0.0002337840443058933 0.009246202287395656 0.05051860260208949 4 0 0 0 0
6655 9 -0.0004895283595063992 0.008267277078314393 0.01838673077153059 3.999999996379275 1.027614742278006e-11 -2.540667292945844e-08 -1.860978727711445e-07 1.878241661365458e-07
6656 9 -0.0005567530782318349 0.008470752625627197 0.06017603663534685 4 0 0 0 0
6657 9 3.206961988299894e-05 0.008386091660626371 0.09445223191422611 4 0 0 0 0
6658 9 2.54856670979703e-05 0.009101977370937608 0.04169996801272041 4 0 0 0 0
6659 9 5.206127592229647e-05 0.009098522828837507 0.06950784418948611 4 0 0 0 0
6660 9 -0.0008052897125921865 0.009299335347019167 0.03951183428020844 4 0 0 0 0
6661 9 7.407610642124576e-05 0.00883188069030766 0.05070201783630661 4 0 0 0 0
6662 9 0.0001023342970890591 0.008794200723580939 0.05538433339105712 4 0 0 0 0
6663 9 5.576606004950186e-05 0.009156604307909422 0.06063259467072153 4 0 0 0 0
6664 9 -0.0007518850026515125 0.008364220455462878 0.03278549001065578 4 0 0 0 0
6665 9 -0.0001618512985125613 0.009130066241853939 0.06641977304814781 4 0 0 0 0
6666 9 -0.0004860184679643728 0.008191502578426178 0.04444354899634246 4 0 0 0 0
6667 9 -0.0003639946333848442 0.008766038425917229 0.06803743760120229 4 0 0 0 0
6668 9 -0.0001217209506492385 0.00931914672565653 0.02278285496640414 3.999999999991631 5.865410298808841e-11 -1.800230647344258e-10 -4.969455588735301e-10 5.317927191282688e-10
6669 9 6.994706920889306e-09 0.00960723909770215 0.09447377599080381 4 0 0 0 0
6670 9 -0.0006158898292495908 0.008874392597654308 0.02742731624660719 3.999999999999989 2.077564026693311e-13 2.399283106414856e-15 -9.677556020470297e-13 9.898077513855581e-13
6671 9 -0.000861438370958438 0.009383247843206552 0.04939818182927289 4 0 0 0 0
6672 9 -0.0007875283406639825 0.008616921324846358 0.09544652953709662 4 0 0 0 0
6673 9 8.718266283238107e-05 0.008779521337247652 0.03184481893156834 4 0 0 0 0
6674 9 -0.0004932722097008822 0.009810823943442456 0.02309215700532445 3.999999999995077 -1.067308211987753e-10 3.408627695685198e-12 -3.809983263514445e-10 3.956801885603253e-10
6675 9 -0.0004684463062448729 0.008897080707490313 0.03453249398917896 4 0 0 0 0
6676 9 -1.546991927170251e-05 0.008535161645946544 0.005983303295963321 3.170123543628253 -2.836889658264909 -0.08175500268919153 -33.41591603647358 33.53622029046039
6677 9 -0.0007903119598993874 0.008440959883831185 0.04883394884704627 4 0 0 0 0
6678 9 8.278584585368131e-05 0.008169530322836918 0.05563451228616505 4 0 0 0 0
6679 9 -7.435163008164913e-05 0.009484377692518746 0.02566736508536649 3.9999999999998 1.259655004755415e-12 3.362907050801409e-12 -1.577712090275182e-11 1.618064950931772e-11
6680 9 7.078883614648713e-05 0.008774090445014829 0.07025589431293131 4 0 0 0 0
6681 9 -0.0002039733392570399 0.008566908258492845 0.02144063010082321 3.999999999932631 1.067020174932602e-10 -5.442076079639968e-10 -6.508542454220922e-09 6.532126156122456e-09
6682 9 -0.0005565674563078021 0.009607526763471338 0.006927372108059032 3.598079324360652 -1.185313648519383 1.310107086746021 -21.24751475984273 21.3208403327318
6683 9 0.0005311401764892579 0.008156318340530287 0.03618872594391834 4 0 0 0 0
6684 9 0.0003250110663714099 0.009589760086454895 0.02423481192811951 3.999999999999425 -1.477518391921371e-11 -4.284948643803803e-11 1.537718638048664e-11 4.786274552123415e-11
6685 9 -0.0009243809468679149 0.009191071157614283 0.02197992549341947 3.999999999960571 -1.066271520553097e-09 -3.458454179752122e-10 -2.802353624175534e-09 3.018232900822403e-09
6686 9 -0.0005647315522308673 0.009846528105597425 0.01238222733165707 3.99993737746653 -0.006855489244797629 0.01948930561067438 -0.007672096882365444 0.02203841728764118
6687 9 0.000330451548762791 0.008687579499175847 0.05650017889510783 4 0 0 0 0
6688 9 -4.751916791902868e-05 0.009101431036898807 0.06347859086268189 4 0 0 0 0
6689 9 -0.0001152135539854585 0.00899343122011868 0.09421190124802267 4 0 0 0 0
6690 9 4.628889871387758e-05 0.008591602571524956 0.02669357407158364 3.999999999999951 1.147268126105122e-12 -1.008553600629981e-13 -3.909690026983064e-12 4.075790974022224e-12
6691 9 4.784883892039937e-05 0.009098140744397765 0.01970939372856229 3.999999998925202 1.175127022193233e-09 9.505866847151344e-09 -1.162593188123677e-07 1.166532110091695e-07
6692 9 -0.00021799779916059 0.009208974520911267 0.05823378820722172 4 0 0 0 0
6693 9 -0.0003469915351111731 0.008713188558989966 0.06703894980224084 4 0 0 0 0
6694 9 -0.0001928050674544793 0.008572344491182556 0.02003464051948409 3.99999999947656 -1.539606973511273e-10 1.223027469200545e-09 -4.305708505669362e-08 4.307472662323113e-08
6695 9 -0.0006433695638810854 0.009662856821940837 0.0258135583897561 3.999999999999821 -2.552875310508504e-12 5.36194744466002e-12 -1.33518038814721e-11 1.461295040844228e-11
6696 9 -0.001018277314929911 0.008783429016786665 0.06001982321230571 4 0 0 0 0
6697 9 -0.0007381139141686399 0.009202688314267942 0.006010514295020091 3.181451646736774 3.418963075219017 -1.997234672802721 -29.19403999029221 29.46133441992636
6698 9 -0.0001737804570713835 0.008570725053393027 0.0478597984838683 4 0 0 0 0
6699 9 0.0004149865115465803 0.008695885043411802 0.01938030230592214 3.999999998329819 5.956036649298998e-09 6.287209704287892e-09 -1.260165118332925e-07 1.263137547263316e-07
6700 9 0.0003964976206218685 0.008696584471713646 0.04139692708833842 4 0 0 0 0
6701 9 -0.0005133375584212059 0.008891352867645572 0.05717307562462021 4 0 0 0 0
6702 9 3.430674339174496e-05 0.008184594730145817 0.05440748443828355 4 0 0 0 0
6703 9 0.0006224601194937722 0.008787434506695248 0.03724080423195449 4 0 0 0 0
6704 9 -0.0001496433640462873 0.009856897112521877 0.02448463430508276 3.999999999999504 -4.011133002043779e-12 -6.791402152358842e-11 1.036312289681522e-11 6.881713321289264e-11
6705 9 0.000137467998899695 0.00816172570358923 0.04821159269061241 4 0 0 0 0
6706 9 0.0001128953989844472 0.008784298273675814 0.04850212432320461 4 0 0 0 0
6707 9 -0.0006217025869841873 0.009697714927275891 0.009845025048839875 3.990640216104423 -0.2793659903468602 0.4703403031488512 -0.862701213830802 1.021527650958981
6708 9 -0.0004390142108921669 0.008889706240121878 0.01865835247767348 3.999999997045441 1.979131111090288e-08 1.002169501365576e-08 -1.450215948389131e-07 1.467085319129639e-07
6709 9 -0.0004313327257682278 0.008817219567123889 0.05297579536516704 4 0 0 0 0
6710 9 -3.790407086947709e-05 0.008549360352821818 0.03870604042437289 4 0 0 0 0
6711 9 -0.0002161211386321534 0.009217771723949872 0.04570899275713883 4 0 0 0 0
6712 9 -0.0008405087164492049 0.009248337970479002 0.05854315738260372 4 0 0 0 0
6713 9 -0.0003576481855886039 0.009021681269732459 0.06868026359432977 4 0 0 0 0
6714 9 -0.0002682256899046066 0.008724757820553708 0.07087713942765238 4 0 0 0 0
6715 9 -0.0005766588247373753 0.009832108783811454 0.02839629618853741 3.999999999999997 -2.128049509349382e-13 5.154279941443568e-13 -3.237366590058404e-13 6.447925159881746e-13
6716 9 -0.000453749553765708 0.008907454296673367 0.04697563689417996 4 0 0 0 0
6717 9 -0.0001373424231163545 0.009244640769471391 0.070623251818277 4 0 0 0 0
6718 9 -0.0002995628728451734 0.009180409514273536 0.02176890097356798 3.999999999960252 -8.568204975908406e-10 -3.229840347541549e-10 -3.00094125233341e-09 3.137532223221668e-09
6719 9 -0.0005916738826313499 0.008890387612259921 0.01140912200110768 3.999941368547121 0.005244444364324159 0.008039062670028876 -0.005941861495721673 0.01128877510350361
6720 9 -0.0004658964844218682 0.008244379117829081 0.04355945744830104 4 0 0 0 0
6721 9 -0.0007886132824960417 0.008358862428015491 0.01813950976534493 3.999999995725531 1.294597073046928e-08 -1.756818460809197e-08 -1.795794838215689e-07 1.80900608838664e-07
6722 9 0.0001478671596975484 0.008966963176372515 0.06735737035618232 4 0 0 0 0
6723 9 -0.0001748709172373266 0.008794867039479497 0.04723387457665191 4 0 0 0 0
6724 9 -0.0005295906621679419 0.008848179622765177 0.04508595482813387 4 0 0 0 0
6725 9 -0.0005826753538743914 0.00922404312328799 0.0711091485718692 4 0 0 0 0
6726 9 -0.0005022388574545463 0.008877228288053802 0.02077301986572065 3.99999999980446 -1.968672498987151e-09 -1.378256345314311e-10 -1.712983753448524e-08 1.72431436017816e-08
6727 9 0.0001791140554995722 0.008827943824116892 0.006858001516447807 3.575037764661657 0.7842040798349975 -0.450835688231728 -21.12740894502303 21.14676423443673
6728 9 0.0001746178263535955 0.009061311521637711 0.06449398599397385 4 0 0 0 0
6729 9 0.0001165061943211851 0.008162322791225493 0.02028464051948388 3.999999999587856 4.285053037184793e-09 -4.852658481511862e-09 -2.840490489181961e-08 2.913329016405448e-08
6730 9 -0.0007306368223615762 0.008281034044632835 0.02319459814883891 3.999999999994761 9.18310151074939e-11 1.699844365494411e-10 -2.01514058591588e-10 2.791694106000113e-10
6731 9 -0.0001104618008220914 0.007930435838574345 0.03849040779144702 4 0 0 0 0
6732 9 7.225609997312294e-05 0.008407373288533537 0.07118433222184331 4 0 0 0 0
6733 9 0.0001237017462614132 0.008572404398523047 0.06825000856009728 4 0 0 0 0
6734 9 0.0004347525966009606 0.008698048304079839 0.04737646998357282 4 0 0 0 0
6735 9 -0.000452756978824544 0.008910448972336091 0.04670131936855073 4 0 0 0 0
6736 9 -0.0007446272456322971 0.00835336190519757 0.02101587689174502 3.999999999850651 -4.697900983765199e-09 -2.686424956607856e-09 -1.481088896500181e-08 1.576862659315515e-08
6737 9 0.0003660359710912078 0.008246375798591041 0.03206290584530132 4 0 0 0 0
6738 9 -0.0001983530569866314 0.009193297623479611 0.0481503301164605 4 0 0 0 0
6739 9 -5.933394389498062e-05 0.008864641791941515 0.03281223350095262 4 0 0 0 0
6740 9 -0.0007671986660296027 0.008375254560315999 0.04169203543438979 4 0 0 0 0
6741 9 -0.0001707620646655197 0.008000926859700677 0.04951940444891313 4 0 0 0 0
6742 9 -0.0005368325443358487 0.008924662839201347 0.05111651729025515 4 0 0 0 0
6743 9 0.0004493005377059743 0.008719958286974243 0.03138442951330933 4 0 0 0 0
6744 9 -0.001011737300702904 0.009215800138389732 0.03820565449740235 4 0 0 0 0
6745 9 0.0005385477835324866 0.008160297656534338 0.06785494547340794 4 0 0 0 0
6746 9 -0.0002435649565667674 0.008075682330678785 0.07461315155462102 4 0 0 0 0
6747 9 -0.0007837844454795048 0.00862028868544615 0.004459733666436885 1.768603946833494 -0.2082882276314943 0.4291812733939427 -38.74147536121097 38.74441241927045
6748 9 -0.0005173383529400979 0.00889629400365027 0.03309157824507296 4 0 0 0 0
6749 9 -0.0008284708582659989 0.009231788063424151 0.03655394409699145 4 0 0 0 0
6750 9 0.0004163687958574303 0.009818214979128831 0.02556520409251068 3.999999999999766 -2.207633853342079e-12 -2.042042621988119e-13 -1.300766254025315e-11 1.319525033382191e-11
6751 9 1.307779271478698e-05 0.008229725651255456 0.006542768841006479 3.442934576810828 0.9820865623939379 -3.67868257345043 -22.98059371046416 23.29388088699836
6752 9 -0.0008870177813776607 0.009387593374514711 0.01125116580425493 3.999528985264797 -0.06425413207528693 0.06301966158683173 -0.06537640016227592 0.1112391340016868
6753 9 -0.0002057114809524994 0.009194433427981685 0.03620648721532622 4 0 0 0 0
6754 9 -0.0008755985477320936 0.008997909152588515 0.09568360538858872 4 0 0 0 0
6755 9 -0.0002727339018668263 0.00917796368233059 0.03203805835280246 4 0 0 0 0
6756 9 0.0005300442641816798 0.008746058596735806 0.06918431891496572 4 0 0 0 0
6757 9 -0.000567198320858165 0.009823468653061121 0.02415822752000267 3.999999999998917 -1.350779389216628e-10 9.39963934262777e-11 -9.323706248185357e-11 1.891415379569414e-10
6758 9 -0.0004403489814042925 0.008891504695204482 0.04073299640766694 4 0 0 0 0
6759 9 -0.0008592859816993199 0.009219531273172961 0.06524452116247657 4 0 0 0 0
6760 9 -0.0008637264928260645 0.008575492349424346 0.03031839194995781 4 0 0 0 0
6761 9 -0.0008660799527163941 0.008584210389980567 0.01430189235593878 3.999999958165052 3.345609396445068e-06 5.305092613195735e-06 5.876411605640951e-07 6.299399336583974e-06
6762 9 -0.0008356311738479872 0.00937414550183416 0.06900378886885014 4 0 0 0 0
6763 9 0.0005479832159860924 0.008716641895193698 0.02921671895172871 4 0 0 0 0
6764 9 -0.0009033115069069554 0.009363839906502469 0.02725619114185363 3.999999999999984 -5.655308849220172e-13 5.903730497269181e-13 -1.588750285270083e-12 1.786754876470276e-12
6765 9 0.0005489259321329522 0.008717144969135351 0.01321333078544873 3.999995756411165 -0.0003626392737576734 0.0004084109724112606 -0.0001062481679817701 0.0005564130106826104
6766 9 -0.0007866271048037705 0.008356374182402376 0.04021873207022926 4 0 0 0 0
6767 9 6.119406392000442e-06 0.008644818143673979 0.03225614526653544 4 0 0 0 0
6768 9 -0.0004842992022280723 0.00826834140925858 0.04045875763864104 4 0 0 0 0
6769 9 -0.0001861067887426613 0.008571337040646996 0.03586186854883004 4 0 0 0 0
6770 9 -7.355606651277474e-05 0.008613932685929289 0.04927731723822303 4 0 0 0 0
6771 9 1.277217488043222e-05 0.009469629354616867 0.009342975845431261 3.984567297231945 0.008371073292968179 0.2903350271890419 -1.298009190966565 1.330109906253846
6772 9 -0.0005447298941349426 0.009685529117728027 0.004283236053006635 1.502632544759154 -0.0007319784833468857 0.0006566854360470539 -29.84022975672316 29.84022977292659
6773 9 -6.211559845942032e-05 0.009709270763410896 0.06973744997436729 4 0 0 0 0
6774 9 -0.0008384952824339096 0.008388742269168263 0.05770043119287344 4 0 0 0 0
6775 9 9.876253841116483e-05 0.009106285639473074 0.01842090857735964 3.999999995992838 5.379007678295352e-08 1.965594790625213e-08 -1.952892810030222e-07 2.035132229686482e-07
6776 9 4.612221761351892e-06 0.009668518202048679 0.01213883169542759 3.99993737746653 0.001374543035301453 0.01076486751554739 -0.01079218124885054 0.01530499648125489
6777 9 -0.0002147921907963378 0.009216434932681487 0.03375708115825985 4 0 0 0 0
6778 9 3.841504892071105e-05 0.009090774641349077 0.02119777307479884 3.999999999886441 1.47590151198959e-09 1.24919543090901e-09 -1.039154152517654e-08 1.056990585422432e-08
6779 9 -0.000511568955677846 0.009243232399319274 0.004841458755348326 2.232557913576247 3.702052672361127 0.0788607834014779 -45.79086270239812 45.94033652512756
6780 9 -0.0004849988395832224 0.009526803257466033 0.008405897010620887 3.913623221101608 -1.115186826709871 1.567013093707189 -6.586653990382264 6.861718624611155
6781 9 0.0002107704325044878 0.00908453180263623 0.01230623941455588 3.99999497687947 -0.0001060024416323009 0.0002382727018946541 0.0006186622119995358 0.0006713816579683621
6782 9 -5.80963033355232e-06 0.009656290855968769 0.02814245999847751 3.999999999999997 -1.479836331910211e-14 3.177998949251672e-13 -4.038624197596817e-13 5.14121210285587e-13
6783 9 -3.408803711371193e-05 0.008241864510367684 0.01049063371581781 3.999702678463123 -0.007961702858149927 -0.04695995359785768 -0.05619130197040257 0.07366198728953345
6784 9 6.476365540309061e-05 0.009098753333174532 0.04756675923031106 4 0 0 0 0
6785 9 2.766095320682919e-05 0.009042480669523654 0.04470993612706724 4 0 0 0 0
6786 9 8.704898756152299e-05 0.009052313101948661 0.05338110580528141 4 0 0 0 0
6787 9 -0.0004187469936618468 0.008876751497374505 0.09290892050988597 4 0 0 0 0
6788 9 -0.0008755777629728095 0.009004166700694538 0.004242564462114517 1.464316642942402 -0.001137200053274796 -0.0002575522147500227 -30.22049564658538 30.22049566907934
6789 9 -0.0005715936140177724 0.009153230588958752 0.01001968872539253 3.995644297515902 -0.1802796831181695 0.2207169018784919 -0.6996501396008451 0.7554647793004711
6790 9 0.0002334774530457838 0.008845737943425639 0.04557060766438672 4 0 0 0 0
6791 9 -0.0004205601801447001 0.008241164970793387 0.05179477199470067 4 0 0 0 0
6792 9 -0.0008014334416205302 0.0092141669635433 0.05255916661339732 4 0 0 0 0
6793 9 -0.0007305818167578111 0.008355765091831363 0.01977208441979794 3.999999999107466 -2.281170626963909e-08 -1.264344012757452e-08 -7.975316419894886e-08 8.390946145063948e-08
6794 9 9.782153318505059e-05 0.008476258505618159 0.05170008243481504 4 0 0 0 0
6795 9 0.0001092872965858701 0.008786455994925352 0.02044672837872999 3.999999999684749 3.498634900078922e-09 -1.890462072850129e-09 -2.564882452827214e-08 2.595527870578603e-08
6796 9 -0.0007282719243585321 0.008372997008441855 0.04756091543862837 4 0 0 0 0
6797 9 0.0003469187317979341 0.009296246837576077 0.02733226903540671 3.999999999999976 5.048332225358509e-13 3.570982339116774e-13 -2.778789091641702e-12 2.846760359964584e-12
6798 9 0.0002082883103904067 0.009073808874025556 0.02830789978917393 4 -5.292278868413671e-14 1.16460901409194e-14 -6.70757571164854e-14 8.622998417271078e-14
6799 9 -0.0009603693801171376 0.009221916767115453 0.09407114056879665 4 0 0 0 0
6800 9 -0.0002825785728564086 0.009449638022361187 0.04429340938775223 4 0 0 0 0
6801 9 -0.0008382216010645047 0.009260242933747501 0.04541904189558373 4 0 0 0 0
6802 9 -0.0008015392064138158 0.00830618326303079 0.06478551139109404 4 0 0 0 0
6803 9 -0.0001775527984271292 0.008595655125047248 0.03395909124969539 4 0 0 0 0
6804 9 -0.0005028628816335082 0.008903674974287894 0.05507984201086336 4 0 0 0 0
6805 9 9.38101317553848e-05 0.008804286761603289 0.03350708115826027 4 0 0 0 0
6806 9 4.123211536374013e-05 0.009723905989454001 0.06199999999999987 4 0 0 0 0
6807 9 4.218396674268515e-05 0.009726699068433072 0.04199999999999997 4 0 0 0 0
6808 9 0.0001258527507329501 0.009086002443971813 0.09319493676906998 4 0 0 0 0
6809 9 -0.0008178531638678198 0.00930601922478059 0.04262602134849837 4 0 0 0 0
6810 9 -0.0002669788775735252 0.009379069918361222 0.06775243344287166 4 0 0 0 0
6811 9 -5.963629500754549e-05 0.009509638038985409 0.009703866559313422 3.991049969530633 -0.05587921782795037 0.3451817331143042 -1.077177319964362 1.132512205014349
6812 9 -6.652254695477667e-05 0.008533488043505694 0.04532060766438672 4 0 0 0 0
6813 9 -0.000374338630078014 0.009026936420242852 0.007241980549114591 3.714199812625976 -0.6065088525252083 -0.1306017132472515 -19.77973285309979 19.789460364944
6814 9 -0.0007777961795183974 0.008381652210890158 0.0561419770126588 4 0 0 0 0
6815 9 7.856885990271098e-05 0.009103620986483953 0.03433011782230337 4 0 0 0 0
6816 9 6.109373921768123e-05 0.008471645908106623 0.04357763872808014 4 0 0 0 0
6817 9 0.0001849657105282039 0.00816334251044144 0.07002628852805012 4 0 0 0 0
6818 9 -0.0002859183508880214 0.009421234987126787 0.06422752729339266 4 0 0 0 0
6819 9 5.858752635279401e-05 0.008479476923310116 0.04025923830478507 4 0 0 0 0
6820 9 0.0001025377471765739 0.009102640209256019 0.04053347707381097 4 0 0 0 0
6821 9 0.0006455131211967724 0.008775975059219135 0.0647641590131129 4 0 0 0 0
6822 9 0.0001017344884626045 0.009108177017287264 0.04650020241379067 4 0 0 0 0
6823 9 0.0006499999999995845 0.008999999999999973 0.0549999999999999 4 0 0 0 0
6824 9 0.000143728974485526 0.008812430331368743 0.02202818221194985 3.999999999974317 -9.241502134040155e-10 -5.892673761772298e-10 -2.316353424287251e-09 2.562573480657434e-09
6825 9 -0.000811287688683869 0.0093163477728509 0.05532984201086305 4 0 0 0 0
6826 9 -0.0005017760834368237 0.008892010352550347 0.04286850567821688 4 0 0 0 0
6827 9 0.0004644562636088614 0.008782745941449271 0.0261779979283407 3.99999999999991 1.111811814500392e-12 -3.949335514730966e-14 -5.186963113285549e-12 5.304928988643332e-12
6828 9 -0.0007092848222215008 0.00832964593114084 0.01153022922400555 3.999998669438039 5.165107799584169e-05 0.0001676511520147941 0.0001074881950987953 0.0002057388021633663
6829 9 5.83342351202515e-05 0.009093013804768372 0.03557137189733688 4 0 0 0 0
6830 9 0.0002100372748532547 0.008257706001819432 0.02990306077985 4 0 0 0 0
6831 9 -3.790543839380299e-05 0.009039238853941587 0.0277097784076207 3.999999999999993 1.800064279548951e-14 6.558390883799577e-14 -1.532128660782201e-12 1.533637344821057e-12
6832 9 -8.261317297885554e-05 0.008844619351535916 0.05735773171116883 4 0 0 0 0
6833 9 4.15751929488483e-05 0.009724922698482914 0.05599999999999959 4 0 0 0 0
6834 9 0.0004084797666026706 0.009287994024120507 0.01129456340094433 3.999509467513764 0.02088241762754703 0.02128594733696781 -0.0604818197936057 0.06743305899593795
6835 9 -0.0004517920870861394 0.009743926072205674 0.07085526096249381 4 0 0 0 0
6836 9 -0.0007331219548902452 0.008364796761653356 0.03556424471570564 4 0 0 0 0
6837 9 0.0006242732895696653 0.008756448827812235 0.02697603623259715 3.999999999999956 1.497274994101143e-12 -3.117764969671837e-14 -3.647658483059749e-12 3.943122729872726e-12
6838 9 0.0006059734426707298 0.008628097408850753 0.0713408147923878 4 0 0 0 0
6839 9 0.0004470675804343513 0.008168864860838794 0.02422962744858163 3.999999999998482 3.916568859574503e-11 -1.440522556898116e-10 -1.576749773047544e-10 2.171322223912346e-10
6840 9 -0.0004440072909224923 0.00810015706654597 0.06732395396057149 4 0 0 0 0
6841 9 -0.000721955639312201 0.008313717506905077 0.02754616482700986 3.999999999999991 1.959813242171937e-13 -1.372145401625106e-14 -9.563866508977594e-13 9.76356688796506e-13
6842 9 0.0005518145408005021 0.008772634549894534 0.03322773641413993 4 0 0 0 0
6843 9 0.0002755605056082256 0.008691704036217241 0.01573995467107187 3.999999948253729 -3.730567243513441e-06 4.158914928212071e-06 -1.205142307881619e-06 5.715424159301471e-06
6844 9 -0.0005219849292389333 0.008877431564895198 0.01714874551659852 3.999999990599489 -4.33566078284399e-07 2.308807692954145e-08 -7.288653561688457e-07 8.483851194819227e-07
6845 9 -0.0008516029264620264 0.008402935852683082 0.04613924442952724 4 0 0 0 0
6846 9 -0.0001459386674644952 0.007969296271739597 0.0686849613707871 4 0 0 0 0
6847 9 -0.0003854736630669209 0.008704362324597002 0.07375163990334198 4 0 0 0 0
6848 9 0.000707826410849054 0.009007765998971073 0.01892090857736006 3.999999996930304 6.486846159074901e-08 1.886277462971009e-08 -1.810045461713169e-07 1.932003294784098e-07
6849 9 0.000166989414695171 0.009125537929171326 0.09145459976211068 4 0 0 0 0
6850 9 0.0005285671671186561 0.00875271557338053 0.05694212081304258 4 0 0 0 0
6851 9 -0.0002000239651897944 0.009196477694882415 0.0201967283787302 3.999999999573452 -1.439772154820099e-10 1.285244263165922e-09 -4.280878506085278e-08 4.282831610793111e-08
6852 9 3.288169700128298e-06 0.009268433024336876 0.008110217277035817 3.894142920374737 -0.6694887845799044 1.369742711994773 -7.096201365626986 7.25813227705774
6853 9 0.0004676351140693238 0.008703822271409851 0.05261690874268071 4 0 0 0 0
6854 9 -0.000339305056147682 0.008880385011442945 0.09118180012044565 4 0 0 0 0
6855 9 -0.0008115501192302105 0.009287249988010865 0.02052301986572086 3.999999999693164 -9.291673630214926e-09 3.816304168519159e-09 -2.399042055476963e-08 2.60084535248023e-08
6856 9 -0.0007808462124494232 0.009069098072036928 0.06678149696901975 4 0 0 0 0
6857 9 0.0004790205244449384 0.00929901816609929 0.01364708604259199 3.999995121429648 0.0001116879445246935 0.0002426356189394963 -0.0007828431298366922 0.0008271575463373417
6858 9 -1.248627506490465e-05 0.009053280122739947 0.0116879463818068 3.999941368547121 0.001509837797147438 0.009396636576386503 -0.01646451487637548 0.01901727212921899
6859 9 0.0007131959202664384 0.009009056269289193 0.04094695907561798 4 0 0 0 0
6860 9 0.0008187014657093179 0.00905764770270873 0.06882429487976678 4 0 0 0 0
6861 9 0.0006582610471735363 0.009000440296282913 0.04299248432971848 4 0 0 0 0
6862 9 0.000313884767820925 0.008212098865822776 0.09232206899474495 4 0 0 0 0
6863 9 0.0005182289493275446 0.008745062170569322 0.03906625826558757 4 0 0 0 0
6864 9 -0.0001583782186136082 0.008003752340144416 0.02661875401029591 3.999999999999948 1.028285199071462e-12 -4.740511506638704e-13 -4.102783319528485e-12 4.256163285293029e-12
6865 9 0.0002909156294285393 0.008760445743049555 0.008373854856305134 3.928864663460084 -0.1845678810580987 -0.0530417468322735 -5.205931914693734 5.209472701728272
6866 9 -0.0007957177721746266 0.009372212412501333 0.095429247392639 4 0 0 0 0
6867 9 6.694168581471181e-05 0.009781363299766536 0.0601554649127045 4 0 0 0 0
6868 9 -0.00031098463985577 0.009235941059663966 0.07299751448892491 4 0 0 0 0
6869 9 0.0008182289493281051 0.009057312070489265 0.03881625826558757 4 0 0 0 0
6870 9 0.0001726546540009684 0.009889984755915246 0.03800003268214257 4 0 0 0 0
6871 9 -1.949017064908158e-05 0.009094696847166713 0.08148997486492879 4 0 0 0 0
6872 9 0.000503097123373503 0.009308485082315783 0.02257183044655266 3.999999999991311 -3.160946014711476e-10 -3.243570013477828e-10 -2.627692404740364e-10 5.236133450761459e-10
6873 9 5.201603636325889e-05 0.009752287988098154 0.0681407095219997 4 0 0 0 0
6874 9 0.0004547529356501581 0.008671995481563017 0.07225134396518461 4 0 0 0 0
6875 9 0.0007668620736344101 0.009027931346189524 0.06699564643531036 4 0 0 0 0
6876 9 0.000240666056103415 0.009176891691861372 0.03256223350095262 4 0 0 0 0
6877 9 -0.0008168879457874324 0.009297218284347847 0.03486836673070824 4 0 0 0 0
6878 9 -0.0009513666416466617 0.008643023308206035 0.02620645379049161 3.999999999999909 -4.932634598419094e-12 -6.492827388255715e-13 -8.103093006621274e-12 9.508552383534127e-12
6879 9 3.934182691042537e-05 0.009718083739806656 0.04008651799819297 4 0 0 0 0
6880 9 0.0002210182461594921 0.009185423996625856 0.06846481484930284 4 0 0 0 0
6881 9 -0.0008593942557721571 0.008903508772180581 0.07394046069217186 4 0 0 0 0
6882 9 1.927358290127669e-05 0.009090330116142964 0.01672505794542412 3.999999989524995 -4.489336930897493e-07 2.02113575540783e-08 -7.105051601052597e-07 8.406946784068403e-07
6883 9 -5.717448466742251e-05 0.009704275897129768 0.02152604394754361 3.999999999914062 1.202418680097436e-09 3.7162375193823e-09 -8.139602542935812e-09 9.02825351547458e-09
6884 9 -0.0008113609349281905 0.009296897594428446 0.04103603733204893 4 0 0 0 0
6885 9 0.000487597148273609 0.009238495508723795 0.07046988976544125 4 0 0 0 0
6886 9 -0.0002579757985797698 0.008101541020090959 0.07361507362615005 4 0 0 0 0
6887 9 -8.362120461333797e-05 0.008604335708318037 0.09204282787491772 4 0 0 0 0
6888 9 -4.387758614534282e-05 0.009686670294762997 0.09348061682659078 4 0 0 0 0
6889 9 0.0004315462478550287 0.008187196664205537 0.06199578073173612 4 0 0 0 0
6890 9 0.0007294049580983864 0.009013569922892909 0.06294950638024369 4 0 0 0 0
6891 9 3.909134924361602e-05 0.009092782148893705 0.05141449945394847 4 0 0 0 0
6892 9 -0.0007552142576657445 0.00837731940445666 0.05146120685014078 4 0 0 0 0
6893 9 0.0008280003995889531 0.009064528589257517 0.06109550455547405 4 0 0 0 0
6894 9 4.802152110973792e-05 0.009095347749200506 0.04332595759040345 4 0 0 0 0
6895 9 4.195441859955652e-05 0.009726578865029555 0.050066471035607 4 0 0 0 0
6896 9 3.258206877946047e-05 0.009696107495757941 0.06596220949065539 4 0 0 0 0
6897 9 -7.127975104300136e-05 0.007926091023424502 0.01759199460797758 3.999999993813227 7.404227791204529e-08 1.476409641287118e-07 -9.880002157330728e-08 1.924618338012659e-07
6898 9 -9.087810915280567e-05 0.00891775892617943 0.07660402324947019 4 0 0 0 0
6899 9 0.0007103654273597278 0.009008363606224881 0.04691711534634081 4 0 0 0 0
6900 9 -0.0007603393298893948 0.008397407575672625 0.0549614980299375 4 0 0 0 0
6901 9 0.0005917879127888949 0.009003111330532642 0.0809899748649279 4 0 0 0 0
6902 9 -0.0008217623654705263 0.00930402566620862 0.0569230756246199 4 0 0 0 0
6903 9 0.000585085945087964 0.008453003074793254 0.09576329974368558 4 0 0 0 0
6904 9 -0.000147512867497501 0.007916380217190079 0.04554974238201508 4 0 0 0 0
6905 9 -6.990199685487838e-05 0.009120921223281916 0.08347063253647452 4 0 0 0 0
6906 9 -0.0005445731272322507 0.008314347199701028 0.09576292414850793 4 0 0 0 0
6907 9 4.132946753350233e-05 0.009724400794118192 0.03412810773086783 4 0 0 0 0
6908 9 -0.0008259406754918206 0.009308442174728468 0.03334157824507254 4 0 0 0 0
6909 9 4.136344741802197e-05 0.008313464018839178 0.0761644473884362 4 0 0 0 0
6910 9 -2.78355791518366e-05 0.009060829704540679 0.08053351717471249 4 0 0 0 0
6911 9 -0.0003108477418003922 0.008959473919646476 0.01772738114099671 3.999999995244885 5.683805401869248e-08 -1.161627439386277e-07 2.617674687655035e-07 2.919701271840697e-07
6912 9 4.113047674276265e-05 0.009724322670628267 0.04608297405607219 4 0 0 0 0
6913 9 -2.083493400784195e-05 0.008548522953007013 0.01749172450268947 3.999999994654953 5.668923934104881e-08 -1.342090837211206e-07 5.305578187231169e-08 1.550505208001953e-07
6914 9 0.0006500000000007106 0.009000000000000018 0.05099999999999993 4 0 0 0 0
6915 9 0.0006499412029611273 0.009000002348220628 0.02087148158780818 3.999999999766729 8.68384124369943e-09 -1.663067249724631e-10 -1.72731075770546e-08 1.933383050616321e-08
6916 9 -0.000724567964574713 0.008389114846053605 0.03416146741657099 4 0 0 0 0
6917 9 -0.0002854188050924969 0.008001401746767278 0.06024810730962651 4 0 0 0 0
6918 9 0.0009058695457117369 0.009067417007238305 0.02665871782345396 3.999999999999931 1.786429324735957e-12 4.436722148998533e-14 -3.759884564468936e-12 4.162935277031228e-12
6919 9 -0.0008119977370314837 0.009288382531534661 0.01738440215490576 3.999999991189421 -4.299202501096959e-07 2.120281945143832e-08 -7.312943260156788e-07 8.485707821212086e-07
6920 9 -0.0005076890783499555 0.008749667575848158 0.00477539190666406 2.163751856311571 3.628251628629916 1.934722770288265 -44.17395617499974 44.36491593849047
6921 9 0.0002173868270227452 0.009156869251455901 0.05760773171116883 4 0 0 0 0
6922 9 3.866140864690806e-05 0.009717283847315078 0.06380107474230377 4 0 0 0 0
6923 9 0.0007958902077911723 0.009043131213834521 0.06517064145879391 4 0 0 0 0
6924 9 -9.387192612615841e-05 0.009086696711749023 0.01599346964359312 3.999999942368899 -2.124189114162255e-06 1.075222339762834e-06 -1.426979500656726e-05 1.446704295984851e-05
6925 9 0.0008285671671202569 0.009064965473300513 0.05719212081304258 4 0 0 0 0
6926 9 0.0001493727802094525 0.009137350901483092 0.08979567214375879 4 0 0 0 0
6927 9 -6.896917377516147e-05 0.009102766244498246 0.08539468305181289 4 0 0 0 0
6928 9 -9.527322041130598e-06 0.008965153700668273 0.009878530235866073 3.996054050942112 -0.1297031249730035 0.2142879769967679 -0.7774208645287858 0.8167774717252029
6929 9 -0.0005307313140801439 0.009908781201134429 0.03072758847721545 4 0 0 0 0
6930 9 3.85454522619304e-05 0.009716414434497221 0.05791581381260978 4 0 0 0 0
6931 9 3.952188957608759e-05 0.009719416712483473 0.04383336024930732 4 0 0 0 0
6932 9 4.01910554878428e-05 0.009721325903261116 0.04785729086290325 4 0 0 0 0
6933 9 -7.420407291136563e-05 0.009107911658403245 0.08247077391549321 4 0 0 0 0
6934 9 0.0008306374366969619 0.009028124580281786 0.01283463035971315 3.999995756411165 -0.0005735731289526854 0.000342708594763182 2.391994484310701e-05 0.0006685861791440399
6935 9 0.0001983102794442043 0.008806743516413714 0.09253350583116354 4 0 0 0 0
6936 9 0.000765823787827356 0.008977828021738674 0.007217109537634512 3.679773486849479 4.175050762034002 -0.8678737249919017 -19.37800585206658 19.84165730151639
6937 9 0.0007843766442447703 0.008981992249770695 0.01087734076035945 3.999564501699986 -0.06076319413007047 0.05264522728836579 -0.0003347943726885962 0.0803977475082748
6938 9 3.872954291041345e-05 0.009716110192103061 0.03591599056383306 4 0 0 0 0
6939 9 -0.0008061518835183477 0.009291961941107842 0.01898744390031364 3.999999997640823 -1.02523429905081e-08 2.290993099679102e-08 -1.188983866172561e-07 1.215187303063164e-07
6940 9 3.037650805971365e-05 0.009057718374008029 0.0795435423097845 4 0 0 0 0
6941 9 0.0003752883017163171 0.009739578829994407 0.007943300145129058 3.861683189628895 0.07612177584262871 2.74268669719093 -8.214737158659076 8.660833183335177
6942 9 0.000776802842112488 0.009029303964910428 0.09099655186197657 4 0 0 0 0
6943 9 0.0001310495241245935 0.008183506953969048 0.03370909124969581 4 0 0 0 0
6944 9 0.000381603715147011 0.008714459664450461 0.08946040726915636 4 0 0 0 0
6945 9 0.0008298586453575334 0.009027637692068538 0.02883629025078546 4 0 0 0 0
6946 9 -0.000822745920022414 0.009311154001430786 0.04689160861528895 4 0 0 0 0
6947 9 -0.0008132170913877164 0.008333096752126387 0.06599608436523569 4 0 0 0 0
6948 9 0.0005370740105266108 0.009016326141769174 0.08297077391549232 4 0 0 0 0
6949 9 0.0005018831589908957 0.008749467883656515 0.004315658240227175 1.524679926993193 0.0009288906669038166 -0.0007250365301851509 -28.90196555994993 28.90196558397106
6950 9 0.0002304107703398177 0.00917237247089424 0.01780369356982231 3.999999995075667 2.881447559519585e-08 -1.347471365220923e-07 1.581408913390499e-07 2.097512963445964e-07
6951 9 0.000520423578132368 0.008761421504254779 0.01706803693151506 3.99999999358046 1.7377184443204e-07 -1.07989906032233e-07 -1.104493355262332e-07 2.32502751468343e-07
6952 9 4.086679598228079e-05 0.009723022208116897 0.01812810818856857 3.999999996269465 1.923743378176767e-08 -1.939539114434694e-07 3.004617619839604e-08 1.972079393099429e-07
6953 9 3.872191656316898e-05 0.009716085316473866 0.08200000000000079 4 0 0 0 0
6954 9 -0.0001596290297664189 0.0087056748122071 0.007768005702208055 3.85139526555964 -0.2646266825660073 -0.1031332700100878 -11.44366666600005 11.44719050750137
6955 9 -0.0009265728156224934 0.008500443354602791 0.05010681448725248 4 0 0 0 0
6956 9 0.0005768783549422041 0.00954898731082808 0.09576720152473298 4 0 0 0 0
6957 9 4.062994118508428e-05 0.009722273948097625 0.01987148158780839 3.999999999022094 3.935814253121699e-09 2.671039636803392e-08 -9.808369300759355e-08 1.017317391082076e-07
6958 9 0.0005277878312763113 0.008980358182733756 0.07705625674444934 4 0 0 0 0
6959 9 0.0002123711022497698 0.009176820617864633 0.007601088570301296 3.818935534813797 0.1604455439753625 0.144120649652026 -12.96293097793642 12.96472495169031
6960 9 -0.0001324161601236162 0.008486523189096092 0.08196074878042119 4 0 0 0 0
6961 9 -3.818725215541172e-05 0.009710037230517983 0.03234414658721964 4 0 0 0 0
6962 9 -2.783557915155441e-05 0.008436329904700834 0.08003351717471249 4 0 0 0 0
6963 9 0.0008986866569627203 0.009007233726455054 0.02299355957380789 3.99999999999347 -3.141816245469462e-10 -3.250942980765839e-10 -2.61396786656533e-10 5.222304816067576e-10
6964 9 -3.874217088341501e-05 0.009708518496095744 0.01634218310159753 3.999999944408286 -1.769327955113065e-07 6.683541987427212e-06 -5.997414295400835e-06 8.981648898866412e-06
6965 9 -0.0001991956929900587 0.009198980358908976 0.09225426471133633 4 0 0 0 0
6966 9 -0.0001852749740056332 0.008147261281239774 0.09552622389219351 4 0 0 0 0
6967 9 0.000839474642777707 0.00907385283039224 0.01730369356982273 3.999999993686162 1.636610012343183e-07 -1.118859271669099e-07 -1.152559253460051e-07 2.293192367647828e-07
6968 9 0.0002393185080736595 0.00819892907558805 0.02169991133920509 3.999999999946696 2.776145813149911e-10 -2.082807557769918e-09 -4.79192680945187e-09 5.232372284691311e-09
6969 9 0.0004924219674217252 0.008130577694462768 0.06369455594350688 4 0 0 0 0
6970 9 -8.726748107126238e-05 0.00890214991609741 0.07755625674445039 4 0 0 0 0
6971 9 3.494468765287139e-05 0.008921791733363646 0.07850000000000097 4 0 0 0 0
6972 9 0.000742910023839001 0.009015994463011025 0.09281952209034761 4 0 0 0 0
6973 9 -0.0005408500168070569 0.008311457012194797 0.00421716920432237 1.43381780675988 -0.0007513909148955878 -0.0009865220196460345 -29.83450952835889 29.83450955413129
6974 9 -0.0006896833428406339 0.008857416999385762 0.07548689653341256 4 0 0 0 0
6975 9 -0.0001936393310540884 0.009854605421810608 0.004516034528273677 1.814227285849001 -0.5634138758890396 -0.1275498986138978 -38.15139187758145 38.15576504761722
6976 9 -0.0005846788042878601 0.008979510107371681 0.07904354230978557 4 0 0 0 0
6977 9 -0.0006391136625898132 0.009152415221174747 0.08103351717471338 4 0 0 0 0
6978 9 -0.0008446926950629878 0.009338984436289343 0.05093310205603803 4 0 0 0 0
6979 9 3.037650805943143e-05 0.009682218173847871 0.0800435423097845 4 0 0 0 0
6980 9 -7.136730447388134e-05 0.008921703861789095 0.07578534039478199 4 0 0 0 0
6981 9 5.141492631845023e-05 0.009720182579762267 0.09166603659852929 4 0 0 0 0
6982 9 0.0004363195355548294 0.009800603796230621 0.009591241167663418 3.98735018786516 0.03663592192825962 0.4364149498316433 -1.181722595764027 1.260265246902953
6983 9 0.0002589209508522429 0.008444802911099695 0.00454845671549422 1.825285964997405 1.608347973644388 1.280775607130752 -36.20950696571538 36.26783098091665
6984 9 -0.0006811800802928549 0.009212506739915987 0.08297063253647541 4 0 0 0 0
6985 9 -0.0008397562272716385 0.008374939968694347 0.06347452611851602 4 0 0 0 0
6986 9 -0.0006390330809969687 0.009196365513064856 0.08910465134938245 4 0 0 0 0
6987 9 -0.0002211397078418441 0.008830282828850821 0.08948525735474563 4 0 0 0 0
6988 9 0.0008518145407988976 0.009084884449814389 0.03297773641413993 4 0 0 0 0
6989 9 -0.0001463534025252342 0.007899755362844461 0.06424805973007226 4 0 0 0 0
6990 9 0.0008573227104582083 0.009090136807179147 0.03689929464404287 4 0 0 0 0
6991 9 -0.000286944763710414 0.009338819371231872 0.08769137409389305 4 0 0 0 0
6992 9 0.0005794875119499986 0.009005181827287595 0.0889395852109868 4 0 0 0 0
6993 9 -6.218184712291123e-05 0.009124315232985035 0.08442079051372157 4 0 0 0 0
6994 9 5.759139142737457e-05 0.009705956752559964 0.08594614065291588 4 0 0 0 0
6995 9 -0.0001964625620575317 0.008517730715220204 0.08391917493537154 4 0 0 0 0
6996 9 -7.317283782508003e-05 0.008964050998783106 0.08713081157364408 4 0 0 0 0
6997 9 -0.0008605281670543102 0.00879815507532733 0.005847760298125812 3.074816501478122 1.77300468322084 -3.231438121710104 -30.1344533453385 30.35903516852186
6998 9 -0.0006759451811566507 0.00920736132601099 0.08489454167279509 4 0 0 0 0
6999 9 0.0007089049301277441 0.009008096014765482 0.05308132576181414 4 0 0 0 0
7000 9 0.0006500000000004451 0.008999999999999994 0.0789999999999999 4 0 0 0 0
7001 9 3.880421427558677e-05 0.009717293311104807 0.05191469701004441 4 0 0 0 0
7002 9 0.000544794160258578 0.009019720151472291 0.08492093189273937 4 0 0 0 0
7003 9 -0.0009426610651329403 0.00860229569902383 0.06825288634622925 4 0 0 0 0
7004 9 6.437871807974204e-05 0.009727505741046747 0.08397224811482457 4 0 0 0 0
7005 9 5.326745192615217e-05 0.009740024338576207 0.08990060571359818 4 0 0 0 0
7006 9 -0.0007059334215003795 0.008839550659543083 0.07710402324947124 4 0 0 0 0
7007 9 3.494468765095203e-05 0.008297291933523753 0.07800000000000097 4 0 0 0 0
7008 9 3.422283004436259e-05 0.009699860321216641 0.08814021605280634 4 0 0 0 0
7009 9 -0.0007463387620942027 0.008555790614585321 0.00740889768102135 3.746659543371818 -3.878156024911103 -1.872086190701865 -16.97560390388463 17.51330719083503
7010 9 -0.0006850340020317285 0.008260352756844745 0.07066314397514244 4 0 0 0 0
7011 9 -0.0004680836279570207 0.008032481418047877 0.02530456622747451 3.999999999999571 -1.937379841138225e-11 -4.407146451727509e-11 -3.951788781287453e-11 6.228403894075313e-11
7012 9 -8.726748106934303e-05 0.009526649715937301 0.07805625674445041 4 0 0 0 0
7013 9 0.000571420950852243 0.008444802911099693 0.00454845671549422 1.825273392778114 -1.956887857467871 0.9420390963367552 -38.21596856247482 38.27763186135992
7014 9 -0.0009518802590593188 0.008699216954743724 0.01016263827071316 3.996077165959801 -0.6604484211800923 0.004741603340992575 -0.4483438711454164 0.7982648850069616
7015 9 0.000501883158990897 0.009238112560199033 0.004315658240227175 1.524685688343304 0.0009288952435909845 0.0001805801954042141 -28.90209014547705 28.90209016096824
7016 9 -0.0003574572517628903 0.008719501398679729 0.08813095930487991 4 0 0 0 0
7017 9 -0.000203608861044709 0.009525998769129346 0.07622491625581598 4 0 0 0 0
7018 9 0.0001279984299619921 0.008197687530919779 0.008031643281477372 3.886117008644987 0.4043593719471291 -2.036634834921881 -8.256706396412939 8.513788138605817
7019 9 -0.0006869361718588196 0.009047097091809061 0.08660456273271758 4 0 0 0 0
7020 9 -0.0001436853258775563 0.008344733026230962 0.08757039678463091 4 0 0 0 0
7021 9 -6.576857810533804e-05 0.009095888141873962 0.08630340469163086 4 0 0 0 0
7022 9 -0.0001295589432826993 0.009543730671181562 0.004831692768500852 2.209370056176137 0.3165176301293317 -2.43713476634652 -45.36780825853045 45.43432441956523
7023 9 0.0005479947559284015 0.009012842048848007 0.08682965353255734 4 0 0 0 0
7024 9 -0.000589915675456191 0.008359182790589656 0.09177002823325267 4 0 0 0 0
7025 9 -0.0001923291433078741 0.008492697633812244 0.08575194709052786 4 0 0 0 0
7026 9 -0.0001897594537262029 0.008142380708112212 0.004449967679589415 1.734427490367024 2.469813788871814 -0.5651985407494706 -36.60680831102839 36.69438436958091
7027 9 0.0008576822815139038 0.008942117754205097 0.008864951972034194 3.954722651536254 1.88832179891682 -0.8313393010974147 -3.126722000849717 3.746101269374769
7028 9 0.0002589209508522462 0.009542777532755854 0.004548456715494217 1.836279973582001 3.403524214933658 -2.713055536579223 -36.52264139621891 36.78108184900229
7029 9 -0.0007563423014472322 0.008308653472841668 0.04481788655973241 4 0 0 0 0
7030 9 0.0002030481532266143 0.008148338102236434 0.09576329974368558 4 0 0 0 0
7031 9 -0.000552762558742892 0.009678968232469644 0.09574564200405031 4 0 0 0 0
7032 9 -0.0006095226904906292 0.008399572977471103 0.005881064643283818 3.085168609642192 -0.3222638117637519 1.457200241509422 -29.88931952640599 29.92655523543968
7033 9 -0.0005678900293100553 0.009742927334216733 0.07265085199299483 4 0 0 0 0
7034 9 -0.0008162529660961097 0.009268988339869767 0.09262967939005873 4 0 0 0 0
7035 9 -3.628965800811366e-05 0.009080542348664497 0.08857980126379317 4 0 0 0 0
7036 9 -0.001081207303311578 0.008815225164958718 0.03169884807554817 4 0 0 0 0
7037 9 0.0006890803877713894 0.008689125249370953 0.00504845671549422 2.355430928937547 7.367651821971453 0.9815332366471928 -41.19746137568364 41.86259099321718
7038 9 0.0006890803877713915 0.009298455194484594 0.005048456715494217 2.366419176172032 7.469907289098495 -2.343057655435925 -41.40563140594531 42.13924235447794
7039 9 -0.001018814497739645 0.008813435644576269 0.02867614676965477 4 -2.800513570861054e-13 -1.910357909703765e-14 -6.610296979878602e-14 2.883804985714279e-13
7040 9 0.0006555638855933981 0.008166467512310633 0.06053841982639786 4 0 0 0 0
7041 9 0.001029517134851611 0.009020403393503473 0.02493533058753837 3.999999999999607 9.844503891542998e-12 -4.556663375284088e-13 -1.851672473478941e-11 2.097596204195945e-11
7042 9 -0.001020471982982372 0.00883171836460417 0.01266041222953632 3.999998667288397 -0.0003542396554763173 -4.991217096959901e-05 -0.0001384048117672968 0.0003835790013064053
7043 9 0.0001948405630808509 0.008146347716615102 0.004232798475267046 1.430137703687453 0.000188231511928362 -0.00119702418633611 -27.40079663782904 27.40079666462202
7044 9 0.0008204017645187097 0.008434366607057868 0.05072199376392692 4 0 0 0 0
7045 9 -0.0007628404463353129 0.009278855485188857 0.09083585397206727 4 0 0 0 0
7046 9 -0.0009736091956562684 0.009407890688466126 0.0065788350874597 3.455624028345753 -7.118853034586973 2.67560960416239 -21.73565729560339 23.0277170677827
7047 9 0.0001553836551218695 0.009137052275819206 0.09017142777176773 4 0 0 0 0
7048 9 -0.0002886974616159557 0.009812675241646734 0.005392208112715625 2.761192292749242 4.168411520534334 3.226599079580573 -30.3444594896919 30.79890936293729
7049 9 -0.0009809546701455975 0.009235837500220823 0.008518522402270893 3.917323002767081 -4.729178134025195 1.868040051049507 -6.062884155550684 7.912854335781406
7050 9 0.0008904312241829638 0.008939336680123328 0.07088025994536112 4 0 0 0 0
7051 9 5.153492821342679e-05 0.009843382962117463 0.005645895443718877 2.924840497557768 -0.4259878319551912 3.688981872305943 -35.44935336605265 35.64332626114521
7052 9 0.0005714209508522462 0.009542777532755852 0.004548456715494217 1.83626740136271 -4.190719600721011 -2.018481327853693 -40.7899230931023 41.05428386397651
7053 9 -0.0003509108157209835 0.008891899358090824 0.0903986281301027 4 0 0 0 0
7054 9 -0.0007287663070765181 0.008352493662352892 0.04310032439843779 4 0 0 0 0
7055 9 -0.0002016719956620377 0.009848044536552225 0.09551284352878325 4 0 0 0 0
7056 9 0.0004300528737592039 0.009855294336745198 0.07004856140558817 4 0 0 0 0
7057 9 -0.0001256790659548109 0.008440835902596804 0.00476562591981659 2.129575751676976 3.527194873947365 1.927672664503261 -43.38384563623353 43.56965787986879
7058 9 0.0005231734465466832 0.009574438391652292 0.005585380099504103 2.903160286285175 -0.04914915598633245 3.544201802630895 -35.30164882139746 35.47915150573051
7059 9 -0.000810877215095488 0.009333070118816051 0.005334907487113173 2.749388189279334 -1.234111407357615 -1.133242521833051 -32.67218090131896 32.71511385319592
7060 9 0.0008029027773825757 0.008232424087119321 0.02561398883894373 3.999999999999762 -7.448677179165365e-12 1.424729863348578e-12 -1.407081353951134e-11 1.598438114431183e-11
7061 9 0.0006816037151457159 0.008402209764530594 0.08921040726915636 4 0 0 0 0
7062 9 -0.0006575435128949469 0.00959784798858669 0.005652858369213431 2.966440855432923 1.42404354724969 1.253967869804751 -31.9749509314259 32.03120076597286
7063 9 -0.0007892418495688822 0.008614078907372719 0.005173153253984556 2.608938947626024 -0.7965728823371442 -2.323392029722355 -32.72865463948681 32.82068727786567
7064 9 -0.0004274341786859921 0.008272880011202573 0.0899624577130806 4 0 0 0 0
7065 9 0.0003282776049174284 0.008380380871011504 0.005575209792417073 2.882625885023995 0.971265308729963 -4.75972084658705 -36.54018846964532 36.861682981581
7066 9 0.0001948405630808572 0.0098536522833849 0.09576720152473298 4 0 0 0 0
7067 9 -0.000898790655260324 0.008952205973643644 0.005449432781427035 2.821494947508459 -1.209772642578399 -0.6787218269588722 -33.68940345327055 33.71794949581542
7068 9 -0.0005250724118890458 0.008301167828318735 0.005457341868792892 2.801351761073665 -0.07540283281438252 -3.508760608320945 -34.13345666830075 34.31340773983933
7069 9 6.603597109281216e-05 0.007934125898671185 0.03231290584530132 4 0 0 0 0
7070 9 0.0001948405630808571 0.0098536522833849 0.004232798475267042 1.441137203254865 7.400272446380104e-05 0.0007964246859890986 -28.69312681145932 28.69312682260778
7071 9 -0.0009824693272903957 0.008513396368775033 0.02450624427045742 3.999999999998626 -1.254145277519551e-10 -7.003658353478557e-11 -1.149562892764905e-10 1.839806382440584e-10
7072 9 -0.001111863298125997 0.009117057495727847 0.02366217957551281 3.999999999996362 -3.402580808343271e-10 -1.515027503616633e-11 -2.524160975885513e-10 4.239327526018296e-10
7073 9 -0.0008882600659225195 0.009611296697544704 0.09432763114884356 4 0 0 0 0
7074 9 -0.0002564983409680203 0.007945845723987379 0.02184369123357923 3.99999999994732 -6.119353072697913e-10 -4.964641341335772e-09 -4.141694320938622e-09 6.494286744245196e-09
7075 9 -0.0006432182374507715 0.008183365880616363 0.008956823658092859 3.957048827263907 -2.164469077994004 -2.894210545137263 -3.549463664054824 5.065577298948407
7076 9 -3.764179853261147e-05 0.01003326546421364 0.07124268802781614 4 0 0 0 0
7077 9 -0.0001739818488087719 0.008132091524237356 0.005292378996739442 2.656758135544133 1.707476985746014 -4.275509407853336 -33.36503018392645 33.68116235416791
7078 9 -0.0007327964189937587 0.009439862821122951 0.03059526720974666 4 0 0 0 0
7079 9 -0.0005172577959653324 0.009031169414530226 0.03042663523935205 4 0 0 0 0
7080 9 -0.0003470625579032512 0.008967417711859363 0.03067320686058541 4 0 0 0 0
7081 9 -0.0001315239348748249 0.008558724305266637 0.0305045748901908 4 0 0 0 0
7082 9 -0.0005013247762718424 0.008584289509903892 0.02503510849955102 3.999999999999496 3.487196726257847e-12 -6.143107788927894e-12 -5.718262053408362e-11 5.761727523459446e-11
7083 9 -0.0001571077588251632 0.008826138149613846 0.03117754050352383 4 0 0 0 0
7084 9 -0.0003591728637387779 0.00835721976960237 0.03104521923605504 4 0 0 0 0
7085 9 0.000365797823886028 0.008423494376480127 0.02489717416789738 3.99999999999946 -2.275125379942283e-11 -1.860816149903862e-12 -3.422254640254573e-11 4.113714706276908e-11
7086 9 -1.060435033276296e-05 0.008918126796513978 0.02493294750669521 3.999999999999463 -5.621857262046264e-12 -8.701643291105936e-12 -4.943890820940001e-11 5.051266692600927e-11
7087 9 3.346328241173448e-05 0.008401170211833309 0.0379421679027159 4 0 0 0 0
7088 9 0.0004060210123642039 0.008707844826160866 0.03790780053564177 4 0 0 0 0
7089 9 -0.0003849673142771121 0.0093123871909539 0.03743899915171942 4 0 0 0 0
7090 9 0.0002377920630363874 0.009275032555511431 0.03759154227005418 4 0 0 0 0
7091 9 -0.0002378670988667349 0.008295742754869634 0.03716066350708979 4 0 0 0 0
7092 9 -2.992578197272526e-07 0.008824789142137714 0.03708826111361972 4 0 0 0 0
7093 9 -0.0003487917340810872 0.008287722976039361 0.03695320388554982 4 0 0 0 0
7094 9 -0.0008005554684024419 0.008300409204578689 0.03684440589300011 4 0 0 0 0
7095 9 2.91193141770337e-05 0.008430913968418569 0.05365673666839495 4 0 0 0 0
7096 9 -0.0004652469750410921 0.00817678623902638 0.05350891328992261 4 0 0 0 0
7097 9 -0.00013852676365971 0.008218858281235844 0.04617392609473915 4 0 0 0 0
7098 9 0.0002427021412432735 0.008523706747905497 0.04619490438848841 4 0 0 0 0
7099 9 -0.0004561438063940638 0.008328443528172403 0.04588282944946492 4 0 0 0 0
7100 9 -7.491490149108033e-05 0.008633291994842054 0.0459038077432142 4 0 0 0 0
7101 9 0.0001206370734628774 0.009112976112507042 0.06244950638024369 4 0 0 0 0
7102 9 -0.0003585733414877314 0.009262541706184976 0.01254963505078536 3.99999497687947 0.0005353873771255451 0.0006795633799985476 -0.000630161872425594 0.001070303702917705
7103 9 -0.0006024572623159077 0.008701692594071284 0.0123379649142681 3.999998604808642 -1.831214850471682e-05 6.234916202629716e-05 -0.0002510793262841055 0.0002593522332186877
7104 9 -0.0001346269944689463 0.009145254041429046 0.06170076979601812 4 0 0 0 0
7105 9 0.0003521412897558914 0.008798126541152498 0.06154627435149231 4 0 0 0 0
7106 9 -0.0001497874650585155 0.008737926080902344 0.02373466849890614 3.999999999997421 -2.742251700240201e-11 -4.729898744944334e-11 -2.594305668265151e-10 2.651290396324336e-10
7107 9 5.717855863887741e-05 0.008460002655855102 0.02875641799222042 4 0 0 0 0
7108 9 -0.0004802471575248845 0.008415179171272913 0.04987679041487279 4 0 0 0 0
7109 9 -0.000460773708614654 0.008379820336166435 0.05023256984653079 4 0 0 0 0
7110 9 -6.338227978789414e-05 0.008680568894453506 0.05024059636601648 4 0 0 0 0
7111 9 -0.000152913557887515 0.00796549873907844 0.05041598508074792 4 0 0 0 0
7112 9 0.0002444778709392449 0.00826624729736551 0.05042401160023361 4 0 0 0 0
7113 9 -0.0008388644667987113 0.008406998709604614 0.01597218756003396 3.999999984435395 1.994093899853541e-07 6.995738845018004e-07 -2.488953105142398e-07 7.688410760926144e-07
7114 9 -0.0009026790733188258 0.008724286806587709 0.01565171067573697 3.99999997566133 2.108918150805118e-06 2.032897248537272e-06 -1.072434916153307e-06 3.119346668661635e-06
7115 9 -0.0007292649317755702 0.009240760215257745 0.05961430659117321 4 0 0 0 0
7116 9 -0.0002310656590578537 0.009131400581288798 0.0270498068743932 3.999999999999972 9.450867723559678e-13 3.973832422612663e-13 -2.579493808853882e-12 2.775768498709466e-12
7117 9 -0.0005184873367152184 0.009620847890136959 0.02687868176963963 3.999999999999967 1.02233905120547e-12 3.503191357130203e-13 -2.54438109023286e-12 2.764376198132407e-12
7118 9 -0.0006467446108543396 0.009073348285220361 0.0289545372312663 4 0 0 0 0
7119 9 -0.0003577708458219577 0.008586534560502837 0.02908112974214966 4 0 0 0 0
7120 9 -0.0004452650025068419 0.008589137324765541 0.03909671566599153 4 0 0 0 0
7121 9 -0.0007507645596993436 0.009010049589304838 0.03906509844080077 4 0 0 0 0
7122 9 -0.0001860267665682218 0.007959587919050572 0.01400655009167412 3.999999992235266 6.158456777314755e-07 1.889280834127486e-06 6.105033321273175e-07 2.078788658695382e-06
7123 9 -0.000459749492918981 0.008467136117336077 0.01416349493646468 3.999999958488174 3.594256594165884e-07 4.697453022992051e-06 2.966618944846879e-06 5.567412295832654e-06
7124 9 -0.000388390686856143 0.008934194810754383 0.06551469418161562 4 0 0 0 0
7125 9 0.0001791983481741702 0.009114710278809904 0.06565864550841954 4 0 0 0 0
7126 9 -0.0007093796405777078 0.008432881917835285 0.06098908400235591 4 0 0 0 0
7127 9 -0.0004200930497835599 0.008890202259804402 0.06108336446673979 4 0 0 0 0
7128 9 -0.001006697691807825 0.008844786342884632 0.06126175132985524 4 0 0 0 0
7129 9 -0.0007174111010136765 0.009302106684853749 0.06135603179423911 4 0 0 0 0
7130 9 -0.0004810890995372156 0.00882309197470949 0.02223920673180134 3.999999999974636 -7.366169070959482e-10 -5.193021988975179e-10 -2.612818418662079e-09 2.763892062020369e-09
7131 9 -0.0005813164149896781 0.008268757267248088 0.02230471575343072 3.999999999975367 -4.118913300132411e-11 9.114662651978762e-10 -3.364917552763776e-09 3.486421866924444e-09
7132 9 -6.220763584590903e-05 0.008245456640362865 0.01807487225247048 3.999999995056903 8.035815109642172e-08 2.789810460787759e-08 -2.328880374064122e-07 2.47936634355147e-07
7133 9 0.0002883065127687017 0.008555635902250417 0.01809649395861338 3.99999999479904 4.850258475178276e-08 -1.303215721176784e-08 -2.610173611568125e-07 2.658051930915985e-07
7134 9 -0.0001135281272469264 0.008617899685161991 0.0263955357673272 3.999999999999935 1.006918336511676e-12 -1.11177602983436e-13 -4.33681882913966e-12 4.453565150818934e-12
7135 9 -0.0005751617715334893 0.009032140972937287 0.02647711141443733 3.999999999999948 8.690242432977741e-13 -4.606970395071394e-14 -4.47115856080409e-12 4.555061407809238e-12
7136 9 0.0003415627475289663 0.008687968498707366 0.04244245234243892 4 0 0 0 0
7137 9 -0.0002082348570175955 0.008484631102057209 0.04248500043025234 4 0 0 0 0
7138 9 2.548566709797029e-05 0.009101977370937608 0.0421999680127204 4 0 0 0 0
7139 9 -0.0005243119374485915 0.008898639974287449 0.04224251610053383 4 0 0 0 0
7140 9 0.0007722831738684599 0.009001990385621333 0.09503050126841853 4 0 0 0 0
7141 9 0.0004597831738684598 0.009001990385621333 0.09553050126841853 4 0 0 0 0
7142 9 -0.0004902761903731396 0.00920574342338073 0.06277656523398151 4 0 0 0 0
7143 9 -0.0007452876044181979 0.008696403533715796 0.06272940558726534 4 0 0 0 0
7144 9 6.245251507986489e-05 0.008464862197699777 0.09361803048063556 4 0 0 0 0
7145 9 -0.0006935591316550862 0.008914864709500293 0.09389286196215976 4 0 0 0 0
7146 9 -0.000107277821798428 0.009065530048490958 0.09390371053815637 4 0 0 0 0
7147 9 -0.0002998358815540194 0.00821455381655823 0.01189368396441783 3.999998604808642 -5.410132694022734e-05 0.0001062015693111116 2.12021776607473e-05 0.0001210589081331651
7148 9 0.0001936719356782313 0.0084692937233275 0.01185535410093509 3.999998967960062 -9.609686157827271e-05 5.633103481748136e-05 4.090709963606662e-05 0.0001186641609309107
7149 9 0.0001761925023301561 0.008456756871998374 0.02787521819831711 3.999999999999996 -3.486552570307963e-14 -2.576639751348878e-13 -9.003916556090517e-13 9.371827262894217e-13
7150 9 -0.0003146121550170589 0.008200117632659779 0.02791491723880882 3.999999999999996 1.422040952296874e-13 -4.651892004944422e-14 -9.989658830600301e-13 1.01010833584352e-12
7151 9 0.0002059550052245491 0.009195800458254867 0.05987104751112764 4 0 0 0 0
7152 9 -0.0002677406950774937 0.008928083824098276 0.05977052001421433 4 0 0 0 0
7153 9 3.454215628871893e-05 0.007888567284448011 0.06634411409548865 4 0 0 0 0
7154 9 0.0004186196582203984 0.008192759511858936 0.06637366189913305 4 0 0 0 0
7155 9 -0.0003993125210495311 0.008244476797494975 0.06608666126226757 4 0 0 0 0
7156 9 -1.523501911785162e-05 0.0085486690249059 0.06611620906591197 4 0 0 0 0
7157 9 0.0003309809463176913 0.008253305010153918 0.05817931811551595 4 0 0 0 0
7158 9 -3.763352627409264e-05 0.007945884425342577 0.05813869928915724 4 0 0 0 0
7159 9 -3.915642439977529e-05 0.008649429337869947 0.05792570610578077 4 0 0 0 0
7160 9 -0.0004077708969915592 0.008342008753058607 0.05788508727942206 4 0 0 0 0
7161 9 -0.0005819520310126143 0.0082716823829143 0.0573824567982615 4 0 0 0 0
7162 9 -0.000151227645570264 0.008224948866804643 0.05756711288481012 4 0 0 0 0
7163 9 -0.0002330822031334552 0.008473925756487061 0.03943269473818031 4 0 0 0 0
7164 9 0.0003060497791759496 0.008689086613973985 0.03947576123097409 4 0 0 0 0
7165 9 -0.0005437403762227592 0.008879759596373826 0.03976921273637329 4 0 0 0 0
7166 9 -4.608393913354484e-06 0.009094920453860754 0.03981227922916707 4 0 0 0 0
7167 9 -0.0004208473151127293 0.008865676133004491 0.05229496955079662 4 0 0 0 0
7168 9 9.753439821702135e-05 0.009100769667829262 0.05220027999091099 4 0 0 0 0
7169 9 -0.0007962579940276106 0.008598659931263712 0.04402702225702744 4 0 0 0 0
7170 9 -0.0002692677703880612 0.008825926721541253 0.04404520353680653 4 0 0 0 0
7171 9 -0.0002296195257894265 0.00916246085077903 0.05368163361863729 4 0 0 0 0
7172 9 -0.0008348167045119938 0.009271935101485985 0.05387714223844353 4 0 0 0 0
7173 9 -3.585617234146669e-05 0.008468508331796245 0.0163763444874197 3.999999987485609 -3.270377508032243e-07 3.518694380820905e-07 -1.713904148221264e-07 5.100396712017003e-07
7174 9 -0.0005785396461101558 0.008257151244373609 0.01648895467720711 3.999999987284438 1.997961486679554e-07 6.997304349538159e-07 -2.482087063267767e-07 7.68861980149634e-07
7175 9 0.0002051890366783251 0.008819099739290667 0.01059851637966034 3.999564501699986 0.01360849361573091 0.07846700591851542 0.09266917087081548 0.1221877135647857
7176 9 -0.0005283328983849216 0.009030191396357475 0.01041090359294531 3.998860056593015 -0.03070057763673399 0.04972675656834743 -0.1164596392385146 0.1303001280030138
7177 9 3.373339359172018e-05 0.008842114508066996 0.01026974510341886 3.999269810019225 -0.08382799591975403 0.08012437935712763 -0.1612648938512882 0.1986288374233572
7178 9 0.0001947793794593391 0.008571041466397753 0.06034817726914467 4 0 0 0 0
7179 9 -0.0003945072113351844 0.008425971024348573 0.0605038968047608 4 0 0 0 0
7180 9 -0.0003830411593721396 0.009028184997501524 0.04963470320418269 4 0 0 0 0
7181 9 0.0002123561831175557 0.009160945472087404 0.04978846479953401 4 0 0 0 0
7182 9 4.480282127701732e-05 0.00910947425070693 0.05469550861980615 4 0 0 0 0
7183 9 -0.0002126736269788692 0.00860320685209166 0.05457716463888029 4 0 0 0 0
7184 9 4.451568631011403e-05 0.009733985412918077 0.0541957061759021 4 0 0 0 0
7185 9 -0.0002129607619457725 0.009227718014302807 0.05407736219497625 4 0 0 0 0
7186 9 -0.0002421935639966619 0.008906658591267816 0.07141634136606012 4 0 0 0 0
7187 9 0.000457714166893939 0.008721615019318054 0.0153197387655524 3.999999946561903 -3.445793827427087e-06 4.274112939135215e-06 -1.813891977860361e-06 5.782018732671476e-06
7188 9 -0.0005539944772049323 0.009287957343461325 0.008851878729702202 3.958709309155776 -0.7269712989172861 0.2299585014480216 -4.681627602475474 4.743311626922478
7189 9 -0.0003315326937707567 0.008720592425170804 0.008703815608053233 3.950427978202083 -0.5189461124677723 -0.05964204286000815 -4.510367821057821 4.540515402699985
7190 9 -7.645158536540692e-05 0.008365037891771907 0.009447920773821918 3.982906815340077 0.3506037319709172 -0.3529806889267655 -2.399625963196402 2.450657688636544
7191 9 0.0002352339583146079 0.008902264436326348 0.009194912723782292 3.976285966278252 0.3046882211146699 -0.5581769968387024 -2.181909153064863 2.272690921378031
7192 9 0.0001330338115252573 0.00884317379984143 0.02954143070165795 4 0 0 0 0
7193 9 0.0001757876267359497 0.009457932435937309 0.02968024729082363 4 0 0 0 0
7194 9 -0.0003810922089038346 0.008677940559951376 0.07413303694839748 4 0 0 0 0
7195 9 -0.0004620445551700844 0.009328598516963901 0.01481842591892741 3.999999903839575 4.402439016902915e-06 7.156714674137292e-06 -2.130875920926378e-06 8.668371612647037e-06
7196 9 -9.519054946825856e-05 0.009526556079304744 0.01454467823029342 3.999999215668768 0.0001042672720768409 7.603259691620942e-05 -7.538530328845999e-05 0.0001494508741093937
7197 9 -0.0005238124445292717 0.009042396203225774 0.03008841673799683 4 0 0 0 0
7198 9 0.0008202163338441291 0.009058873774919308 0.04922188003375114 4 0 0 0 0
7199 9 0.0005218412759769206 0.00874669316051517 0.04893107883357434 4 0 0 0 0
7200 9 0.0007907290684205548 0.009040038990184115 0.04519458896332008 4 0 0 0 0
7201 9 0.0004907290684199944 0.008727789090264173 0.04494458896332008 4 0 0 0 0
7202 9 0.0005555989953125313 0.008713250827203922 0.0140062648676371 3.99999910831902 -4.279160229097871e-05 7.275899500740868e-05 1.14452408548988e-05 8.518207627983753e-05
7203 9 -0.0004403921648229041 0.009140106029710687 0.07251428571580291 4 0 0 0 0
7204 9 -0.0001021524538052994 0.008866731856195817 0.07215468146925451 4 0 0 0 0
7205 9 -0.0007633202246840754 0.008623897256637911 0.07231701402710036 4 0 0 0 0
7206 9 -0.0004250805136664707 0.00835052308312304 0.07195740978055196 4 0 0 0 0
7207 9 8.073449586450934e-05 0.009422867364340594 0.07161361305476269 4 0 0 0 0
7208 9 0.0006376398853199668 0.009228130989707794 0.07171027555069279 4 0 0 0 0
7209 9 0.0006871711824528292 0.009003722715325612 0.03483011782230378 4 0 0 0 0
7210 9 0.000406775874662811 0.008692876227910838 0.0352354991558076 4 0 0 0 0
7211 9 -0.0007121552888764905 0.009532728841502486 0.01343611858173699 3.999995973022674 0.0008195251388114441 -6.066427512431861e-05 -2.780192389053529e-05 0.0008222375291801578
7212 9 -0.0003824555894712488 0.009658607509855043 0.01371110856236394 3.99999527341176 -9.221047282848398e-06 0.0002969918673130225 -0.000777897449920017 0.0008327146207165656
7213 9 -0.0001087328631204896 0.009151059311569539 0.01355416371757338 3.999995307158852 5.810643451622577e-05 0.0002458428512355626 -0.0007808242120187594 0.0008206713808282435
7214 9 7.262457446664735e-05 0.008493428884344912 0.09074457427848108 4 0 0 0 0
7215 9 0.0005789190453095003 0.008738581802073294 0.09051737392014612 4 0 0 0 0
7216 9 -0.0002445908026808508 0.008677023096921494 0.07346946072056754 4 0 0 0 0
7217 9 0.0005476961423892342 0.008734727265269523 0.0588850084207681 4 0 0 0 0
7218 9 0.0007887391117692793 0.009038947814830164 0.05921578551290665 4 0 0 0 0
7219 9 0.000461410843541501 0.009330156229231236 0.0310124171378397 4 0 0 0 0
7220 9 0.0008383814010854279 0.009024378863800151 0.03063087536830099 4 0 0 0 0
7221 9 0.0004602436814465103 0.009329987492165674 0.01500903295976728 3.999999246950989 7.72896101072203e-05 7.136876769380897e-05 -8.557204105618662e-05 0.0001356088457409055
7222 9 0.0008373104998765409 0.009024230438350357 0.01462756444190152 3.999999105854149 -5.402161471193651e-05 6.602374786973234e-05 -2.360614309754258e-05 8.851395444105161e-05
7223 9 -0.0002154128480730332 0.008656582945953178 0.07495186537819239 4 0 0 0 0
7224 9 0.0004029031902937193 0.008720869808356509 0.0752503092395618 4 0 0 0 0
7225 9 0.0006928738024449754 0.009032556633043023 0.07488362835614636 4 0 0 0 0
7226 9 0.000894815271502048 0.00903205134276865 0.07305352446795861 4 0 0 0 0
7227 9 0.0005948152715008757 0.008719801442848684 0.07280352446795862 4 0 0 0 0
7228 9 0.0004673174070137247 0.009322622747354726 0.07344009074515054 4 0 0 0 0
7229 9 0.0001673174070125524 0.00901037284743476 0.07319009074515052 4 0 0 0 0
7230 9 -0.0003824432191083813 0.00965099356978001 0.02971393771817693 4 0 0 0 0
7231 9 -0.0007141707993514557 0.009523048658401659 0.02944852861812789 4 0 0 0 0
7232 9 -0.0008561210841885362 0.008400948790346164 0.09358387662549356 4 0 0 0 0
7233 9 -0.0004821472293149319 0.008255611251102466 0.09333201422145153 4 0 0 0 0
7234 9 -0.0002629876273555781 0.008517205691926856 0.03652200349953003 4 0 0 0 0
7235 9 -0.0002172004011766459 0.009140177671160942 0.03663795353315839 4 0 0 0 0
7236 9 0.0001887761069657766 0.008504519463387527 0.03663080149207974 4 0 0 0 0
7237 9 0.0002345633331447088 0.009127491442621613 0.0367467515257081 4 0 0 0 0
7238 9 -0.0001970251690909063 0.008914082882618732 0.02349495625770035 3.99999999999626 6.712608560522312e-12 -2.905360898253134e-11 -3.974807282576082e-10 3.985976676359198e-10
7239 9 -9.76826761116649e-05 0.009509572587581729 0.02351388613257968 3.999999999997236 -8.101808648465654e-11 -1.592323402015184e-10 -2.125937451802967e-10 2.776958209866909e-10
7240 9 0.0001745260899607375 0.008422405664832806 0.02318565421878003 3.999999999992814 1.105195601826775e-10 -4.306692694257339e-11 -6.224474435905254e-10 6.336482884152926e-10
7241 9 0.0002738685829399789 0.009017895369795803 0.02320458409365937 3.99999999999379 6.062149202397497e-11 -1.672305471775636e-10 -5.191396245528306e-10 5.487685951158049e-10
7242 9 0.0002527910900639471 0.008872464637915307 0.03004187736901568 4 0 0 0 0
7243 9 -0.0001380785834387642 0.008569951093962186 0.03016635638883558 4 0 0 0 0
7244 9 -0.0001707078409637746 0.009125101513640479 0.01101573902024521 3.999509467513764 0.02469395541474731 0.02158282546293489 -0.05850478242802288 0.0670702568650168
7245 9 -0.0004660517397100855 0.009622307275895269 0.01085778282339247 3.999097084231439 -0.02748629545253089 0.05622960186102835 -0.08726424096186691 0.1073886042082881
7246 9 -3.21543922528967e-05 0.00856529197267417 0.01391334254261849 3.999999294048224 3.752744062174916e-05 7.596582960460682e-05 -2.685942578392287e-05 8.888500897551357e-05
7247 9 -0.0003058771186036559 0.009072840170959676 0.01407028738740905 3.999999260301132 0.0001040994420438413 6.076856453373786e-05 -0.0001733672901992562 0.0002111533319186871
7248 9 -3.882745543247579e-05 0.008569186114605599 0.01312040846043012 3.999995942140369 0.0002375940701789468 0.0004252607455522031 0.0001241927931853457 0.0005027141272840778
7249 9 -0.0003264597248606854 0.00905817562930078 0.01298510367092402 3.999995942140369 0.0006529294094447401 0.0003172972039335441 0.000706161752543643 0.001012748117795048
7250 9 -0.0002827113762606521 0.008008337002491907 0.01290873832391286 3.999999570069541 -5.915100063737711e-05 -0.0001018604896297757 -4.794219840111257e-05 0.0001271725387477669
7251 9 -0.0005703436456888617 0.008497326517187088 0.01277343353440676 3.999999570069541 -5.140253201646209e-05 -3.091248446347633e-05 -6.650676634727465e-05 8.955976754871052e-05
7252 9 -0.0003529401004101005 0.009258841175225768 0.07447175077196883 4 0 0 0 0
7253 9 0.0002653759379566521 0.009323128037629099 0.07427019463333825 4 0 0 0 0
7254 10 0.006943549036592193 -0.000386217453957853 0.005549348423721408 1.129426245742225 -0.2153146388336598 0.04445288897776796 0.02226817160735014 0.2209803713031398
7255 10 0.003185868791443879 -0.0003862174539578529 0.008580069404314666 1.129423332418895 -0.1062723792145535 -0.01753828323987172 -0.09937859654812184 0.1465520911307587
7256 10 0.006580069404314664 0.0003868232814870903 0.00518586879144388 1.129425904101426 -0.2153268722372099 -0.07012657474046265 0.02228046340420688 0.227551790680266
7257 10 0.003549348423721408 0.0003868232814870904 0.008943549036592193 1.129423878732714 -0.1062701975431743 -0.03834276769182051 -0.09938087769258055 0.1504662140517992
7258 10 0.003650980685903567 -0.001331663943113175 0.007560541789070981 1.129422248599462 -0.1949463152807673 -0.06685019085453991 -0.3831240102765807 0.435036804315734
7259 10 0.005560541789070982 -0.001331663943113175 0.005650980685903566 1.129423919593897 -0.5272658029847309 -0.01975833991263189 -0.07773242531133956 0.5333309937909283
7260 10 0.005592204861136168 0.001439729763712498 0.005732172732050089 1.129424462552457 -0.3949085601952824 0.006449582709996282 -0.01234204140855025 0.3951540130364039
7261 10 0.00658774964946298 -0.001522858987186172 0.005541668178573093 1.129426105536618 -0.2151766574781856 0.06383848211577102 0.005864284513910626 0.2245233519150961
7262 10 0.003541668178573093 -0.001522858987186172 0.00858774964946298 1.129423531344793 -0.1175062977042774 0.01058997220401311 -0.09401864693415182 0.1508621340256618
7263 10 0.00658774964946298 0.001523222483703715 0.005541668178573093 1.129426135795485 -0.188416943974956 -0.04887840568253687 0.04298593825451567 0.1993435080622125
7264 10 0.006580069404314666 -0.0007727984044332483 0.005178188546295565 1.129425912758511 -0.2270557216460887 0.02892570617586991 0.01774338440779374 0.2295774921464245
7265 10 0.003549348423721408 -0.0007727984044332485 0.008951229281740509 1.129423734257851 -0.1098389381850143 -0.01194451405101225 -0.1016860444552101 0.1501576351521066
7266 10 0.006951229281740507 0.0007732830664566381 0.005549348423721408 1.129426366881639 -0.1966128099659401 -0.02476815502662723 0.05118177449032842 0.2046695692722901
7267 10 0.003178188546295565 0.0007732830664566382 0.008580069404314666 1.129423407831016 -0.1233491820538532 0.02024035091858264 -0.1436532243256086 0.1904230589445659
7268 10 0.003682643757968752 0.001076250131434969 0.008005213467495033 1.12942299771763 -0.0688673336052162 0.1805134211486491 -0.1981349758233795 0.2767404442744372
7269 10 0.00404612339024628 0.001439729763712498 0.008005213467495033 1.129423243754082 -0.2960539515202698 -0.06288316382884485 -0.2105089313450677 0.3686682040533656
7270 10 0.003319164125691223 0.0006897903464654213 0.007634053590069189 1.129422485519922 -0.1690946568063941 0.02259813960571772 -0.2622947491739932 0.3128932954193166
7271 10 0.003231414476228245 0.001826068383176198 0.008327024921199468 1.129422891723675 -0.08534658419755864 -0.03402997867023747 -0.18165570017405 0.2035703128852833
7272 10 0.00517402142134851 -0.001695143575390704 0.006093768245348342 1.129422993232081 -0.5027081414193253 0.01881317632096172 -0.1243446683738149 0.5181997757675605
7273 10 0.005495832875052945 -0.001639058131927171 0.00483627177188553 1.129423039685386 -0.6954022291125674 -0.1878295879088774 -0.2458036281423994 0.7611068505516905
7274 10 0.003791956265299225 0.0001079446550934745 0.006970325361954718 1.12942164271058 -0.2053405285407409 -0.09550414611990668 -0.3563452135373111 0.422217581110066
7275 10 0.006580069404314666 0.001807757685331539 0.006678127963542642 1.129425831589916 -0.1431968196484337 -0.07709468299467191 0.02834868514920082 0.1650835159946732
7276 10 0.005205684493413696 0.0009973057007852651 0.005368693099772561 1.129422965263078 -0.5880085632029092 -0.4388233508519314 -0.2997674898454042 0.7925784198557777
7277 10 0.005830069404314665 0.0006943386358069342 0.004814708914018037 1.129424175725892 -0.6651391749857174 -0.0611871898598788 -0.1511573059310253 0.6848375905570278
7278 10 0.00658774964946298 -0.001522858987186172 0.00858774964946298 1.129425718589323 -0.1183378091016763 0.05360511395455821 -0.06479697533706504 0.145175732537839
7279 10 0.00658774964946298 0.001523222483703715 0.00858774964946298 1.129425762904315 -0.1134200525496177 -0.06026636150787337 -0.06800819106970149 0.1453315406315117
7280 10 0.006943549036592193 -0.0003862174539578529 0.008580069404314666 1.129425745304383 -0.1288386806413306 0.02371594864809812 -0.07835165979357782 0.1526461085061999
7281 10 0.006943549036592193 0.0003868232814870904 0.008580069404314666 1.129425746536623 -0.1288445002757432 -0.02428559974292223 -0.07835747937290877 0.1527435438238069
7282 10 0.004291668178573093 -0.001886338619463701 0.008508805218813276 1.129424138882233 -0.1814439845565811 0.03750295453191359 -0.1209316741387526 0.2212529343091139
7283 10 0.006951229281740507 0.001444278053054011 0.006291668178573094 1.129426187536334 -0.1606906664719198 -0.02115212178716993 0.1088334218605985 0.1952270889532906
7284 10 0.004291668178573093 0.001444278053054011 0.008951229281740509 1.129424323344706 -0.06471074232884166 0.03452818345538605 -0.113097725169575 0.1347990024592588
7285 10 0.004432643757968752 0.001803209395990026 0.007562425908050257 1.129423276984262 -0.2034089810599634 0.005896374784821151 -0.2408621995671024 0.315316634498972
7286 10 0.006580069404314666 -0.0007727984044332483 0.008951229281740509 1.129425690353751 -0.1309329887529818 0.02080301541924777 -0.07739215632685525 0.1535114290704191
7287 10 0.006580069404314666 0.0007732830664566382 0.008951229281740509 1.129425709572099 -0.1253651108960686 -0.02912812037834276 -0.0799532515604774 0.1515169325912183
7288 10 0.005830069404314665 -0.002249818251741229 0.006371036688493264 1.129424714310857 -0.4647723628088812 -0.07612297984400555 0.06054519930510704 0.4748407927402366
7289 10 0.005109312507330473 -0.0020025377642047 0.005279059331330306 1.129422113323569 -0.5159193011002324 0.01569351282346011 -0.1887332632360423 0.5495809824259003
7290 10 0.005166341176200196 0.0001124929444349875 0.005287501053626039 1.12942233142397 -0.5526941162415552 0.0773370122626333 -0.107822100978459 0.5683989840359968
7291 10 0.007314708914018036 -0.0006934904772660012 0.006299348423721408 1.129426453254911 -0.1475934207342632 0.0423741797639891 0.1268992812703442 0.1992054631320186
7292 10 0.004299348423721407 -0.0006934904772660013 0.009314708914018036 1.1294243983818 -0.1016237307886448 -0.01210773476283442 -0.09636886567257699 0.1405736041065651
7293 10 0.007314708914018036 0.0006943386358069341 0.006299348423721408 1.129426418622488 -0.1596259418067227 -0.02363249303624157 0.1083268442931756 0.1943544216613276
7294 10 0.004299348423721407 0.0006943386358069342 0.009314708914018036 1.129424548209952 -0.07948548954774616 -0.0378104876664357 -0.08204461907580267 0.1203282824007395
7295 10 0.005527495947118131 0.002189548015453726 0.005359887880959284 1.129424347103261 -0.347465125245448 -0.04059105005785307 0.03469859196160854 0.351544647080214
7296 10 0.006580069404314664 -0.001807030692296453 0.007451289864493432 1.129425657890856 -0.152475807000357 0.06101862554162398 -0.01337716118391581 0.1647758866604562
7297 10 0.004678188546295564 -0.001443551060018925 0.008872284851090805 1.129424538998464 -0.1139533847589595 0.0479828204547533 -0.07057888769184222 0.1423696047077262
7298 10 0.004678188546295564 0.001807757685331539 0.008508441722295732 1.129424356574886 -0.1723915172184366 -0.04031757839865743 -0.08969271563301937 0.1984669382401817
7299 10 0.004541956265299225 0.0004154600094133183 0.005841485239380562 1.129421120961156 -0.3573233973263744 -0.1121606650395983 -0.1948379083134444 0.4221632807042142
7300 10 0.002504455211673187 0.0009971845352794173 0.007569344676051152 1.129421438968635 -0.2375564564733581 0.02377968629695292 -0.3217494276445535 0.4006510173232532
7301 10 0.006951229281740507 -0.001443551060018925 0.00783774964946298 1.129425827258941 -0.1423402540329533 0.0776075526576214 0.01515805202085415 0.1628295018991892
7302 10 0.00583774964946298 -0.0018863386194637 0.008508805218813276 1.129425282470166 -0.1253101928168124 0.05151197583688857 -0.06270383289784903 0.1492913217119075
7303 10 0.00583774964946298 0.001886702115981243 0.008508441722295732 1.129425297559476 -0.1506826403297527 -0.04907633091380768 -0.05681815728593333 0.1683509648029266
7304 10 0.002977247351281189 0.0004153388439074705 0.006905616447936682 1.129420596159293 -0.2721343195114073 -0.08280153852298612 -0.4082641993055192 0.4975870165833178
7305 10 0.005830069404314665 -0.002249818251741229 0.007758865801566199 1.129425223450071 -0.1353152040952376 0.06823380026658683 -0.01371819329997519 0.1521651891385535
7306 10 0.005830069404314665 0.002250181748258772 0.00775838113954281 1.129425287564097 -0.1635655437133872 -0.07049445719537957 0.005968821094917588 0.1782099391470361
7307 10 0.003239094721376558 0.002189548015453726 0.007576964338446543 1.129422118191091 -0.1198360799821294 0.0004595988723700524 -0.2164655372807983 0.2474231721704163
7308 10 0.005140975579395659 0.001747123952526494 0.004996408248681756 1.129422849813881 -0.6884943605248541 0.05316618893979237 -0.3402669330023909 0.7698264179773017
7309 10 0.005198004248265381 0.001803209395990026 0.007175844957574861 1.129423976228066 -0.3010397671618402 -0.02754131881508603 -0.1635248271744295 0.3436914819388985
7310 10 0.005451229281740508 -0.001443551060018925 0.008872284851090805 1.129425036352004 -0.1129901912740095 0.04792008743604073 -0.07051611306435637 0.1415473076597366
7311 10 0.005451229281740508 0.001444278053054011 0.008871921354573261 1.129425065814069 -0.105674460494903 -0.03596613056656678 -0.08534487105033801 0.140514772046995
7312 10 0.007314708914018036 -0.000693490477266001 0.007830069404314665 1.129425905276068 -0.166788360495706 0.02536073977069738 0.004437824064902693 0.1687637952909143
7313 10 0.005830069404314665 -0.000693490477266001 0.009314708914018036 1.129425310821103 -0.1185035537141106 0.0210499444718457 -0.08308960660348189 0.1462534619441956
7314 10 0.005830069404314665 0.0006943386358069342 0.009314708914018036 1.129425368276609 -0.1069965565347753 -0.02949315527586022 -0.08837325303562753 0.1418729754763902
7315 10 0.007314708914018036 0.0006943386358069342 0.007830069404314665 1.129425913782592 -0.1681089355129665 -0.02598788173457254 0.007298908004199764 0.1702623218871593
7316 10 0.005443549036592193 -0.002249818251741229 0.007065132993288504 1.12942429460465 -0.2699796077255643 0.02614091959006084 -0.179616634303166 0.3253221043566836
7317 10 0.004787501053626038 -0.001695143575390704 0.006787864550143581 1.129422573525874 -0.4610501613507104 0.04262221201432683 -0.1796163606001802 0.4966346154203957
7318 10 0.00287561508909903 0.001747123952526494 0.007190443970724071 1.129421177633758 -0.2366297593730125 0.01060717282400824 -0.3190589486835786 0.3973723290206788
7319 10 0.004343952017033844 -0.002445325323649476 0.006723216218878468 1.129421860118897 -0.3071076066133736 0.1195573820890023 -0.1796162471471398 0.3753279178145328
7320 10 0.005101632262182158 -0.0001949012443790085 0.004472792139608002 1.129421451515458 -0.625768448799264 -0.01268669017588225 -0.2464239445490881 0.6726602887545747
7321 10 0.002472792139608002 -0.0001949012443790085 0.007101632262182158 1.129420167891329 -0.1913628343173567 -0.03033950951774322 -0.3656791417347638 0.4138374740107798
7322 10 0.003989094721376558 0.002553027647731255 0.007497656411279295 1.129422701716011 -0.1987246953080971 -0.02237930331924943 -0.2180329364568134 0.2958558755920387
7323 10 0.004685868791443878 6.058275292381985e-07 0.009314708914018036 1.129424666020082 -0.100986707538125 -0.01132231531732018 -0.0959564259767245 0.1397646078582208
7324 10 0.007314708914018036 6.058275292380901e-07 0.006685868791443879 1.129426163354961 -0.1709419089266413 -0.002086726304567951 0.09083750953586341 0.1935896272862583
7325 10 0.007314708914018036 6.058275292381985e-07 0.007443549036592194 1.129425910871979 -0.1769980664769455 -0.002086725838092154 0.02670015924046734 0.1790127606199259
7326 10 0.005443549036592193 6.058275292381985e-07 0.009314708914018036 1.129425081105845 -0.09224674869827709 -0.01132231947839162 -0.09513118325658998 0.1329947352024611
7327 10 0.005133295334247345 0.002553027647731255 0.006803560106484056 1.12942386077887 -0.2491304320421684 -0.1281122521622138 -0.09952528648453335 0.2972944734996273
7328 10 0.003239094721376558 0.0006896691809595732 0.004925144063180367 1.129413953606412 -0.4368841626664249 -0.05865136116088261 -0.6726045532491695 0.8041794817118143
7329 10 0.004098407228707032 0.0004153388439074705 0.005026776325362525 1.129417853138619 -1.125733086995622 -0.007989842778449035 -0.5345680728809746 1.246235068230707
7330 10 0.002977247351281189 0.0004153388439074704 0.006147936202788367 1.12941813836178 -0.4216450228890869 -0.01034052211382132 -0.7947184823423482 0.899704906011549
7331 10 0.002867934843950716 0.001076128965929121 0.005288623695457895 1.129414692779806 -0.3891872939830139 -0.1247349218028596 -0.6947024239109877 0.8060006254977647
7332 10 0.003348407228707032 0.0001078234895876266 0.005397936202788368 1.12941591709053 -0.4512748674034583 -0.0260079325355674 -0.6869956677756345 0.822367597882646
7333 10 0.003207431649311373 -0.002081845691371947 0.005949811986915982 1.12941710542164 -0.5805111887497242 0.01301032614007364 -0.4929776232212156 0.7617016777234561
7334 10 0.002472792139608002 -0.0001949012443790086 0.006343952017033843 1.129417710093816 -0.4333992371962221 -0.03033944349577382 -0.7784844817824245 0.8915119006552579
7335 10 0.004343952017033844 -0.0001949012443790085 0.004472792139608002 1.129417697276868 -1.121920399718635 -0.01268664800588928 -0.5373285484037577 1.244021022037866
7336 10 0.003949751404163058 -0.001639058131927172 0.004836271771885529 1.129416568961004 -1.187765492871498 0.1569452006501824 -0.6160786972282071 1.347208826886836
7337 10 0.002843952017033845 -0.0005817245258660996 0.005207431649311372 1.129413598575817 -0.4796191432330976 -0.1093412992452057 -0.7153394597190952 0.8681593084840403
7338 10 0.003981414476228243 0.002189548015453726 0.005359887880959284 1.129418237363329 -0.563995738244769 -0.09133123484442141 -0.6451859579362679 0.861798994855882
7339 10 0.002843952017033845 -0.001639058131927171 0.006336332354638452 1.129417772407538 -0.4250126913783476 -0.1815595350527517 -0.8252165171469086 0.9458234257900954
7340 10 0.00437561508909903 0.002553027647731255 0.006803560106484056 1.12942269226077 -0.2948450167059629 -0.1029986170802848 -0.09952518351677 0.327791947965226
7341 10 0.002371159877425843 -0.0006363992022166245 0.004734639509703371 1.129407322891324 -1.942842165678244 -0.08027063024306158 -2.178561172395979 2.920138324923716
7342 10 0.007628840122574157 -0.0006363992022166245 0.004734639509703371 1.129427906552389 -0.5323199821695694 0.03815498152453696 0.3392732310772888 0.6323975738076261
7343 10 0.007628840122574157 -0.0006363992022166244 0.009265360490296628 1.129426399836556 -0.04012699140164243 0.02547840850682995 0.01036005870396086 0.04864828419726543
7344 10 0.002371159877425843 -0.0006363992022166244 0.009265360490296628 1.129423246510688 -0.08520477615785141 -0.01795683407168354 -0.1204461839626168 0.1486256539132597
7345 10 0.002734639509703371 0.0006366415332283189 0.009628840122574157 1.129423844272916 -0.09857371589299393 -0.03818981182073549 -0.1070773530683044 0.1504685971622325
7346 10 0.007265360490296628 0.0006366415332283188 0.004371159877425843 1.129427530958146 -0.4984582071997832 -0.06449991776875116 0.3054115203041379 0.5881301050375525
7347 10 0.002734639509703371 0.0006366415332283188 0.004371159877425843 1.129407388267003 -1.97087937937081 -0.08913667302436946 -2.206598399732793 2.959964082925711
7348 10 0.007628840122574157 0.0006366415332283189 0.009265360490296628 1.12942640490504 -0.04159371396598287 -0.02601957958238753 0.008893336366183703 0.0498612775092083
7349 10 0.003239094721376558 0.002189548015453726 0.006030882867556656 1.129418407218999 -0.4479066029592526 0.01690543410181445 -0.4771425147457669 0.6546534182715177
7350 10 0.003207431649311373 -0.0009683054763414951 0.004836271771885529 1.129412957786127 -0.5077210182771017 -0.05592431979583774 -0.6872231092506277 0.856261504350782
7351 10 0.006023040735444943 0.002636520367722472 0.009193732808277696 1.129425807159569 -0.1579061298923548 -0.01387180713771104 -0.02161363700288645 0.159981005732992
7352 10 0.003976959264555057 -0.002193732808277696 0.004363479632277528 1.129416349751442 -1.257601526402574 0.4973038131267759 -0.2757199347183293 1.380179033372698
7353 10 0.003976959264555057 -0.002636520367722472 0.00919409630479524 1.12942430140661 -0.1682704503933517 -0.02699619876840379 -0.05643253284355194 0.17952261692239
7354 10 0.006023040735444943 -0.002636520367722472 0.00919409630479524 1.129425786246137 -0.1336532841822822 0.01066360568022575 -0.02185546773315038 0.1358476143649494
7355 10 0.003976959264555057 0.002194096304795239 0.009636520367722471 1.129424468713089 -0.06178156407906584 0.04886979837315667 -0.09875612925229273 0.126324945747007
7356 10 0.007265360490296628 -0.00102298015269202 0.004363479632277528 1.129427573568675 -0.5427635542518666 0.02265355401829081 0.3334509092292945 0.6374127141810255
7357 10 0.007265360490296628 -0.00102298015269202 0.009636520367722471 1.129426344885924 -0.04208772479423307 0.02256812735726203 0.01145313865946703 0.04911080671218584
7358 10 0.002734639509703371 -0.00102298015269202 0.009636520367722473 1.129423648349644 -0.08897622862118046 -0.01235899466193944 -0.1225487379300542 0.1519463957353103
7359 10 0.002734639509703371 -0.00102298015269202 0.004363479632277528 1.129406682101634 -1.978936294462015 -0.02669516153903536 -2.158437388040499 2.928438738864062
7360 10 0.002363479632277528 0.001023101318197867 0.00926536049029663 1.129423373371218 -0.1205405867435594 0.02029616638447862 -0.1464618114896008 0.1907695721209317
7361 10 0.002363479632277528 0.001023101318197867 0.004734639509703371 1.129408127440396 -1.945890820310729 -0.1556711338857689 -2.251404174308758 2.979856597655287
7362 10 0.007636520367722471 0.001023101318197867 0.004734639509703371 1.12942799373836 -0.4814096447887302 -0.01910833314697179 0.3359783998353991 0.5873685892582462
7363 10 0.007265360490296629 0.001023101318197867 0.009636520367722471 1.129426367940515 -0.0383357149254005 -0.03085770323565953 0.00707617088116708 0.04971817657719442
7364 10 0.003976959264555057 0.002636520367722472 0.00480590369520476 1.129417532860256 -0.665692427445378 -0.5892507569965764 -0.1472659763742208 0.9011382415459965
7365 10 0.007265360490296628 0.002636520367722471 0.008022980152692019 1.129426431542515 -0.04297824480875974 0.01017547770005261 0.003573103066149068 0.04431068650774072
7366 10 0.002734639509703371 0.002636520367722472 0.008022980152692019 1.129422461314668 -0.05259406261167914 -0.06678245476430945 -0.2151296979579866 0.231315409408545
7367 10 0.002734639509703371 0.002636520367722472 0.005976898681802133 1.129417414673718 -0.2179215158040833 -0.213079274294083 -0.4817126585222568 0.5700347792587946
7368 10 0.002734639509703371 -0.002636520367722472 0.00597701984730798 1.129416259922429 -0.2945395365839908 0.2989815339972574 -0.4986586749888288 0.6517698753579207
7369 10 0.007265360490296628 -0.002636520367722472 0.00597701984730798 1.129426906761325 -0.1009044848871476 -0.05043379783325432 0.06777433686042526 0.1316003182788574
7370 10 0.002734639509703371 -0.002636520367722472 0.008023101318197867 1.129422299714839 -0.05969320142419177 0.06840292879926624 -0.2883952016159141 0.3023475339401173
7371 10 0.006023040735444943 -0.002193732808277696 0.004363479632277529 1.129425114723074 -0.5802406539616793 0.3734353753207255 0.3154612285767409 0.7587153503033632
7372 10 0.006023040735444943 0.002636520367722472 0.00480590369520476 1.129425935070032 -0.3106711338776746 -0.2207408121846766 0.2148483458038592 0.4374961385926113
7373 10 0.00433627177188553 -0.0020025377642047 0.005279059331330305 1.129419614828785 -0.6144915083008869 -0.03104207257346257 -0.2354683964134524 0.6587934348132789
7374 10 0.003989094721376558 0.0009971845352794173 0.004553984185754523 1.1294158896545 -1.074324613803012 -0.07131951506675878 -0.5123019585429743 1.192356132109579
7375 10 0.003957431649311373 -0.002445325323649476 0.006029119914083229 1.129419781330319 -0.5615773171956235 0.009352830693624191 -0.4933549797746216 0.7475665152339521
7376 10 0.004367934843950715 0.001747123952526494 0.004996408248681756 1.129419042027841 -1.019207028016476 0.1985565563649117 -0.4856563325071104 1.146328812050856
7377 10 0.003231414476228244 0.001826068383176198 0.00528094345030958 1.129415824163382 -0.3802938474569329 -0.05070633569609167 -0.6858092834251347 0.7858300809497041
7378 10 0.00287561508909903 0.001747123952526494 0.006417403235279127 1.129419001015022 -0.3650601717094767 0.1183052049890431 -0.6520797435294117 0.756619483239386
7379 10 0.003199751404163059 -0.001718366059094419 0.005199751404163058 1.129414406308042 -0.5427620307110435 0.05075806579866367 -0.7222643518982741 0.9048938044037163
7380 10 0.004363479632277528 -0.002557212440555225 0.004806267191722304 1.129419395619224 -0.6528389995704825 0.1558513885465896 -0.04857489561717533 0.6729397708237402
7381 10 0.005636520367722471 0.002194096304795239 0.009557212440555225 1.129425575414162 -0.1135869763349553 0.002774142772127945 -0.04663642296291789 0.1228195953739224
7382 10 0.005636520367722471 -0.002193732808277696 0.009557575937072767 1.129425540127976 -0.1215661921569392 0.006123788397433985 -0.02868548416180038 0.125054775444488
7383 10 0.004363479632277528 -0.002193732808277696 0.009557575937072769 1.129424701522842 -0.1035561405155873 -0.002689950883199527 -0.01986448674685019 0.1054784713008009
7384 10 0.004363479632277528 0.002557575937072768 0.009193732808277696 1.129424501943268 -0.1662038252141214 -0.01013595285223157 -0.05953587337445734 0.1768359954152103
7385 10 0.004363479632277528 0.002194096304795239 0.004442424062927232 1.129418337524769 -1.143460519997432 -0.4098050534393619 0.1227054563783638 1.220859849303866
7386 10 0.007628840122574157 0.002194096304795239 0.007636459784969548 1.129426545456267 -0.0406878777456362 0.008898631125961221 0.0001735513743490643 0.0416499598011727
7387 10 0.002371159877425843 0.002194096304795239 0.007636459784969548 1.129421520757336 -0.1077350120862884 -0.09752267341790603 -0.2969741825239989 0.3306223975256451
7388 10 0.007628840122574157 -0.002193732808277696 0.006363540215030452 1.129426921495903 -0.05200891049375404 -0.0231752505659686 0.1403490541885468 0.1514591562803728
7389 10 0.002371159877425843 -0.002193732808277696 0.006363540215030452 1.129416926908327 -0.02859537102544673 0.1507217418727141 -0.8933947865378102 0.906470619121308
7390 10 0.002371159877425843 0.002194096304795239 0.006363419049524604 1.129418008469742 -0.06903994935920782 -0.1300398524121135 -0.702802114454967 0.7180582775132244
7391 10 0.002371159877425843 -0.002193732808277696 0.007636580950475395 1.129421231441882 -0.1000422134937439 0.09090776746763324 -0.3483132702325726 0.373623876226863
7392 10 0.005636520367722471 -0.002557212440555225 0.004806267191722304 1.129424188361258 -0.4244718257874996 0.461382634941343 0.2569554833066991 0.6775517597307009
7393 10 0.005636520367722471 0.002194096304795239 0.004442424062927232 1.129424437780653 -0.6096184877770485 -0.3330231766427909 0.0459220289268844 0.6961666248547057
7394 10 0.002726959264555057 0.002273040735444943 0.009273040735444944 1.129423599544393 -0.1117235756062293 -0.007653062074229538 -0.1552788760943037 0.1914477894008258
7395 10 0.002726959264555057 -0.002273040735444944 0.009273040735444944 1.12942348700782 -0.0961301059827545 0.03196615889707553 -0.1153948303521946 0.1535538975829023
7396 10 0.007273040735444943 0.002273040735444943 0.004726959264555057 1.129428475002483 -0.4797024230004901 -0.3401635957103967 0.3342711160785113 0.6764339328593303
7397 10 0.007273040735444943 -0.002273040735444943 0.004726959264555056 1.129428239282575 -0.4575313637276408 0.306192902459575 0.248218595333791 0.6039052188717812
7398 10 0.007273040735444943 0.002273040735444943 0.009273040735444944 1.129426461108084 -0.0496138141889533 0.003539909711256954 -0.004201924636403298 0.04991710818737248
7399 10 0.007273040735444943 -0.002273040735444943 0.009273040735444944 1.129426402696855 -0.05634700121888436 -0.008385733136690237 -0.002806135024703343 0.0570366501503867
7400 10 0.002504455211673187 0.0009971845352794171 0.006038623695457894 1.129416804552386 -0.3865515130080843 -0.1248751190650261 -0.7017465282980804 0.8108415736435521
7401 10 0.002726959264555057 0.002273040735444943 0.004726959264555057 1.12941103574375 -0.786606610763032 0.355608254890201 -1.092120751459615 1.39209731226336
7402 10 0.002726959264555057 -0.002273040735444944 0.004726959264555056 1.12940962242636 -0.9193101160695815 -0.3257925334824223 -1.098811676954111 1.469237545732979
7403 10 0.004999999999999999 0.002557575937072768 0.009557212440555223 1.129425117537317 -0.1284719452332983 0.01118519802611607 -0.03823225254615821 0.1345059645579491
7404 10 0.004999999999999999 -0.002557212440555225 0.009557575937072769 1.129425117393232 -0.120366389709834 0.006801174686791074 -0.02936341855055402 0.1240827711564942
7405 10 0.002371159877425843 1.211655058473704e-07 0.009628840122574157 1.129423560100375 -0.08507676604245387 -0.01814687700224427 -0.1205742511765733 0.1486792363175451
7406 10 0.007628840122574157 1.21165505847262e-07 0.004371159877425843 1.129428542306137 -0.5499577212036769 0.01197610757770756 0.3569108614482517 0.6557303449467526
7407 10 0.007628840122574157 1.211655058473704e-07 0.009628840122574157 1.129426362597861 -0.0582041274942372 -0.001353122650860409 -0.007717079053218511 0.05872907889101713
7408 10 0.002371159877425843 1.21165505847262e-07 0.004371159877425843 1.129403076066628 -1.95387084325023 -0.06388984165078397 -2.189588963633382 2.93530117937404
7409 10 0.002371159877425843 -0.002557212440555225 0.007000060582752923 1.129419539152407 -0.247901961512526 -0.03306370145713974 -0.567884603759171 0.6205171343826982
7410 10 0.007628840122574157 -0.002557212440555225 0.007000060582752923 1.129426590417215 -0.1050575973442852 0.02128124357699775 0.06160989490780558 0.1236356309422503
7411 10 0.007628840122574157 0.002557575937072768 0.006999939417247076 1.129426639062299 -0.06714165583893243 -0.01328868079784265 0.03943835544092515 0.07899351154383094
7412 10 0.002371159877425843 0.002557575937072768 0.006999939417247076 1.129420156195702 -0.2250589356273978 0.0008794868222809717 -0.4711155493552661 0.5221131667053819
7413 10 0.002363479632277528 -0.001773040735444944 0.009636520367722473 1.12942348514138 -0.07882694714276874 0.01466300016312192 -0.1326979888426313 0.1550401477440978
7414 10 0.007636520367722471 -0.001773040735444944 0.009636520367722471 1.129426495036403 -0.0375294276009088 0.01043184440240253 0.01601144297055455 0.04211469600611066
7415 10 0.007636520367722471 0.001773040735444943 0.009636520367722471 1.129426532187231 -0.03202314952529767 -0.01405075785193543 0.01338874288512698 0.03744548487838468
7416 10 0.007636520367722471 0.001773040735444943 0.004363479632277529 1.129429440252623 -0.5686053015410698 -0.2512614178395925 0.4231738703313187 0.7520109131964515
7417 10 0.007636520367722471 -0.001773040735444944 0.004363479632277528 1.129429220898578 -0.5969102341874772 0.1668146957564644 0.3875972838788136 0.7309997434119279
7418 10 0.002363479632277528 0.001773040735444943 0.009636520367722473 1.12942367107855 -0.1105019290812352 -0.006431408957896306 -0.1565005395299831 0.1916884405096819
7419 10 0.002363479632277528 0.002636520367722472 0.008773040735444944 1.129423020356876 -0.08508059484185033 -0.03429598162175056 -0.1286358729945775 0.1579940182257532
7420 10 0.007636520367722471 0.002636520367722472 0.005226959264555056 1.129428615985695 -0.2676921735520847 -0.1281533288441996 0.5462814671303332 0.6216959198876556
7421 10 0.007636520367722471 0.002636520367722472 0.008773040735444944 1.129426536496434 -0.04691292880915189 0.006240798638941693 -0.00690281360827594 0.04782697244040197
7422 10 0.007636520367722471 -0.002636520367722472 0.008773040735444944 1.129426477462018 -0.05065847759439609 -0.01407426104621631 -0.008494662564883231 0.05325904118804807
7423 10 0.006773040735444944 -0.002636520367722472 0.009636520367722471 1.129426210865715 -0.06360667712049095 -0.01564541718423645 0.004453550923715911 0.06565380848823105
7424 10 0.003226959264555057 -0.002636520367722472 0.009636520367722471 1.129423997581683 -0.07296414051683882 0.00880016442553715 -0.09222887359499077 0.1179295290411959
7425 10 0.003226959264555057 0.002636520367722472 0.009636520367722471 1.129424096943183 -0.05699759444685467 0.04707296491673473 -0.1005529141162378 0.1248017561416816
7426 10 0.007636520367722471 -0.002636520367722472 0.005226959264555056 1.129428514268255 -0.2475469081847284 0.09620841007068318 0.4582032227038009 0.5296090286393313
7427 10 0.006773040735444944 0.002636520367722471 0.009636520367722471 1.129426273868825 -0.06652442693270569 0.020450530093074 0.01270869702884376 0.07074768222340266
7428 10 0.002363479632277528 -0.002636520367722472 0.008773040735444944 1.129422968784844 -0.11687818401065 0.01121802209512259 -0.1361428995409096 0.1797810974845805
7429 10 0.004999999999999999 -0.002557212440555225 0.004442787559444775 1.129422095117786 -0.8092255822373932 0.2441475018476945 0.03972072908338026 0.8461866117617516
7430 10 0.004999999999999999 0.002557575937072768 0.004442424062927232 1.129422359768648 -0.8085988458604745 -0.2205843534254781 -0.06651626607004302 0.8407817577439037
7431 10 0.002472792139608002 -0.0008889975491742478 0.005957431649311371 1.129415714083629 -0.4516783293191479 -0.1068540919158263 -0.8405433325291479 0.9601792561781879
7432 10 0.003957431649311373 -0.0008889975491742481 0.004472792139608002 1.12941512043909 -1.146691202904389 -0.04322995709855124 -0.5446243238287723 1.270191008516044
7433 10 0.006773040735444944 -0.002636520367722472 0.004363479632277529 1.129428128377543 -0.4421531038183688 0.321571087376222 0.263596785943128 0.6069518901956648
7434 10 0.002363479632277528 0.001773040735444943 0.004363479632277529 1.129405386704891 -1.768954011780222 -0.6267448590674936 -2.074466624406946 2.797395072194706
7435 10 0.002363479632277528 -0.001773040735444944 0.004363479632277528 1.129403971202741 -1.771275813301925 0.5261793937137407 -1.950776476037029 2.686970714506729
7436 10 0.006773040735444944 0.002636520367722472 0.004363479632277529 1.129428389726227 -0.5203652849908055 -0.2995006718185156 0.2936081926315246 0.6683460578350522
7437 10 0.002363479632277528 0.002636520367722472 0.005226959264555056 1.129412477475576 -0.5398625242337958 0.1088636181903001 -1.338867236189836 1.447711403761185
7438 10 0.002363479632277528 -0.002636520367722472 0.005226959264555056 1.129410994607976 -0.6289938781285361 -0.0354755744620242 -1.389130366761788 1.525311440646246
7439 10 0.003226959264555057 -0.002636520367722472 0.004363479632277528 1.129411250938523 -1.610033089217077 0.3649286443774444 -0.408091613694479 1.700564091420493
7440 10 0.003226959264555057 0.002636520367722472 0.004363479632277528 1.129412135843061 -1.440464018937279 -0.2982480407404671 -0.4382651732090765 1.534915256848549
7441 10 0.003989094721376558 0.002553027647731255 0.00610982729820636 1.129420820418946 -0.5989319802106338 -0.02944858831636109 -0.474142175174965 0.7644589842185809
7442 10 0.002472792139608002 -0.0008889975491742478 0.00748815262990463 1.129420866393131 -0.1966272862564282 -0.02294798250159781 -0.3716745687207342 0.4211067378173909
7443 10 0.003287501053626038 -0.0005816033603602518 0.007552861543922667 1.129422018707855 -0.2168475898329356 -0.02323580575269828 -0.3861611958164747 0.4434898522398679
7444 10 0.005552861543922667 -0.0005816033603602518 0.005287501053626039 1.12942372681579 -0.5302365603758098 0.02290231526704287 -0.09915480811532414 0.5399138838519969
7445 10 0.00548815262990463 -0.0008889975491742478 0.004472792139608002 1.129422846907278 -0.6526622941571546 0.02047004405240571 -0.2700388213074991 0.7066173348645864
7446 10 0.005584524615987851 0.001803209395990026 0.006482112149297165 1.129424406340134 -0.4012479726403036 0.03057126141824374 0.02322030852242169 0.4030802901414716
7447 10 0.005519815701969815 0.002553027647731254 0.006109827298206361 1.129424290890937 -0.3495998375401392 -0.04202701946038721 0.02424672607525271 0.3529507338116523
7448 10 0.007636520367722471 -0.002193732808277696 0.008023040735444943 1.129426487283225 -0.04897031667272667 -0.01576242253077142 -0.004000005311171404 0.05159986358077996
7449 10 0.007265360490296628 -0.002557212440555225 0.007636580950475395 1.12942631791514 -0.05323308215091025 -0.02217037463237113 -0.0153494547861791 0.05967321265742444
7450 10 0.002843952017033845 -0.001639058131927171 0.007109373090083396 1.129420466919527 -0.2001141112917338 0.007021561391040977 -0.3655251577971202 0.416777639569421
7451 10 0.003207431649311373 -0.002081845691371947 0.007495893457805869 1.129421535192484 -0.1010764783881316 0.02701956512732074 -0.2892174309717396 0.3075601303174859
7452 10 0.007636520367722471 0.002194096304795239 0.005976959264555057 1.129426977981719 -0.1074722620577307 0.03206638028271108 0.1197030559224293 0.1640346349202181
7453 10 0.007265360490296628 0.002557575937072768 0.006363419049524604 1.129426622035302 -0.07367909788137646 -0.01877442359740559 0.02973025602162206 0.08163930774534696
7454 10 0.006580069404314664 -0.0018863386194637 0.006291728761326018 1.129426072066624 -0.1898610583413363 0.03852288746364535 0.06600697551940078 0.2046659599206663
7455 10 0.006943549036592194 -0.001443551060018925 0.006678249129048489 1.129426086801202 -0.142994369431151 0.05308982258948277 0.1247005551586573 0.1970181397954832
7456 10 0.006580069404314664 0.001886702115981243 0.007837689066710056 1.129425752908937 -0.1354677867977951 -0.08231409622644756 0.005410601069185638 0.1586077119858918
7457 10 0.006943549036592194 0.001444278053054011 0.007451168698987585 1.129425866822689 -0.1439159160405868 -0.07769938457009291 0.01786066737912801 0.1645235201775122
7458 10 0.003957431649311373 -0.002445325323649475 0.007416949027156164 1.129422142729924 -0.216282702785423 0.04698416336178692 -0.291507117467101 0.3660083587364541
7459 10 0.004400980685903567 -0.001695143575390704 0.007481597358421277 1.129422856136902 -0.2311043076491426 -0.03692971752847938 -0.3640747938333502 0.4328088036945636
