ITEM: FORMAT_VERSION
2
ITEM: TIMESTEP
10
ITEM: TIME
0.3
ITEM: SOLVER_DT
0.025
ITEM: CHARACTERISTIC_CELL_SIZE
0.001006729258263952
ITEM: MESH_ID
d5565440872044428698bf7318514570
ITEM: NUMBER OF CELLS
7321
ITEM: BOX BOUNDS
-0.0127 0.0127
-0.0127 0.0127
0 0.1
ITEM: REGIONS
10
1 hot_plate
2 cylinder_1
3 heat_switch
4 cylinder_2
5 ggg
6 cylinder_3
7 cold_stage
8 support_1
9 support_2
10 sample
ITEM: UNITS
x=m y=m z=m T=K qx=W/m^2 qy=W/m^2 qz=W/m^2 qmag=W/m^2
ITEM: FIELDS cell_ID region_ID x y z T qx qy qz qmag
139 1 0.004404475335497139 0.002366465102638707 0.09702172772330488 4 0 0 0 0
140 1 0.001608879040517608 0.004747609223894205 0.0964826399299135 4 0 0 0 0
141 1 -0.003972025634625388 0.008476751603612893 0.09699059181107911 4 0 0 0 0
142 1 0.0007961564439413169 0.001176550420056354 0.09650125721113834 4 0 0 0 0
143 1 0.00491392655454303 -0.001074938492064943 0.09649627099667514 4 0 0 0 0
144 1 0.001328084456470504 0.001185967036064069 0.09850612151382274 4 0 0 0 0
145 1 -0.01061955028569532 0.002022282352182967 0.09750812554682424 4 0 0 0 0
146 1 -0.00457227285920651 0.008002301980584527 0.09699962924391071 4 0 0 0 0
147 1 0.002216896079806696 0.001720212594116514 0.09851970113643639 4 0 0 0 0
148 1 0.000918047896583245 0.001717048906431458 0.09700580061072892 4 0 0 0 0
149 1 -0.004513247120461401 -0.004939557588187564 0.09701927089297326 4 0 0 0 0
150 1 -0.001141567860309122 0.008777146582482843 0.09680871696230459 4 0 0 0 0
151 1 -0.01020255702256345 0.001569576738257014 0.09700007501609195 4 0 0 0 0
152 1 0.004046733558279779 0.002023108832865826 0.09702172772330488 4 0 0 0 0
153 1 -0.006023952406161198 -0.007912265269342748 0.09692796510577502 4 0 0 0 0
154 1 0.004312735522862664 0.003228378494110255 0.09699241074282652 4 0 0 0 0
155 1 -0.004044608619801616 0.008043925291764635 0.09748815349711799 4 0 0 0 0
156 1 -0.002290066482166606 -0.004248045654672961 0.09651103660153955 4 0 0 0 0
157 1 0.002210881277096702 0.004729340797928158 0.09685354979733378 4 0 0 0 0
158 1 -0.01034320181187102 0.00316241470026343 0.09750088393089665 4 0 0 0 0
159 1 0.00458864193884915 -0.001583833365694672 0.09700252249935488 4 0 0 0 0
160 1 -8.409800686577635e-05 -0.00948224470851378 0.09701911732115487 4 0 0 0 0
161 1 0.003649522271854398 0.001447329315696795 0.0985220486263987 4 0 0 0 0
162 1 0.004030046518721879 -0.0002207644966800413 0.09700721179264671 4 0 0 0 0
163 1 0.007189038560065275 -0.002229794574324124 0.09749539017293417 4 0 0 0 0
164 1 0.001312885482841287 0.004255952538243651 0.09698718332950408 4 0 0 0 0
165 1 0.001289982588286838 0.001137888358796049 0.09750612151382274 4 0 0 0 0
166 1 -0.0071558822171444 -0.008340952444490676 0.09747709233856403 4 0 0 0 0
167 1 0.007482708139502735 -0.002761224220507505 0.09699911917625904 4 0 0 0 0
168 1 -0.005013384832580885 -0.00476111457155141 0.09650823429143372 4 0 0 0 0
169 1 0.003704761903028 -0.0007296593703097711 0.09751346329532648 4 0 0 0 0
170 1 0.0101427479292425 -0.002071238037913896 0.09903018313831496 4 0 0 0 0
171 1 0.009432256351951822 -0.005613910685735501 0.09853312852739833 4 0 0 0 0
172 1 0.003590838959112976 -0.0003933985900792084 0.09650032090309382 4 0 0 0 0
173 1 0.01083388815042814 -0.002279798810155452 0.0984986745218821 4 0 0 0 0
174 1 -0.008602806849939321 0.005734918155642509 0.09700780931336511 4 0 0 0 0
175 1 -0.006297265222201662 -0.007385566418284974 0.09644206779758337 4 0 0 0 0
176 1 0.0003992122081386518 -0.009108733669797024 0.09652052280385721 4 0 0 0 0
177 1 0.0009215623163572746 -0.008660806454225697 0.0978042053574795 4 0 0 0 0
178 1 -0.006544399497164483 -0.007474060572227353 0.09742649798458272 4 0 0 0 0
179 1 0.003704783962252899 0.001245741053965009 0.0975220486263987 4 0 0 0 0
180 1 0.003090762414975843 0.001682115792116973 0.0970151577368458 4 0 0 0 0
181 1 -0.001508448029868462 -0.004203213387572508 0.0985310844259018 4 0 0 0 0
182 1 -0.002622482453328824 -0.003397448728393802 0.09752364082182274 4 0 0 0 0
183 1 0.0007791802345812292 0.001660923426683222 0.09900580061072892 4 0 0 0 0
184 1 -0.001276443463103503 -0.004196880727082302 0.0975310844259018 4 0 0 0 0
185 1 0.002634761322637287 -0.006897623620272933 0.09692469599038755 4 0 0 0 0
186 1 0.005009072122619689 0.002342301345629192 0.09751680317924988 4 0 0 0 0
187 1 0.003001932168050934 -0.006531746248094055 0.09646115673766723 4 0 0 0 0
188 1 -4.550744378492425e-05 -0.009922498349544838 0.09649859451729767 4 0 0 0 0
189 1 0.004596068655003827 0.002200533337588097 0.09851680317924986 4 0 0 0 0
190 1 -0.003936519850611152 -0.005437882954367297 0.09651103660153955 4 0 0 0 0
191 1 -0.008679241427403348 0.006368460932034574 0.09751299436391003 4 0 0 0 0
192 1 -0.0008214245260087604 0.00908181155503966 0.09732154484789193 4 0 0 0 0
193 1 0.003559333861875934 -0.008381474977354574 0.09750543102574223 4 0 0 0 0
194 1 0.004621704070442415 0.00195442110382931 0.0965068908895529 4 0 0 0 0
195 1 -0.009174022683964136 0.006447699767100785 0.09699574615821033 4 0 0 0 0
196 1 -0.003422914361887601 0.008528150599111398 0.09648852425320729 4 0 0 0 0
197 1 0.008799327198431475 -0.00525503968867653 0.09903990623395416 4 0 0 0 0
198 1 -0.0081806590059592 0.00712644623726368 0.09851955535783394 4 0 0 0 0
199 1 -0.00342962435345801 0.007432834407802071 0.0974938476779834 4 0 0 0 0
200 1 -0.003169829112461696 -0.003449345037964971 0.09651317313092422 4 0 0 0 0
201 1 0.007175657726388543 -0.0004339089264965991 0.09699770822828044 4 0 0 0 0
202 1 0.001914887719420381 0.004237684112277604 0.09735809319692436 4 0 0 0 0
203 1 0.002516793406709959 0.007214185670736161 0.09647060432127208 4 0 0 0 0
204 1 -0.00713671174852133 -0.008271425774916597 0.09847709233856403 4 0 0 0 0
205 1 -0.002711095948403133 0.007564600346855783 0.09731633875540267 4 0 0 0 0
206 1 0.004917332309985215 0.003204214737100739 0.09748748619877151 4 0 0 0 0
207 1 0.001684810981286585 0.002090187582254394 0.09650454339959059 4 0 0 0 0
208 1 0.004461105210586552 -0.008450295257548306 0.09755351622224369 4 0 0 0 0
209 1 0.006191243393601606 0.001338317206561974 0.09700196634549789 4 0 0 0 0
210 1 -0.003731037020586808 0.005859080925729169 0.09650776173873725 4 0 0 0 0
211 1 0.006627227857735864 -0.003150980476058897 0.09695211862525296 4 0 0 0 0
212 1 0.007532690651074777 7.8220471235284e-05 0.09650143723160531 4 0 0 0 0
213 1 0.007082099803404105 0.00423003614045932 0.09749273295594738 4 0 0 0 0
214 1 -0.004314647680962678 -0.009265786995356693 0.09648589730819168 4 0 0 0 0
215 1 0.0008552567463992238 -0.007717711592285632 0.09779416496172025 4 0 0 0 0
216 1 -0.001875801179156732 -0.003794406492059408 0.09701046769089852 4 0 0 0 0
217 1 -0.001013463898119193 -0.008147662990431612 0.09630714435153982 4 0 0 0 0
218 1 -0.003812835022187613 -0.0092683689638776 0.09698792089773883 4 0 0 0 0
219 1 0.01056128985365067 -0.001451177594511885 0.09950734618651377 4 0 0 0 0
220 1 -0.003036747756338698 -0.003851087891007355 0.09702420973246376 4 0 0 0 0
221 1 0.000933334514743383 -0.009136963430302431 0.09849325566158912 4 0 0 0 0
222 1 0.009732688516929752 -0.00189481473222722 0.09752793693223255 4 0 0 0 0
223 1 0.004504328842369352 0.003062446729059645 0.09848748619877151 4 0 0 0 0
224 1 -0.008137389216190803 0.007073303405339322 0.09751955535783394 4 0 0 0 0
225 1 0.006333558278298404 -0.002619550829875516 0.09744838962192812 4 0 0 0 0
226 1 0.009368145429977172 -0.005503500634520465 0.09753312852739833 4 0 0 0 0
227 1 0.002929146110128527 0.001524791886710173 0.0990151577368458 4 0 0 0 0
228 1 -0.00764728232952695 0.003628136233045499 0.09750114774980342 4 0 0 0 0
229 1 0.002344101253129114 0.006741263527228673 0.09695324425118557 4 0 0 0 0
230 1 0.01131381926400415 -0.001316428422043223 0.09911962239600997 4 0 0 0 0
231 1 0.009520818561368057 -0.00175817436616823 0.09852793693223255 4 0 0 0 0
232 1 0.004743267879111871 -0.001124870525227447 0.09850941338890778 4 0 0 0 0
233 1 -0.00499349014549838 -0.005280530761875108 0.09746133869055662 4 0 0 0 0
234 1 0.006840038693368602 0.001274344856617765 0.09750340357710319 4 0 0 0 0
235 1 -0.007499433392630678 -0.004837665919618542 0.09750705935936273 4 0 0 0 0
236 1 -0.002706656870171325 -0.003300262428620789 0.09852364082182274 4 0 0 0 0
237 1 -0.002899140026774078 -0.002294195201790593 0.09853537020146506 4 0 0 0 0
238 1 -2.043942215563708e-05 0.01109202862572434 0.09737580150830891 4 0 0 0 0
239 1 0.0006282754957222478 -0.008872288992005607 0.09734066610475914 4 0 0 0 0
240 1 0.01158507768025144 0.001236080348649315 0.09871784012623339 4 0 0 0 0
241 1 0.0006279656022389981 0.007055718983632542 0.0983277142158423 4 0 0 0 0
242 1 0.006754348922969461 0.0002417376032740531 0.09850459911783332 4 0 0 0 0
243 1 0.0116425705163785 -0.001802275187649249 0.09858811377957707 4 0 0 0 0
244 1 0.004999568584770008 -0.0100875823425507 0.09702034741436942 4 0 0 0 0
245 1 -0.007151381748202579 0.00397614144782184 0.09699887545730448 4 0 0 0 0
246 1 -0.006525229028541414 -0.007404533902653275 0.09842649798458272 4 0 0 0 0
247 1 -0.009606824038756489 0.003134183788910624 0.09699283340016437 4 0 0 0 0
248 1 0.001342190671299476 -0.008796395122699936 0.09728368255362227 4 0 0 0 0
249 1 0.007749667228172624 -0.002272539185040816 0.09649775379391758 4 0 0 0 0
250 1 -0.008642906687716246 0.006664150432055167 0.09902243325624463 4 0 0 0 0
251 1 0.001920801570758113 0.004578265348418811 0.09835809319692436 4 0 0 0 0
252 1 0.01065880868720259 -0.002272224470194992 0.09749867452188207 4 0 0 0 0
253 1 -0.00147976402078384 -0.00520789485117834 0.09852069427257371 4 0 0 0 0
254 1 -0.006817712313204948 -0.00694736172116958 0.09694060067639106 4 0 0 0 0
255 1 -0.001247759454018882 -0.005201562190688134 0.09752069427257372 4 0 0 0 0
256 1 -0.004086011111439468 0.006333099432153138 0.09700532342477612 4 0 0 0 0
257 1 0.0009011627454192722 0.004621016241555095 0.09747781597232652 4 0 0 0 0
258 1 0.01201723542328049 0.001397946946617056 0.09810556391673739 4 0 0 0 0
259 1 0.002713193177880483 -0.009612063556662753 0.09651439018578291 4 0 0 0 0
260 1 -0.0007039956120548931 0.005862586393978379 0.09831952491505058 4 0 0 0 0
261 1 0.003883997552572393 0.0007438120510621073 0.09900721179264671 4 0 0 0 0
262 1 -0.0004999621402262702 0.006608470334972484 0.09681845184559378 4 0 0 0 0
263 1 0.004378956518570871 -0.008482294325528137 0.09855351622224368 4 0 0 0 0
264 1 -0.004214543624865735 -0.01032039786471215 0.09740110902175533 4 0 0 0 0
265 1 6.272797731189118e-05 0.007757682479276417 0.09831731701459939 4 0 0 0 0
266 1 -0.01057366591184441 0.00411297003925256 0.09700132254385255 4 0 0 0 0
267 1 0.001590990738418362 -0.005303453248561354 0.09698177347267051 4 0 0 0 0
268 1 0.002212209172530819 0.003908878414134958 0.09839029010076286 4 0 0 0 0
269 1 0.003946701849194679 9.48170178387899e-05 0.09700721179264671 4 0 0 0 0
270 1 -0.00305437292421309 -0.009638075138804023 0.09690696795974754 4 0 0 0 0
271 1 0.003477185169860254 -0.008413474045334405 0.09850543102574223 4 0 0 0 0
272 1 0.001259603018844109 0.0003714083750936354 0.09900157811423214 4 0 0 0 0
273 1 0.0005888212468340181 0.01151489581094368 0.09683157649137936 4 0 0 0 0
274 1 -0.003635454840393034 -0.00955796285170368 0.09739286526793919 4 0 0 0 0
275 1 -0.009790802474627519 0.00630620854375603 0.09748782917858095 4 0 0 0 0
276 1 0.0002583222817538967 -0.00984712518041022 0.09752831092616643 4 0 0 0 0
277 1 0.001911539467134311 -0.007082698152701496 0.09696269246197267 4 0 0 0 0
278 1 0.002038167107603414 0.007094828505830125 0.0974625066214341 4 0 0 0 0
279 1 0.01117944577273183 0.001837980908926657 0.09792795219001033 4 0 0 0 0
280 1 0.002269880760866364 -0.004117103032941976 0.09839501650766688 4 0 0 0 0
281 1 0.0002777677240171837 0.008337173723091316 0.09834228296493316 4 0 0 0 0
282 1 0.005448197825788386 -0.009627265139971296 0.09753197186359122 4 0 0 0 0
283 1 0.002348404635112931 -0.007314948378071177 0.09646353925272036 4 0 0 0 0
284 1 -0.0009519910703419227 0.008860126240676745 0.0984892140740482 4 0 0 0 0
285 1 0.002685954012430689 -0.004640509014766386 0.09889615748540492 4 0 0 0 0
286 1 0.007570369204724236 0.003733089763410182 0.09698980750970849 4 0 0 0 0
287 1 0.007464473539838434 0.004742144700709442 0.09699765750000239 4 0 0 0 0
288 1 -0.008834642042483689 0.005977494296496495 0.09851299436391003 4 0 0 0 0
289 1 0.003119709166166937 -0.007031800217982853 0.09745219757762653 4 0 0 0 0
290 1 -0.005110131138764365 -0.005147698210795325 0.09846133869055662 4 0 0 0 0
291 1 -0.001526927297182859 -0.005696628590762543 0.0964890409360309 4 0 0 0 0
292 1 -0.008465066905390492 0.00407625064996464 0.09751008160586405 4 0 0 0 0
293 1 -0.003976420377149599 -0.005985708710066564 0.09702487234183528 4 0 0 0 0
294 1 -0.001358786789566826 0.008245097116599372 0.09712876972576275 4 0 0 0 0
295 1 0.006177624168407691 0.000518861963347891 0.0965068908895529 4 0 0 0 0
296 1 -0.0008833211905605076 -0.003838896985825259 0.09902004782436226 4 0 0 0 0
297 1 0.00602264526530023 -0.006037835268840984 0.09754446477466482 4 0 0 0 0
298 1 -0.01040169827025863 0.001914936492842507 0.09850812554682425 4 0 0 0 0
299 1 0.006678688033735572 0.001730306392683328 0.096495075455945 4 0 0 0 0
300 1 0.009781647276529226 -0.00133978548364845 0.09700509998043133 4 0 0 0 0
301 1 0.003486880011580585 -0.006665922845803973 0.09698865832490619 4 0 0 0 0
302 1 0.007764807254769161 -0.0006749665644801662 0.097495462022198 4 0 0 0 0
303 1 -0.001212921157806935 0.006204649916787763 0.09882889227222816 4 0 0 0 0
304 1 -0.009992675539570265 0.003604953156305436 0.09649056110766541 4 0 0 0 0
305 1 -0.002303297218807611 -0.001664165909391465 0.09849233016487377 4 0 0 0 0
306 1 -0.003565091501893697 0.0008182641935359203 0.09855573403393228 4 0 0 0 0
307 1 0.006073633814720264 -0.006104164838131285 0.09854446477466482 4 0 0 0 0
308 1 0.007172419014392196 -0.001619801854743749 0.0989940247905927 4 0 0 0 0
309 1 -0.00351507698314863 0.007279401797994063 0.0984938476779834 4 0 0 0 0
310 1 -0.007394030879401802 -0.004591202897540942 0.09850705935936273 4 0 0 0 0
311 1 -0.00276988870913301 0.0004463141139449961 0.09849641535174582 4 0 0 0 0
312 1 -0.004180190139553093 0.008342059316572165 0.09848815349711799 4 0 0 0 0
313 1 -0.003092313901293199 -0.002054120705986227 0.09753537020146506 4 0 0 0 0
314 1 0.001698448154709306 -0.004699017829682674 0.09698177347267051 4 0 0 0 0
315 1 0.006833667087433284 0.001278980477333525 0.09850340357710319 4 0 0 0 0
316 1 0.004788197002780418 -0.01070720665636177 0.09751356971552293 4 0 0 0 0
317 1 0.01117226148036062 -0.001169042804312107 0.09681432037889251 4 0 0 0 0
318 1 -0.0002244301414814501 0.008247945395827282 0.09832088252993822 4 0 0 0 0
319 1 0.002546456932135089 -0.009225894089356772 0.09697792943850324 4 0 0 0 0
320 1 0.00282425739371051 0.001114018065480857 0.09650032090309382 4 0 0 0 0
321 1 -0.002191980162764191 -0.0037035528527766 0.09901046769089852 4 0 0 0 0
322 1 0.002516609331068008 0.008094684204365434 0.09647060432127208 4 0 0 0 0
323 1 0.0007416324967583248 -0.009473614141693463 0.09702971640886876 4 0 0 0 0
324 1 -0.009699863826113422 -0.003704485487921827 0.09852454058241733 4 0 0 0 0
325 1 0.007725985609048393 -0.0007893437058936958 0.09849546202219803 4 0 0 0 0
326 1 -0.0038760355985228 -0.008842368563778456 0.09698792089773883 4 0 0 0 0
327 1 -0.007646475920139501 0.003491999455662497 0.09850114774980342 4 0 0 0 0
328 1 0.005221316922102638 0.001806804404709598 0.09900196634549789 4 0 0 0 0
329 1 0.01063765521356277 0.001703190843233398 0.09739784465992399 4 0 0 0 0
330 1 -0.0005976062993263107 0.01054046322950602 0.09704343528550712 4 0 0 0 0
331 1 -0.0007163209384136931 0.008535807946833106 0.09780940678314551 4 0 0 0 0
332 1 0.001035249099033863 0.007468123442113221 0.09650926237024854 4 0 0 0 0
333 1 -0.003347346389109604 -0.009433823952676917 0.09839286526793919 4 0 0 0 0
334 1 0.0002494033518996907 0.006542561630093062 0.09881845184559378 4 0 0 0 0
335 1 0.008315667824301116 0.00374419671410842 0.09849258219261472 4 0 0 0 0
336 1 0.006216564023466428 -0.006944366130656372 0.09755619531861372 4 0 0 0 0
337 1 -0.01109900671071593 0.003812774946914692 0.09750937307458485 4 0 0 0 0
338 1 0.006212445460206011 -0.00275340042068566 0.09844838962192809 4 0 0 0 0
339 1 -0.002653757175833365 -0.002609854794825669 0.09701260422028321 4 0 0 0 0
340 1 -0.004162430764293575 0.005505394089279029 0.09701029541761276 4 0 0 0 0
341 1 0.006126071962820122 -9.244975147661039e-05 0.09900316188622803 4 0 0 0 0
342 1 0.0005743181956172962 0.005670741170532412 0.09830386248307614 4 0 0 0 0
343 1 0.0002858552071025747 -0.008507408520109167 0.09683147249974758 4 0 0 0 0
344 1 -0.003639139906722078 0.005118006768592195 0.09752460083157687 4 0 0 0 0
345 1 0.001336806325066726 -0.005731872382550789 0.09748092668192282 4 0 0 0 0
346 1 0.004771404468400946 -0.009053359610536747 0.09702601463500471 4 0 0 0 0
347 1 0.008500667723677144 -0.004909969572305544 0.09754127161629561 4 0 0 0 0
348 1 0.005407219728080658 -0.009660598630410354 0.09853197186359122 4 0 0 0 0
349 1 -0.001963258786500842 -0.005387892566802317 0.09700007753757044 4 0 0 0 0
350 1 -0.003555888514347611 0.009181551902961884 0.09699604451046399 4 0 0 0 0
351 1 -0.00428793088062935 -0.01031355194967717 0.09840110902175536 4 0 0 0 0
352 1 0.002279047277662807 -0.009630328874088925 0.0974871230435148 4 0 0 0 0
353 1 -0.004104999787085398 0.009130152907463378 0.09749811206833582 4 0 0 0 0
354 1 0.001976416411680685 0.007024139665725944 0.0984625066214341 4 0 0 0 0
355 1 0.005056655702694552 0.003161567582388301 0.09897264936501954 4 0 0 0 0
356 1 -0.001921708325789983 0.006889052145765098 0.09831567643744897 4 0 0 0 0
357 1 -0.005300076171603549 -0.0008345618930378831 0.09856040969841549 4 0 0 0 0
358 1 -0.0003286592822709356 0.006230547204709252 0.09633058991034021 4 0 0 0 0
359 1 0.002197896154658667 -0.006665373394903253 0.09742384919963989 4 0 0 0 0
360 1 -0.006120118075916038 -0.0004209545271373936 0.0985314225846891 4 0 0 0 0
361 1 0.002545723308801065 -0.004501487798003904 0.09689615748540492 4 0 0 0 0
362 1 0.002058353607201188 0.002504743078577748 0.09901938023334257 4 0 0 0 0
363 1 0.01147740244089415 -0.001702805258993381 0.09728281176245962 4 0 0 0 0
364 1 0.002405686300104762 -0.006801243600639213 0.0984238491996399 4 0 0 0 0
365 1 0.007327483333502568 0.001666334042739119 0.0969965126875503 4 0 0 0 0
366 1 -0.0007771761364008777 0.01115101079155188 0.09756615679412116 4 0 0 0 0
367 1 0.005618214013533525 -0.007170565538258527 0.09703912603646078 4 0 0 0 0
368 1 -0.001677108547146747 0.009039586733726623 0.09648852425320729 4 0 0 0 0
369 1 -0.008774410736169636 -8.076027486248711e-05 0.09748702909878593 4 0 0 0 0
370 1 -0.008913310443345522 0.0005517317607292483 0.09699158159104847 4 0 0 0 0
371 1 0.004322775227382569 -0.009513676813116144 0.09651439018578291 4 0 0 0 0
372 1 0.0007106987969548331 0.000846364765712789 0.09950125721113834 4 0 0 0 0
373 1 -0.004669436091722704 -0.004587993984453053 0.09901927089297326 4 0 0 0 0
374 1 0.003163621390846522 0.0008212746220754849 0.09950032090309383 4 0 0 0 0
375 1 0.007057267316359893 0.004502711032873816 0.0984927329559474 4 0 0 0 0
376 1 0.007421798460148783 -0.0002493086803078739 0.09899770822828044 4 0 0 0 0
377 1 -0.0005759048826122008 -0.009678176011273576 0.09680573886883748 4 0 0 0 0
378 1 -0.002496471093326732 -0.0014240914135871 0.09749233016487378 4 0 0 0 0
379 1 0.01104020045641127 0.001175206065897511 0.09689506997701777 4 0 0 0 0
380 1 -0.007907643065132492 -0.007925181274779796 0.09699119503037236 4 0 0 0 0
381 1 0.01028040970406289 -0.004553596916881205 0.0970461311236232 4 0 0 0 0
382 1 -0.009603284245687271 -0.003384876593642317 0.0990119179019895 4 0 0 0 0
383 1 -0.0004379682942782616 -0.007386923000392494 0.09631094969589038 4 0 0 0 0
384 1 0.0008080429779089041 -0.0001195334921577916 0.0985173804280029 4 0 0 0 0
385 1 0.006267552572886461 -0.007010695699946673 0.09855619531861372 4 0 0 0 0
386 1 -0.001720926012586044 -0.006374867121712109 0.09683006075078621 4 0 0 0 0
387 1 -0.004517404855146236 0.005979412595703001 0.09750785710365165 4 0 0 0 0
388 1 -0.01050860362083274 -0.004096836133449947 0.09854800376261552 4 0 0 0 0
389 1 -0.009701785844057774 0.006282167501277022 0.09848782917858095 4 0 0 0 0
390 1 0.005328280260411742 -0.00585924822761495 0.09702739549251189 4 0 0 0 0
391 1 -0.002977236870224791 0.0002564059005440945 0.0974964153517458 4 0 0 0 0
392 1 -0.01087608421428717 0.004158357150115486 0.09850937307458485 4 0 0 0 0
393 1 0.004506470401632125 -0.01033387174007784 0.09900761248693642 4 0 0 0 0
394 1 0.002635568529796552 -0.004090250816772164 0.0964350007477377 4 0 0 0 0
395 1 -0.008732701253391664 0.001116429992864197 0.09749385388354742 4 0 0 0 0
396 1 0.004564689254839721 -0.005651927892153902 0.09702739549251189 4 0 0 0 0
397 1 -0.002157257501904027 -0.006066131097751883 0.09734109735232574 4 0 0 0 0
398 1 -0.003785373291143207 0.007898434401614085 0.09898608593924617 4 0 0 0 0
399 1 -0.003772439662985478 0.0006283559801350189 0.09755573403393228 4 0 0 0 0
400 1 0.002702423079019654 -0.004000720345941167 0.0994350007477377 4 0 0 0 0
401 1 -0.001890385878707754 0.006385963722239076 0.09833665401096539 4 0 0 0 0
402 1 -0.003213960506966397 -0.006400296763954334 0.09736589215659061 4 0 0 0 0
403 1 0.008163755397129255 0.003586861986275707 0.09749258219261475 4 0 0 0 0
404 1 0.003997111760255506 -0.005610444368284364 0.09748855223017912 4 0 0 0 0
405 1 0.01041837803512584 -0.005230313969161597 0.09853935341706738 4 0 0 0 0
406 1 0.001086849857509669 -0.005103676280328636 0.09652061673500328 4 0 0 0 0
407 1 -0.00722490525586262 -0.004171365531190662 0.09700852648055504 4 0 0 0 0
408 1 -0.004434810471099532 0.007588210815134095 0.09649756168603889 4 0 0 0 0
409 1 0.00135361783287951 0.007765838152034818 0.09650926237024854 4 0 0 0 0
410 1 -0.004343017787042425 -0.004060218294805433 0.09853244402389746 4 0 0 0 0
411 1 0.006134467393207855 0.00143827370127196 0.09900196634549789 4 0 0 0 0
412 1 0.002286349827455328 -0.003477314364116757 0.09893385976999966 4 0 0 0 0
413 1 0.007697449144851888 0.004163099383657392 0.0989898075097085 4 0 0 0 0
414 1 -0.009408333418190999 -0.004147114274383809 0.09901291486954915 4 0 0 0 0
415 1 -0.008361370266288819 -0.005044487240178914 0.09751144774835684 4 0 0 0 0
416 1 -0.0006144954456930528 -0.009237922370242518 0.09732626167269467 4 0 0 0 0
417 1 -0.003859345727313097 -0.009850396469220177 0.09889084167839204 4 0 0 0 0
418 1 0.0009190334938634099 0.00613910832409688 0.0988132298402537 4 0 0 0 0
419 1 0.00929476223838659 0.001406786161982214 0.0985115581010253 4 0 0 0 0
420 1 0.001612495724800324 -0.006544159204238646 0.09649915320925234 4 0 0 0 0
421 1 -0.00127445633747408 0.00967364621125593 0.09753195953871439 4 0 0 0 0
422 1 0.001220479019723013 -0.007845276699054033 0.0984832152658299 4 0 0 0 0
423 1 -0.001253683201971757 0.007970270845341292 0.09761663166101631 4 0 0 0 0
424 1 0.001037620061492276 -0.008542645253757796 0.09898406205657756 4 0 0 0 0
425 1 -0.002098980073522133 -0.006455986479656969 0.09634101981475532 4 0 0 0 0
426 1 -0.0008615729388105931 0.01106380850443441 0.09856615679412116 4 0 0 0 0
427 1 0.01023703397727169 -0.004617316610236804 0.0990461311236232 4 0 0 0 0
428 1 -0.01098453585282267 0.001552908092425073 0.09900585325432529 4 0 0 0 0
429 1 0.007952742941158565 0.004245198323660305 0.09649473205376351 4 0 0 0 0
430 1 0.001130555908295233 0.004677148118725066 0.09847781597232652 4 0 0 0 0
431 1 -0.004913351596449832 -0.0003102420579673551 0.09905221775770126 4 0 0 0 0
432 1 0.01201806189568593 -0.001431415720465729 0.09789508797195581 4 0 0 0 0
433 1 -0.001759039677154841 0.007384965911963429 0.09880791469871172 4 0 0 0 0
434 1 -0.01161903866485009 0.001208629108602745 0.09848212935709377 4 0 0 0 0
435 1 0.008203547719886316 -0.004828312970856545 0.09854127161629563 4 0 0 0 0
436 1 -0.008464260496003044 0.003940113872581638 0.09851008160586405 4 0 0 0 0
437 1 0.007225113571409895 0.00818421872748149 0.09851968892920338 4 0 0 0 0
438 1 0.002432021216867336 -0.00207102522474847 0.09700511052494173 4 0 0 0 0
439 1 0.00369228602058288 0.01040911313845039 0.09747683836550609 4 0 0 0 0
440 1 -0.00894391795270612 0.0008520612913397533 0.09849385388354742 4 0 0 0 0
441 1 0.004648277678677538 -0.009118692168955635 0.09902601463500471 4 0 0 0 0
442 1 -0.001558191274153567 0.008533933542236043 0.09897638618846086 4 0 0 0 0
443 1 0.007685187798926346 -0.002090813459631108 0.09949775379391758 4 0 0 0 0
444 1 -0.007844334594917188 -0.004121118843654644 0.09650029218912133 4 0 0 0 0
445 1 0.006514499519120739 0.009345257126792435 0.09754045592911803 4 0 0 0 0
446 1 -0.0002043716450577967 0.009135588668474241 0.09683302059468465 4 0 0 0 0
447 1 -0.002732752871612581 -0.001236198614136595 0.0989928990755148 4 0 0 0 0
448 1 -0.004494733292637644 -0.005971170386464466 0.09746694013941865 4 0 0 0 0
449 1 0.0001900767909103356 0.01183816492336028 0.0973542979999934 4 0 0 0 0
450 1 -0.003716633062379317 0.006823313187501521 0.09700532342477612 4 0 0 0 0
451 1 -0.0087886268911336 -5.270854979172457e-06 0.09848702909878591 4 0 0 0 0
452 1 0.00191252118236025 0.003490429361441665 0.09901938023334257 4 0 0 0 0
453 1 0.009904970558025606 0.001417573340214493 0.09901012086941999 4 0 0 0 0
454 1 0.005281670773783634 0.002503406878419728 0.09949507545594501 4 0 0 0 0
455 1 0.001488168705054151 -0.009043114394128473 0.09897273285773192 4 0 0 0 0
456 1 -0.005884086250598703 -0.007607140869717885 0.09892796510577503 4 0 0 0 0
457 1 -0.005092248829221878 -0.01012164376360244 0.09699616465155497 4 0 0 0 0
458 1 0.003757549411288199 0.0004756253401843685 0.09700721179264672 4 0 0 0 0
459 1 -0.000231540508746186 0.002273239104986777 0.09759756802573619 4 0 0 0 0
460 1 -0.009537683428746333 -0.003119177483557097 0.0970119179019895 4 0 0 0 0
461 1 0.0006746572745162366 0.007753096623708279 0.09682945507934582 4 0 0 0 0
462 1 0.003567854308127661 0.01026363493056336 0.09847683836550609 4 0 0 0 0
463 1 0.001949758129564194 0.008881795360357892 0.09650558029483053 4 0 0 0 0
464 1 -0.008521328202321965 -0.004470337865220907 0.09701291486954915 4 0 0 0 0
465 1 -0.0009708342202439722 0.005129109666815101 0.09883166297979704 4 0 0 0 0
466 1 -0.008255967753059944 -0.004798024218101314 0.09851144774835684 4 0 0 0 0
467 1 0.001359346440125447 0.006722954517740543 0.09732249221050222 4 0 0 0 0
468 1 -9.531194634642301e-05 0.006074194476528594 0.09830908448841622 4 0 0 0 0
469 1 -0.0002900492087685543 0.01110064114539568 0.09903554939420139 4 0 0 0 0
470 1 0.005592735843698602 0.009286954292775668 0.09752571909422289 4 0 0 0 0
471 1 0.007903355440755398 0.003125218457569392 0.09899785013885123 4 0 0 0 0
472 1 0.003797392983559661 -0.00488377567500606 0.09739605139067783 4 0 0 0 0
473 1 0.003688211584690397 -0.00479314050003934 0.09839605139067784 4 0 0 0 0
474 1 0.001678671872407946 0.008594307879459712 0.09701484266507904 4 0 0 0 0
475 1 0.002851537775337352 0.00420630751846476 0.09888574670117227 4 0 0 0 0
476 1 0.005364270089282712 -0.005920358757443494 0.0990273954925119 4 0 0 0 0
477 1 -0.008254905654245328 -0.007485517273019125 0.09900371792935263 4 0 0 0 0
478 1 0.001422605606774604 -0.004314633064620745 0.09848063249493247 4 0 0 0 0
479 1 -0.004155966878596483 0.004553310766062614 0.09701683909283962 4 0 0 0 0
480 1 0.008393019967595785 -0.004666483693145326 0.09650136538234147 4 0 0 0 0
481 1 0.008096466870550881 -0.005295149980200245 0.0970184346644944 4 0 0 0 0
482 1 0.001297595744202717 0.006652265677636361 0.09832249221050222 4 0 0 0 0
483 1 -0.0018598834057834 0.007982230755065755 0.09829643895191902 4 0 0 0 0
484 1 -0.00263297017436817 0.0004798743455236249 0.09697364937056396 4 0 0 0 0
485 1 -0.005292877694515327 -0.0006421807363601889 0.09756040969841549 4 0 0 0 0
486 1 -0.006416134030428959 -0.00526390990841653 0.09695030208901707 4 0 0 0 0
487 1 0.001831909597572301 0.006308220619618524 0.0964826399299135 4 0 0 0 0
488 1 -0.007086241513380047 -0.003018725679272705 0.09851671842126927 4 0 0 0 0
489 1 0.000993026008361884 0.008050811333629875 0.09682945507934583 4 0 0 0 0
490 1 0.005114230911003864 -0.01048676498523744 0.09851356971552293 4 0 0 0 0
491 1 0.000668312813195607 -0.006380385418013683 0.09649915320925234 4 0 0 0 0
492 1 -0.009597952784480314 -0.003642140739281397 0.09752454058241732 4 0 0 0 0
493 1 -0.006659605504949091 0.009124936507832922 0.09699475125855814 4 0 0 0 0
494 1 -0.01040669257919964 -0.004034491384809517 0.09754800376261552 4 0 0 0 0
495 1 0.0003808851761525427 0.01136327762670993 0.09786712588558075 4 0 0 0 0
496 1 -0.006879664598043064 -0.00679043298659311 0.09894060067639106 4 0 0 0 0
497 1 0.002206295321193087 0.003568297177993751 0.09739029010076286 4 0 0 0 0
498 1 0.006792317994898142 0.008697263319341496 0.09901670055077977 4 0 0 0 0
499 1 0.00189885241232468 -0.006126834446440403 0.09696030994691954 4 0 0 0 0
500 1 0.001520044609306082 -0.007768349318294946 0.09677448894861071 4 0 0 0 0
501 1 0.0002739394157222253 0.001967487143649492 0.09700580061072892 4 0 0 0 0
502 1 4.38409731079487e-05 -0.006812292635786709 0.09631094969589038 4 0 0 0 0
503 1 -0.004325719212173704 0.003982374231413659 0.09758721914766712 4 0 0 0 0
504 1 -0.007212154646578543 0.004078935057063029 0.09899887545730449 4 0 0 0 0
505 1 -0.0004601002734096797 0.008572263689670921 0.09900068982084093 4 0 0 0 0
506 1 0.003416513334654532 -0.007786616944213599 0.09699104083995931 4 0 0 0 0
507 1 -0.003650828713873378 -0.008013797933219536 0.09701585932984291 4 0 0 0 0
508 1 -0.005192832642805187 -0.001099631504787613 0.0970309579218961 4 0 0 0 0
509 1 -0.002312868782896334 0.007142350691139294 0.0988278145021954 4 0 0 0 0
510 1 0.004976356203071381 -0.002006913859047665 0.09745327574226639 4 0 0 0 0
511 1 0.007291938747484419 -0.008199129262390274 0.09852110791123841 4 0 0 0 0
512 1 0.005358342323128895 -0.0007103328420103375 0.09900316188622803 4 0 0 0 0
513 1 -0.008187075527865387 -0.005349762963151998 0.09901115555923552 4 0 0 0 0
514 1 -0.0007820280297372548 -0.005339166317985634 0.09900965767103417 4 0 0 0 0
515 1 -0.004911020447311541 -0.000339014955716539 0.09705221775770126 4 0 0 0 0
516 1 0.006044404072276944 -0.003510568402802503 0.09645075324291152 4 0 0 0 0
517 1 -0.002413712511524892 0.007739615534241621 0.09831633875540267 4 0 0 0 0
518 1 0.008797220820722047 -0.004281303285250625 0.09702420233414269 4 0 0 0 0
519 1 -4.486571804017536e-05 0.006837562780501474 0.09681845184559378 4 0 0 0 0
520 1 0.01040262648626853 -0.001183432766934948 0.09650734618651377 4 0 0 0 0
521 1 -0.0003124999999999972 0.009609329945113643 0.09651282788558735 4 0 0 0 0
522 1 -0.003683382757275182 0.005159633347338372 0.09852460083157687 4 0 0 0 0
523 1 0.003297742600854557 0.0111364905516133 0.09752292575690738 4 0 0 0 0
524 1 0.01008097849068717 0.004359770314335261 0.09849052419260237 4 0 0 0 0
525 1 -0.0005245149793581585 0.008830923695917424 0.09632019270909731 4 0 0 0 0
526 1 -0.0006866474388272749 -0.008559746358968938 0.09630714435153982 4 0 0 0 0
527 1 0.0082729385568123 -0.00750196893039278 0.09902302651073945 4 0 0 0 0
528 1 -0.004189602593709584 0.005841139268654601 0.09850785710365163 4 0 0 0 0
529 1 -0.006195929193284226 0.0002856984182774535 0.09902323064397486 4 0 0 0 0
530 1 -0.001479759765996014 0.005471173189624487 0.09934103033697458 4 0 0 0 0
531 1 0.006623591941003046 0.008609950848398967 0.09701670055077977 4 0 0 0 0
532 1 -0.002352095603672112 0.005093796293833532 0.09836309748967592 4 0 0 0 0
533 1 0.002419977695542411 -0.001511462046077809 0.09750543142803555 4 0 0 0 0
534 1 -0.004538100087051854 -0.005564631110375234 0.0989531043991229 4 0 0 0 0
535 1 0.002372699416538609 -0.003964470732495055 0.09739501650766688 4 0 0 0 0
536 1 -0.002878595402907369 -0.00025049946715207 0.0989928990755148 4 0 0 0 0
537 1 0.007813212430640872 0.002345964568945343 0.09849928737045655 4 0 0 0 0
538 1 0.0009816429482664994 0.007024504641999442 0.09683985228058872 4 0 0 0 0
539 1 0.0001520479630802972 0.001426988657274388 0.09650125721113834 4 0 0 0 0
540 1 -0.0001006589298113057 0.002866355169770854 0.09709631081459785 4 0 0 0 0
541 1 0.008235430746457174 0.002597847498940704 0.09650277468290624 4 0 0 0 0
542 1 -0.006652978744490401 -0.009132045314357923 0.09697855945975634 4 0 0 0 0
543 1 -0.00544121875746818 -0.007585126835815392 0.09692796510577502 4 0 0 0 0
544 1 0.00298118625057469 0.006433752663760992 0.09744929493764826 4 0 0 0 0
545 1 0.003173310888399337 0.01099101234372627 0.09852292575690738 4 0 0 0 0
546 1 -0.00084228298041169 0.006260684133948806 0.09715948218256837 4 0 0 0 0
547 1 0.0004430532969393443 -0.006773404092839846 0.09681010290514269 4 0 0 0 0
548 1 -0.006112919598827817 -0.0002285733704596995 0.09753142258468911 4 0 0 0 0
549 1 -0.001979446080872719 -0.006365841320878952 0.09834109735232574 4 0 0 0 0
550 1 0.01035426711315119 -0.00511990391794656 0.09753935341706738 4 0 0 0 0
551 1 0.009419221719519932 0.006184006886351482 0.09900203945068016 4 0 0 0 0
552 1 -0.01085359691776498 -0.003495966532579841 0.09903538108218769 4 0 0 0 0
553 1 0.004137582377969673 0.01060423506482403 0.09697125807067559 4 0 0 0 0
554 1 -0.001139968253016969 0.006899950675948291 0.09680791469871172 4 0 0 0 0
555 1 0.00728513676130617 0.003544121127118364 0.09949507545594501 4 0 0 0 0
556 1 -0.007349624323065154 -0.003598320333018621 0.09900852648055504 4 0 0 0 0
557 1 0.001512303333900601 0.005356668348646335 0.0964826399299135 4 0 0 0 0
558 1 0.006189740032162612 -0.002858581629369157 0.09645075324291152 4 0 0 0 0
559 1 0.0024513805533135 0.006637314874581553 0.09895324425118557 4 0 0 0 0
560 1 0.01053491759484143 0.003723758824269839 0.09899579213883886 4 0 0 0 0
561 1 -0.0005980969624984428 -0.007063402796881149 0.09679999063192127 4 0 0 0 0
562 1 0.004110083082832774 -0.001939978299448796 0.09650625150267977 4 0 0 0 0
563 1 0.008640462404238346 0.006907719348346315 0.09848680021531563 4 0 0 0 0
564 1 -0.001044945511279878 0.002029176830696329 0.09759654090237661 4 0 0 0 0
565 1 0.0004862905909371682 0.00847223927426992 0.09902209025583586 4 0 0 0 0
566 1 -0.008528972143413714 -0.007867385435954805 0.09749638008091728 4 0 0 0 0
567 1 0.00152542426244685 -0.004162000764173825 0.09748063249493247 4 0 0 0 0
568 1 -0.003838107105111366 0.003624960752410081 0.09708468546879161 4 0 0 0 0
569 1 -0.002755375355270656 -0.006502177443697097 0.09836589215659058 4 0 0 0 0
570 1 0.001341461182485895 0.00629503107230322 0.0968132298402537 4 0 0 0 0
571 1 0.0006229128484230076 -0.005825545907498024 0.0970197699442556 4 0 0 0 0
572 1 0.00218459566571383 -0.006304234128958826 0.09896030994691955 4 0 0 0 0
573 1 0.006478786168506634 -0.004966933504117418 0.09900125928761438 4 0 0 0 0
574 1 -0.0007269412483844633 0.01003208829724733 0.09704343528550712 4 0 0 0 0
575 1 -0.001066300477221323 0.008246070991230221 0.09948786193525358 4 0 0 0 0
576 1 -0.001809997024311707 0.009597933754334544 0.09701913165312705 4 0 0 0 0
577 1 -0.006009240724878073 0.005985797142770917 0.09751734357061412 4 0 0 0 0
578 1 0.009595289150894706 0.001530537067033378 0.0975115581010253 4 0 0 0 0
579 1 -0.006610227791507477 -0.005807677586054464 0.09844883496782476 4 0 0 0 0
580 1 -0.006683256494348849 0.009122606508231608 0.09899475125855814 4 0 0 0 0
581 1 0.005363534121219716 -0.00648314280970955 0.09652750158723898 4 0 0 0 0
582 1 0.001022654256828644 -0.008189753270010048 0.09631094969589038 4 0 0 0 0
583 1 0.007722409231703765 0.002847602419222724 0.09699785013885123 4 0 0 0 0
584 1 -0.009185919815976763 -0.006454267597910681 0.09899122183978044 4 0 0 0 0
585 1 -0.003102799611152766 0.006817777865298728 0.09650776173873725 4 0 0 0 0
586 1 0.01111226151563293 0.002454067431016398 0.09742060600349656 4 0 0 0 0
587 1 0.001735746863801164 -0.009381435005621894 0.09697273285773192 4 0 0 0 0
588 1 0.006797509971792416 -0.005458974802056153 0.09851832856976732 4 0 0 0 0
589 1 0.002950490014882273 0.005185270995652469 0.09885354979733378 4 0 0 0 0
590 1 0.003245213257887187 -0.006840273421124237 0.09845219757762654 4 0 0 0 0
591 1 0.002409972212028975 -0.01032586013961027 0.09702358379079447 4 0 0 0 0
592 1 -0.003405828474539974 -0.00854731407920304 0.09650202358954717 4 0 0 0 0
593 1 0.006793521499999445 -0.0005834960350585374 0.09949627099667514 4 0 0 0 0
594 1 0.00141475943300978 -0.005773401859333252 0.09848092668192283 4 0 0 0 0
595 1 -0.003668354771534143 0.004195897287059037 0.09651430541396411 4 0 0 0 0
596 1 -0.002406208098595337 -0.004836850265810037 0.09651103660153955 4 0 0 0 0
597 1 0.002840074989789722 -0.0101356665972399 0.09651439018578291 4 0 0 0 0
598 1 0.002740432265754062 0.003784803244385542 0.09688574670117227 4 0 0 0 0
599 1 -0.005739631882829289 0.005767453997251413 0.09851734357061412 4 0 0 0 0
600 1 0.001123238614200837 0.005675360734294362 0.0968132298402537 4 0 0 0 0
601 1 0.0007870752867460291 0.0109076560852022 0.0983444043769667 4 0 0 0 0
602 1 -0.0006709801224563554 0.005882761003685575 0.09667162024731479 4 0 0 0 0
603 1 0.001144545500806971 0.01012254138695967 0.09835866029452536 4 0 0 0 0
604 1 0.0003615691059067878 0.007402020457577178 0.09899712430550209 4 0 0 0 0
605 1 0.004868361406945814 -0.0003180986476821326 0.0995068908895529 4 0 0 0 0
606 1 -0.004160639042339019 -0.006023429205038493 0.09846694013941866 4 0 0 0 0
607 1 -0.009105345175285533 -0.006469476626084396 0.09699122183978044 4 0 0 0 0
608 1 -0.002157224486896833 0.0056524869950758 0.09884879207571182 4 0 0 0 0
609 1 -0.001946212290611731 0.004388316632976152 0.09744710316594596 4 0 0 0 0
610 1 -0.007337719838837421 -0.002963494225797304 0.09700848412983556 4 0 0 0 0
611 1 0.005631719897776638 -0.007319240841615593 0.09903912603646078 4 0 0 0 0
612 1 0.002560130173564646 0.004875694452748613 0.09885354979733378 4 0 0 0 0
613 1 -0.007486219993439258 0.002807373602286255 0.09898389954410372 4 0 0 0 0
614 1 -0.004121035837856203 -0.00830885241779495 0.09750175663803456 4 0 0 0 0
615 1 -0.003305271602044082 -0.002820514253267007 0.09651317313092422 4 0 0 0 0
616 1 0.001009506798243674 0.008808911291007714 0.09784786325976369 4 0 0 0 0
617 1 -0.001407594124681526 0.004483905287939097 0.09693279775198185 4 0 0 0 0
618 1 0.007280381071213243 -0.00813870672765781 0.09752110791123841 4 0 0 0 0
619 1 -0.006430104851746699 -0.003004578357750029 0.09901642623214796 4 0 0 0 0
620 1 0.008198643137934957 -0.008153819961188257 0.09851544069060313 4 0 0 0 0
621 1 -0.008209323277975406 -0.008121868522731812 0.09849638008091728 4 0 0 0 0
622 1 0.001358796418066137 0.01107901157055912 0.09883157649137936 4 0 0 0 0
623 1 0.007332353478205358 -0.001371575122520075 0.0969940247905927 4 0 0 0 0
624 1 0.002085873286779706 0.003015923365404438 0.09701938023334257 4 0 0 0 0
625 1 -0.001290335528684454 0.006898282247143282 0.09632005276345816 4 0 0 0 0
626 1 -0.009950077448904556 0.002254883615695591 0.09650227229249897 4 0 0 0 0
627 1 0.004224007509708949 -0.006123761101596677 0.09652750158723898 4 0 0 0 0
628 1 -0.003144977474885129 0.005874813780269224 0.09650776173873725 4 0 0 0 0
629 1 0.004497797347055005 -0.002363058792801788 0.09695700474559127 4 0 0 0 0
630 1 -0.006886325190833788 -0.0009439906508723148 0.09849741831590716 4 0 0 0 0
631 1 -0.004194154940615943 0.007020312906013654 0.09649756168603889 4 0 0 0 0
632 1 0.009921829444725484 0.005491915130585864 0.09900203945068016 4 0 0 0 0
633 1 -0.00437554255188833 0.003929905051998218 0.09858721914766712 4 0 0 0 0
634 1 -0.005142348272775577 0.00818244099991354 0.09650206755787183 4 0 0 0 0
635 1 -0.003960857264090048 0.009191555775141637 0.09849811206833582 4 0 0 0 0
636 1 0.004592381666887118 -0.00499126614270824 0.09649989390527293 4 0 0 0 0
637 1 0.001026053582230252 0.009493874089782138 0.09767885300362267 4 0 0 0 0
638 1 0.001658917944367663 -0.001220675767912625 0.09751498223912655 4 0 0 0 0
639 1 -0.006238521820100353 -0.00699303995365772 0.09944206779758337 4 0 0 0 0
640 1 0.00378368418006818 -0.007420739572034719 0.09652750158723898 4 0 0 0 0
641 1 0.002153036825676316 -0.005698415312450969 0.09646115673766723 4 0 0 0 0
642 1 -0.004250033068864211 0.00454246816539335 0.09901683909283963 4 0 0 0 0
643 1 0.002003156518273446 -0.008977000220889741 0.09646353925272036 4 0 0 0 0
644 1 -0.006965483023014474 -0.005366188214582247 0.09900676717024141 4 0 0 0 0
645 1 0.009377735398473227 -0.004702696731242047 0.09952283695180122 4 0 0 0 0
646 1 -0.001566853323456237 -0.003339236451029351 0.09949943108935899 4 0 0 0 0
647 1 0.001433600514382816 -0.008222593070501397 0.09677448894861071 4 0 0 0 0
648 1 0.01084284893822197 0.00375686067808609 0.09752589966892519 4 0 0 0 0
649 1 0.006330524925438813 -0.004929015845977511 0.09700125928761438 4 0 0 0 0
650 1 -0.003453549586941511 -0.003674723206690769 0.09902420973246376 4 0 0 0 0
651 1 0.003113123222782865 0.005624571751860964 0.09834960048379646 4 0 0 0 0
652 1 0.003228547300390445 -0.001256170878545153 0.09900657240577358 4 0 0 0 0
653 1 -0.00159140004562793 0.0009321351874013767 0.09747490658170228 4 0 0 0 0
654 1 -0.006342962971982191 0.005537455807012767 0.09701978188457522 4 0 0 0 0
655 1 -0.007670629559467844 -0.002331014518826544 0.09750393163757301 4 0 0 0 0
656 1 0.003334802373471284 0.005541101854714098 0.09686696055388297 4 0 0 0 0
657 1 0.000195672191949341 0.01145909243349874 0.09852687377147323 4 0 0 0 0
658 1 -0.003718954341331121 -0.002175805968143331 0.09903593911210608 4 0 0 0 0
659 1 0.004255426289603482 -0.004555497866006491 0.09693489465301061 4 0 0 0 0
660 1 0.00483456671151973 -0.007890447653820907 0.09903912603646078 4 0 0 0 0
661 1 -0.003675234497518056 0.001856809686282606 0.0976033481075779 4 0 0 0 0
662 1 -0.002697509721757705 0.007084615401624625 0.09682781450219539 4 0 0 0 0
663 1 0.006580608675601065 0.009287554263480784 0.09854045592911803 4 0 0 0 0
664 1 -0.00682071078839369 -0.005566495711825128 0.09744883496782476 4 0 0 0 0
665 1 0.001981287997938824 -0.01061255304522991 0.09650919360501156 4 0 0 0 0
666 1 0.002493846104068495 -0.001532395577941918 0.09850543142803556 4 0 0 0 0
667 1 -0.01085263537544945 -0.002924098143302899 0.09699354898672875 4 0 0 0 0
668 1 -0.002098069927286224 0.000790195129585557 0.09897364937056395 4 0 0 0 0
669 1 -0.008162636315818329 -0.0001331238858889071 0.09898922637519292 4 0 0 0 0
670 1 0.0008080915833958304 0.005431365312853676 0.09730386248307614 4 0 0 0 0
671 1 0.002424684321622405 0.01081708752854805 0.09736912658076 4 0 0 0 0
672 1 0.001826187192775735 -0.002070490700817043 0.09649885902226199 4 0 0 0 0
673 1 0.001283416235162819 0.008639834986925131 0.09733503537417634 4 0 0 0 0
674 1 -0.004209119829203255 -0.003860787827430726 0.09651317313092422 4 0 0 0 0
675 1 0.006746521422372383 -0.005392645232765853 0.09751832856976732 4 0 0 0 0
676 1 0.001095849602314969 -0.00670403665086469 0.09649915320925234 4 0 0 0 0
677 1 0.001450026553267896 -0.005149791644702357 0.09898177347267051 4 0 0 0 0
678 1 0.01067661487313074 -0.00334420187937283 0.09699132833536833 4 0 0 0 0
679 1 -0.006693487661431806 -0.003584173011495945 0.09950823429143373 4 0 0 0 0
680 1 0.007122496673995126 0.008039203393227312 0.09751968892920337 4 0 0 0 0
681 1 -0.0006866474388272797 -0.009440253641031054 0.09630714435153982 4 0 0 0 0
682 1 -0.001127165756603131 0.007229277874409554 0.09680791469871172 4 0 0 0 0
683 1 -1.699314443251952e-05 0.006888863104037697 0.09948786193525358 4 0 0 0 0
684 1 -0.006460375442288354 0.006619491852741912 0.09751193199332792 4 0 0 0 0
685 1 0.003375414863840378 -0.003241023784133763 0.0964350007477377 4 0 0 0 0
686 1 0.00127695249921847 -0.001710175831971182 0.09701466133603273 4 0 0 0 0
687 1 0.009443599242225166 0.006815645040022891 0.09849111923380871 4 0 0 0 0
688 1 0.0008434367654931899 0.005341094362400923 0.09897327257273594 4 0 0 0 0
689 1 -0.00573426099189605 0.005615894527930416 0.09650253367887553 4 0 0 0 0
690 1 -0.009449205947747268 -0.005946761253342783 0.09850384452020826 4 0 0 0 0
691 1 0.001942782395106243 0.01145672401890354 0.09835487066320131 4 0 0 0 0
692 1 -0.0070518987198783 0.003394309203686787 0.09948162725160478 4 0 0 0 0
693 1 0.003656430015124735 -0.006082277577727139 0.0969886583249062 4 0 0 0 0
694 1 -0.001310790896561053 -0.007250716980594989 0.09835058355464341 4 0 0 0 0
695 1 -0.002791215215509661 0.005032726850628046 0.09902206715270134 4 0 0 0 0
696 1 -0.001717099453117359 -0.007799766473629522 0.09836356620815967 4 0 0 0 0
697 1 0.00294409322667575 0.005657831564403902 0.09734960048379646 4 0 0 0 0
698 1 -0.01018990616640286 -0.003235871062961535 0.09951162571286819 4 0 0 0 0
699 1 0.006481891897850197 -0.003802967249492243 0.09695211862525296 4 0 0 0 0
700 1 0.001194307273800613 -0.004499240861449956 0.09652061673500328 4 0 0 0 0
701 1 -0.007005409154976858 0.008599571421861766 0.09849187336014746 4 0 0 0 0
702 1 0.002377201993728005 -0.009715115891227741 0.0984871230435148 4 0 0 0 0
703 1 -0.008044620000143466 -0.000102494993262999 0.09698922637519292 4 0 0 0 0
704 1 0.004191857308282812 -0.009565614927042814 0.09951439018578291 4 0 0 0 0
705 1 0.0006210511237488727 0.0073094778235945 0.09716004498968603 4 0 0 0 0
706 1 -0.008387398339656803 0.001198385277701964 0.09899605115995441 4 0 0 0 0
707 1 -0.004137078153343104 0.0003047221730603929 0.09905221775770126 4 0 0 0 0
708 1 7.704091361984076e-05 -0.01153044543322918 0.09698994036956328 4 0 0 0 0
709 1 0.002620010231340681 0.003232429431796228 0.09651483683375199 4 0 0 0 0
710 1 -0.001954143895883738 0.008669508455590912 0.09648852425320729 4 0 0 0 0
711 1 -9.618258475877216e-05 -0.008202743547552347 0.09683147249974758 4 0 0 0 0
712 1 -0.002865386518347334 0.007650512140098889 0.09899628599194453 4 0 0 0 0
713 1 -0.006982832763730289 0.00861291341636629 0.09749187336014746 4 0 0 0 0
714 1 -0.001153618729623408 0.004553398354988486 0.09842343039480428 4 0 0 0 0
715 1 0.00110909835175191 -0.007735509517803598 0.09631094969589038 4 0 0 0 0
716 1 -0.002112176982403726 0.0006996359254661712 0.09697364937056396 4 0 0 0 0
717 1 0.002167091353025706 -0.00744337440599571 0.09896269246197267 4 0 0 0 0
718 1 -0.006856119932948638 -0.003345307855367146 0.09751671842126927 4 0 0 0 0
719 1 0.00818708546166378 -0.008093397426455793 0.09751544069060313 4 0 0 0 0
720 1 -0.001358664209912226 0.002541047436861423 0.09709528369123829 4 0 0 0 0
721 1 -0.003611231228887264 0.001293766163356141 0.09703296805275041 4 0 0 0 0
722 1 0.001571166573291581 0.002783371306245125 0.09650454339959059 4 0 0 0 0
723 1 0.005658845000178925 0.009229251429464019 0.09852571909422289 4 0 0 0 0
724 1 0.002995444655791021 -0.0016836282226022 0.09650625150267977 4 0 0 0 0
725 1 -0.001896704799073303 0.003782235722011704 0.09710607282897138 4 0 0 0 0
726 1 0.006331920181827491 -0.003530854538862562 0.09895211862525299 4 0 0 0 0
727 1 -0.005793721141338568 0.007822354669895329 0.09749675134550002 4 0 0 0 0
728 1 0.0005888241251256313 -0.008398674850312145 0.09631094969589038 4 0 0 0 0
729 1 0.002551849785166783 0.003787858465771468 0.09951483683375199 4 0 0 0 0
730 1 0.001366677363527382 0.002167986862402179 0.0995045433995906 4 0 0 0 0
731 1 0.008367944817880911 -0.003081820346219469 0.09852195612806025 4 0 0 0 0
732 1 0.001732786352893747 -0.001241609299776735 0.09851498223912655 4 0 0 0 0
733 1 0.002792743316421249 -0.002830029487895977 0.09744011127267943 4 0 0 0 0
734 1 -0.01112782414745414 -0.003500737156658728 0.09751730435604827 4 0 0 0 0
735 1 0.0006134809973146131 -0.01119820910106867 0.09849913397457484 4 0 0 0 0
736 1 0.002247288511707136 -0.01122182618177556 0.09703248779014273 4 0 0 0 0
737 1 -0.0065249885615623 0.009712108185847463 0.09751839433436829 4 0 0 0 0
738 1 -0.003316955651510355 -0.00537370469615684 0.09651103660153955 4 0 0 0 0
739 1 -0.005400538744791932 0.006064235863688566 0.0970000953649144 4 0 0 0 0
740 1 0.0104575697655081 0.003137319271120111 0.09703288221299256 4 0 0 0 0
741 1 0.007350145509447022 0.001791250973968834 0.0989965126875503 4 0 0 0 0
742 1 0.003661642473207509 0.003894015853022396 0.09637090986742029 4 0 0 0 0
743 1 -0.002539405778993699 0.007983140897750761 0.09680857701666544 4 0 0 0 0
744 1 0.001110685445281031 0.008295133671901135 0.09682945507934582 4 0 0 0 0
745 1 -0.005191991254568922 -0.01073903467226737 0.09651026734336329 4 0 0 0 0
746 1 -0.001189983135101951 0.009693299532542748 0.09853195953871439 4 0 0 0 0
747 1 -0.001441566071976352 0.0007190114785821957 0.09847490658170228 4 0 0 0 0
748 1 0.003443967120191923 0.006699000846029843 0.09696665500773477 4 0 0 0 0
749 1 -0.001234693615481593 0.0004741736035219346 0.09697139030547126 4 0 0 0 0
750 1 -0.009191385351767388 -0.007089054182016647 0.09849640689032536 4 0 0 0 0
751 1 -0.001358086633143098 0.003877824376974649 0.09659176741500727 4 0 0 0 0
752 1 -0.003627903154293724 0.001718550860979581 0.09860334810757791 4 0 0 0 0
753 1 0.002999071381378661 0.0005050092339297262 0.09650032090309382 4 0 0 0 0
754 1 0.002185518993718434 0.009905585061908282 0.09684583240893802 4 0 0 0 0
755 1 0.0109992367089126 -0.003901341239991178 0.09751462250719031 4 0 0 0 0
756 1 0.0001567374791039281 -0.009721957006799099 0.09852831092616643 4 0 0 0 0
757 1 0.003432712011002723 0.00245948357101779 0.09651483683375199 4 0 0 0 0
758 1 0.001362329196264691 -0.007399056508553419 0.09727364215786305 4 0 0 0 0
759 1 -0.006411146847442701 0.004768366146494948 0.09701978188457522 4 0 0 0 0
760 1 0.0004346403027906668 0.004010499814002874 0.09699517604241303 4 0 0 0 0
761 1 1.980346568266901e-05 -0.007301008953997377 0.09781966664503081 4 0 0 0 0
762 1 -0.006183765611272299 -0.009283725708892094 0.09900907935161771 4 0 0 0 0
763 1 0.004030345695866796 0.01030133434295094 0.0989712580706756 4 0 0 0 0
764 1 -0.00356695896883442 -0.01080986390741537 0.09691521171356368 4 0 0 0 0
765 1 0.003381926023950562 -0.0006579409483951352 0.09950032090309383 4 0 0 0 0
766 1 0.004954198068712329 -0.007776102851774309 0.09703912603646078 4 0 0 0 0
767 1 -0.009181820281853648 -0.007102998830650017 0.09749640689032536 4 0 0 0 0
768 1 -0.001558560038835191 -0.001813130744585039 0.09896956418369192 4 0 0 0 0
769 1 0.00940884827319464 0.006133350812806267 0.09700203945068016 4 0 0 0 0
770 1 -0.0006113680385523392 -0.003786111317842204 0.09702004782436226 4 0 0 0 0
771 1 0.001299963019149398 0.009324797785699555 0.09716602511803532 4 0 0 0 0
772 1 -0.000752906266004789 0.002859015247554772 0.09659176741500727 4 0 0 0 0
773 1 -0.0005099476312762922 0.006008989221601101 0.09765011482539079 4 0 0 0 0
774 1 -0.0003386447733209576 0.005631066091337872 0.09716225289013725 4 0 0 0 0
775 1 0.002915120711451019 0.009192645122185095 0.09650558029483053 4 0 0 0 0
776 1 0.004775119253252398 -0.002036166626498437 0.09845327574226639 4 0 0 0 0
777 1 0.008472470284356742 0.002109191904561695 0.09900421191451156 4 0 0 0 0
778 1 -0.001256629321096743 0.001522768388010918 0.09700477348736934 4 0 0 0 0
779 1 0.006090089666226907 -0.004114925933781661 0.09845201253052591 4 0 0 0 0
780 1 0.002300252609167185 0.01067160932066101 0.09836912658076 4 0 0 0 0
781 1 0.0001188532582502389 0.007220249496330466 0.09713864455469107 4 0 0 0 0
782 1 -0.004915079949200037 0.007878403120284167 0.09699962924391071 4 0 0 0 0
783 1 0.003412774928567288 -0.006031511351186649 0.09898865832490621 4 0 0 0 0
784 1 0.001218029665163659 0.008943976842186317 0.09852767055066639 4 0 0 0 0
785 1 0.009948930091695739 0.002102945849267581 0.09950277468290625 4 0 0 0 0
786 1 -0.001988015691640161 -0.001385163449330169 0.09947013309433295 4 0 0 0 0
787 1 -0.00567630390173021 -0.01023467170033877 0.09751934669498102 4 0 0 0 0
788 1 0.003493576441587048 0.005237578892235644 0.09886696055388297 4 0 0 0 0
789 1 0.001188152063739304 0.005809461515965392 0.09948263992991351 4 0 0 0 0
790 1 -0.0002998731974026208 -0.006697591180361019 0.09679999063192127 4 0 0 0 0
791 1 0.009958263065667678 0.004327368089421599 0.09749052419260237 4 0 0 0 0
792 1 0.004168223762923289 -0.004336977387977717 0.09893489465301061 4 0 0 0 0
793 1 -0.0073273146967448 -0.0005198946238614106 0.09898922637519292 4 0 0 0 0
794 1 0.0004048209946571056 0.002560603208433569 0.09650454339959059 4 0 0 0 0
795 1 0.004447490149061061 0.004802854892483088 0.09647757390907455 4 0 0 0 0
796 1 -0.01007123445146097 -0.002934889115729387 0.09651162571286818 4 0 0 0 0
797 1 -0.002708365138407838 0.005638562893069099 0.09684879207571181 4 0 0 0 0
798 1 -0.008179393901373268 0.005918989601625493 0.09651724820569971 4 0 0 0 0
799 1 0.002194032946498685 0.007631706171410197 0.09897986669152059 4 0 0 0 0
800 1 -0.0009086684045534367 -0.005800726460749035 0.0964890409360309 4 0 0 0 0
801 1 0.00555131975501597 -0.0002970699486662445 0.09700316188622803 4 0 0 0 0
802 1 0.0006573678934547925 0.004163852128578241 0.09899517604241304 4 0 0 0 0
803 1 0.009602199768233271 0.0008859639429883098 0.09700878341811905 4 0 0 0 0
804 1 -0.0005132230225499717 -0.00855974635896894 0.09682766715539702 4 0 0 0 0
805 1 -0.005214931257951805 0.007749614688065285 0.09699962924391071 4 0 0 0 0
806 1 0.002151540933901547 -0.007779387965037597 0.09646353925272036 4 0 0 0 0
807 1 -0.002836785361488239 0.008389061414064614 0.09648852425320729 4 0 0 0 0
808 1 -0.008183519707319353 0.0005299970423287365 0.09649377886745547 4 0 0 0 0
809 1 0.00686479032745334 -0.007251884525297259 0.09702869373137474 4 0 0 0 0
810 1 -0.009378196376969778 -0.005948025632883129 0.09750384452020826 4 0 0 0 0
811 1 -0.00560693685703676 -0.004839617586674711 0.09650823429143372 4 0 0 0 0
812 1 0.001049363464947035 0.009724754447749555 0.09901840818041785 4 0 0 0 0
813 1 -0.005557706672761285 8.966499290690005e-05 0.0995294517765194 4 0 0 0 0
814 1 0.008228748767085861 -0.00375979750943803 0.09702420233414269 4 0 0 0 0
815 1 0.01021848148660338 0.0008867284769306156 0.09650734618651377 4 0 0 0 0
816 1 0.005684724784176933 0.001853251538756468 0.09700196634549789 4 0 0 0 0
817 1 -0.002596344098734382 0.005591417551870315 0.09950776173873725 4 0 0 0 0
818 1 0.0008463630402126812 0.00364543611069143 0.09650454339959059 4 0 0 0 0
819 1 -0.006831529929745751 -0.009387322450614922 0.09850174150318236 4 0 0 0 0
820 1 -0.006526063159715489 0.009723120180750673 0.09851839433436829 4 0 0 0 0
821 1 0.004306702605924485 0.0004944856258241149 0.0965068908895529 4 0 0 0 0
822 1 -0.006518661053577588 -0.009719562607365513 0.09750174150318236 4 0 0 0 0
823 1 0.005385023824317864 -0.003700285798639617 0.09645075324291152 4 0 0 0 0
824 1 0.002675972725797287 -0.01093513327615591 0.09754687797592564 4 0 0 0 0
825 1 -0.003873734733176097 0.003493421860327746 0.09908468546879161 4 0 0 0 0
826 1 0.005992816972579119 -0.004143337844932054 0.09745201253052591 4 0 0 0 0
827 1 0.0002720216892425631 0.009244322338271261 0.09683302059468465 4 0 0 0 0
828 1 -0.001955965472604175 0.008179683811020484 0.09680857701666544 4 0 0 0 0
829 1 0.0005705596212641912 -0.0112457920052156 0.09749913397457484 4 0 0 0 0
830 1 -0.007796853506701742 0.008240033900495302 0.09898980580227563 4 0 0 0 0
831 1 0.002313685410366847 0.01026139715575882 0.09634025211410752 4 0 0 0 0
832 1 -0.003804592967430196 0.006372560247287905 0.09900532342477612 4 0 0 0 0
833 1 -0.00716028010235902 0.002133179891231523 0.09847767841155919 4 0 0 0 0
834 1 0.005241023995886602 0.006135645544144969 0.0975237330681655 4 0 0 0 0
835 1 -0.006029460580338152 -0.005515616428558575 0.09895030208901708 4 0 0 0 0
836 1 -0.005122242496020502 -0.001563708229267576 0.0990309579218961 4 0 0 0 0
837 1 0.008495707855755749 -0.003271112473971341 0.09652283695180122 4 0 0 0 0
838 1 -0.00637078218114482 0.00420868686827788 0.09750140913618 4 0 0 0 0
839 1 0.008626602858979256 0.006825322657128919 0.09748680021531564 4 0 0 0 0
840 1 0.002983401134466096 -0.001124065043931538 0.09700657240577357 4 0 0 0 0
841 1 0.00674320394982474 -0.001130517484536508 0.09649627099667514 4 0 0 0 0
842 1 -0.002886118114511238 0.006343296964490402 0.09650776173873725 4 0 0 0 0
843 1 0.00257788094117914 0.005259671298788487 0.09948263992991351 4 0 0 0 0
844 1 -0.003748225250151979 0.004105984973722877 0.09951430541396411 4 0 0 0 0
845 1 9.933912642877478e-05 -0.006658702637414157 0.09729914384117361 4 0 0 0 0
846 1 -0.006659491651044528 -0.004637725164833005 0.09650823429143372 4 0 0 0 0
847 1 -0.005125296629414341 0.003655859538754671 0.09755454098530779 4 0 0 0 0
848 1 0.003465953977667134 -0.002808831650167251 0.09694125225041744 4 0 0 0 0
849 1 0.01046514617370132 0.005276544299686408 0.0984950569066128 4 0 0 0 0
850 1 0.008208950402402182 -0.007376671509612502 0.09702302651073945 4 0 0 0 0
851 1 -0.005003437592589306 -0.007313659075867368 0.09744180084607078 4 0 0 0 0
852 1 -0.0007040182696016411 -0.004582570764116276 0.09952061673500329 4 0 0 0 0
853 1 0.0001650834022251959 -0.002067312226895056 0.09751409242539172 4 0 0 0 0
854 1 0.003150216246681806 0.006400492851218055 0.09844929493764826 4 0 0 0 0
855 1 0.001329702941836801 -0.001752323916568307 0.09901466133603273 4 0 0 0 0
856 1 -0.004803127641306497 0.005707619391120664 0.0990000953649144 4 0 0 0 0
857 1 0.003319759269256747 0.003625372419137021 0.09688574670117227 4 0 0 0 0
858 1 -0.006046743663385245 0.008732565341634586 0.09650206755787183 4 0 0 0 0
859 1 0.004255333920595298 -0.003183450391558649 0.09839200549332897 4 0 0 0 0
860 1 0.0006069875175254663 -0.007674114457930377 0.09901967601310954 4 0 0 0 0
861 1 0.01115192117072271 -0.003473832102334433 0.09851462250719031 4 0 0 0 0
862 1 -0.007465212339541049 -0.007191846992353585 0.09649853287880771 4 0 0 0 0
863 1 -0.006061870764640659 0.00729608705391833 0.0969946837876282 4 0 0 0 0
864 1 0.01058755925774836 -0.003790304815909637 0.0990461311236232 4 0 0 0 0
865 1 -1.260325029363882e-05 0.00225414237822929 0.09859756802573619 4 0 0 0 0
866 1 -5.125007857262396e-05 -0.002641862392832811 0.09699829011162098 4 0 0 0 0
867 1 -0.001872948426862557 0.006640544881366749 0.09765670677442354 4 0 0 0 0
868 1 -0.001857415392150729 0.004336771176555603 0.09844710316594596 4 0 0 0 0
869 1 -0.0007578412776844759 -3.285213407560938e-05 0.09848719261924203 4 0 0 0 0
870 1 -0.006369970922166443 0.008220542250167953 0.09699918965946117 4 0 0 0 0
871 1 -0.001482289093202388 0.006552164474924611 0.0971489450356863 4 0 0 0 0
872 1 0.005098179157757309 0.001499716124850491 0.0965068908895529 4 0 0 0 0
873 1 0.005415884793391222 -0.003971568917349077 0.09895064714818444 4 0 0 0 0
874 1 -0.00757124760459051 0.006684749903835405 0.09901437030728902 4 0 0 0 0
875 1 -0.002938872879534378 -0.004078013630846582 0.09951103660153955 4 0 0 0 0
876 1 -0.002017451932234493 -0.005693935450419591 0.09900007753757044 4 0 0 0 0
877 1 -0.00560428515696336 0.001607548410436211 0.09901107902812417 4 0 0 0 0
878 1 0.006927336553144549 -0.007378636629320023 0.09902869373137474 4 0 0 0 0
879 1 0.005567971572151514 -0.000867205091882975 0.09649627099667514 4 0 0 0 0
880 1 -0.008188883105038148 -0.008578831295464485 0.09649266215156467 4 0 0 0 0
881 1 -0.001020032574479104 -0.006708677304067698 0.0964890409360309 4 0 0 0 0
882 1 -0.00491303075825261 -0.001605731343376126 0.0970309579218961 4 0 0 0 0
883 1 0.00910900179207798 -0.006337407760870818 0.09701029157559711 4 0 0 0 0
884 1 -0.004097405040010193 -0.005004926884032961 0.09951103660153955 4 0 0 0 0
885 1 0.00857075930515927 -0.008148530905569181 0.09950595722858653 4 0 0 0 0
886 1 0.001968107415234928 -0.009236784318112515 0.09897273285773192 4 0 0 0 0
887 1 0.01002908629908255 0.005046763446262049 0.09698774950969612 4 0 0 0 0
888 1 -0.00245943957761658 0.001283125533747736 0.09650351627623102 4 0 0 0 0
889 1 -0.009710150142064361 -0.006744280792530397 0.09649268896097274 4 0 0 0 0
890 1 -0.00440986305170157 -0.006548827997002828 0.09651383574029576 4 0 0 0 0
891 1 0.005585188007581436 -0.01041763418838173 0.09650595722858651 4 0 0 0 0
892 1 0.005556752944364193 0.006472273667727546 0.09702768238170284 4 0 0 0 0
893 1 1.59158162951804e-05 -0.003370378809688437 0.09851890684662423 4 0 0 0 0
894 1 0.008305591821457287 0.007724147303302108 0.09899206816155214 4 0 0 0 0
895 1 0.0001638933343003626 0.009718063614910663 0.09651282788558735 4 0 0 0 0
896 1 -0.002614566832654622 -0.007443506088853739 0.0983568791445982 4 0 0 0 0
897 1 0.002770603637523018 0.002309322371171407 0.09951483683375199 4 0 0 0 0
898 1 -0.001210725754605568 -0.003383637082819309 0.09649943108935899 4 0 0 0 0
899 1 -0.002771133826538021 0.005235442717842209 0.09736309748967592 4 0 0 0 0
900 1 -0.009790724782755588 -0.006729071764356683 0.09949268896097274 4 0 0 0 0
901 1 0.006266440317520436 -0.007478083932899414 0.09651162444922182 4 0 0 0 0
902 1 -0.004225079911041384 -0.007635588574999157 0.09651383574029576 4 0 0 0 0
903 1 0.001946000718634773 -0.006946364934315323 0.09949915320925234 4 0 0 0 0
904 1 0.0008705900860587062 -0.007097055325690854 0.09681010290514269 4 0 0 0 0
905 1 8.650331004044038e-05 -0.005947382217672619 0.0975088108802865 4 0 0 0 0
906 1 -0.005133068199903084 -0.008202110819522596 0.09648589730819168 4 0 0 0 0
907 1 -0.002206776621060583 9.338154848849081e-05 0.09947013309433295 4 0 0 0 0
908 1 -0.006879126713745565 -0.0007516094941946206 0.09749741831590715 4 0 0 0 0
909 1 -0.007918641085282601 0.008027114783977983 0.09649712210158934 4 0 0 0 0
910 1 -0.0004261846736097869 -0.0113134963896584 0.0990217765607237 4 0 0 0 0
911 1 0.002154727298926582 -0.005197870268142993 0.09946115673766723 4 0 0 0 0
912 1 0.01100542958271242 0.003351732861326732 0.09852589966892519 4 0 0 0 0
913 1 0.000979777326487688 0.008371997946098157 0.09632019270909731 4 0 0 0 0
914 1 0.003507802145535282 0.006084470040906999 0.09649605068646269 4 0 0 0 0
915 1 -0.0009239153049428693 -0.01136290907228224 0.09702177656072369 4 0 0 0 0
916 1 -0.006169586517981746 0.001310732385928473 0.09850485789557964 4 0 0 0 0
917 1 -0.0004995686089611097 -0.00544413153382095 0.09700965767103417 4 0 0 0 0
918 1 0.00638211240839763 0.004057726849620667 0.09699800090218388 4 0 0 0 0
919 1 0.0006832849645696089 -0.001984646717434681 0.09701466133603273 4 0 0 0 0
920 1 -0.001128474894481073 0.01025598601702344 0.09653060739991977 4 0 0 0 0
921 1 0.003669357359504547 -0.009624483959212374 0.09651439018578291 4 0 0 0 0
922 1 0.006026864033017857 0.0006095727746077841 0.0995068908895529 4 0 0 0 0
923 1 0.009590841117933775 -0.004308527346400189 0.09652283695180122 4 0 0 0 0
924 1 0.002553799414777624 -0.002226070612304935 0.09900511052494174 4 0 0 0 0
925 1 -0.005221611347017544 0.01029260353695037 0.09903116333306687 4 0 0 0 0
926 1 -0.008536145694150983 -0.008139167293703812 0.09950518505054493 4 0 0 0 0
927 1 -0.008633025484704399 -0.002641995493134038 0.09650029218912133 4 0 0 0 0
928 1 -0.009100225066646489 -0.003624347156202198 0.09650029218912133 4 0 0 0 0
929 1 -0.004695287035024209 -0.007930643059574572 0.09699973304848741 4 0 0 0 0
930 1 0.002840653105805454 -0.002964141343588331 0.09844011127267943 4 0 0 0 0
931 1 -0.004025904595743344 0.009530814052198511 0.09650752025725672 4 0 0 0 0
932 1 -0.005261332780622458 5.243212513601631e-05 0.09652945177651939 4 0 0 0 0
933 1 -0.007237910460494455 -0.001950487684536463 0.09700363944845171 4 0 0 0 0
934 1 -0.003687598429486417 -0.008920980672012885 0.09898792089773883 4 0 0 0 0
935 1 -0.003350121988790221 -0.001593394870775364 0.09952276598118187 4 0 0 0 0
936 1 -0.007177519509192986 -0.00948911946586525 0.09649266215156466 4 0 0 0 0
937 1 0.006650945815221594 0.001950544197907269 0.09949507545594501 4 0 0 0 0
938 1 -0.006031103877712199 0.002041736289499029 0.09948162725160478 4 0 0 0 0
939 1 0.003648690826735166 -0.003180060311063924 0.09894125225041746 4 0 0 0 0
940 1 0.01023931614507507 0.005636381126587657 0.09749505690661278 4 0 0 0 0
941 1 -0.005466600119113058 0.009876207593492437 0.0985332308909387 4 0 0 0 0
942 1 0.003978145681211799 0.004543978639879904 0.09684848377649481 4 0 0 0 0
943 1 -0.006384715811845148 -0.005074127057086358 0.09950823429143373 4 0 0 0 0
944 1 0.009308373410265917 0.0006225693945080396 0.09900878341811906 4 0 0 0 0
945 1 -0.005483080881253896 0.007223347072088286 0.09649756168603889 4 0 0 0 0
946 1 -0.002685201910789135 -0.01091635297184597 0.09889784238793572 4 0 0 0 0
947 1 1.808240563269637e-05 0.003674164359854994 0.09758694345742031 4 0 0 0 0
948 1 0.004357285770042368 0.005255906289464742 0.09697362459553721 4 0 0 0 0
949 1 0.005809345476358098 0.006099674902852034 0.0965029254462389 4 0 0 0 0
950 1 -0.005212384717741604 0.01068419116816764 0.09649291815890398 4 0 0 0 0
951 1 0.002486142837655328 0.004261424900364826 0.09637090986742029 4 0 0 0 0
952 1 -0.006432361488908234 0.004447617254902071 0.09850140913618 4 0 0 0 0
953 1 0.009429739696966076 0.006733248348805495 0.09749111923380871 4 0 0 0 0
954 1 0.005296633227554363 -0.004127866131561524 0.09695064714818444 4 0 0 0 0
955 1 0.002244049885259118 0.01122110469371579 0.09686354628592947 4 0 0 0 0
956 1 0.005103887871626396 -0.008526845497248404 0.09951162444922182 4 0 0 0 0
957 1 0.003866010449458956 -0.0107341016384426 0.09700761248693641 4 0 0 0 0
958 1 -0.0008781477303444722 -0.0006377846761839189 0.09898593540810371 4 0 0 0 0
959 1 -0.00464188060889172 -0.002024004073617495 0.09854413105282032 4 0 0 0 0
960 1 0.00587714789147321 -0.005316004084154238 0.09949989390527293 4 0 0 0 0
961 1 -0.009208313279970029 -0.00246839276252276 0.0970119179019895 4 0 0 0 0
962 1 0.001513180378708092 0.01160114586564254 0.09949132437727186 4 0 0 0 0
963 1 0.009782498302344744 0.006749713109599572 0.09950730739691666 4 0 0 0 0
964 1 0.009272792253915536 -0.001895853796210034 0.09649775379391758 4 0 0 0 0
965 1 -0.006918730894688885 -5.082210378271632e-05 0.09949377886745547 4 0 0 0 0
966 1 -0.009146838871209798 0.003637057028248015 0.09899283340016438 4 0 0 0 0
967 1 -0.0003886852718717144 0.004058310566722385 0.09708240005782971 4 0 0 0 0
968 1 -0.002611067001837103 0.009441285402496578 0.09648852425320729 4 0 0 0 0
969 1 0.003877685374201753 0.004726766886926042 0.0983445344629575 4 0 0 0 0
970 1 0.000466951483771789 -0.002559196883372436 0.09649885902226199 4 0 0 0 0
971 1 -0.01129334470761234 -0.003140955636460385 0.09851730435604829 4 0 0 0 0
972 1 0.002445302579116711 0.01016341094682459 0.09684583240893802 4 0 0 0 0
973 1 0.005680239081603824 -0.002399017287821087 0.09645075324291152 4 0 0 0 0
974 1 0.003459868734359102 -0.007627089215334814 0.09899104083995931 4 0 0 0 0
975 1 0.004078021710431319 0.00395697658739195 0.09684848377649481 4 0 0 0 0
976 1 0.01153968038050125 0.003995517660777639 0.09702312498601895 4 0 0 0 0
977 1 -0.008188701864571194 0.0005275687330577893 0.09949377886745547 4 0 0 0 0
978 1 0.005362041284913768 -0.00662659907360486 0.09952750158723898 4 0 0 0 0
979 1 -0.001027650383515805 -0.009258688466959986 0.09832626167269469 4 0 0 0 0
980 1 -0.009615088325572486 0.001208857965209184 0.09700007501609195 4 0 0 0 0
981 1 -0.006180211071910587 0.007162811978559867 0.09899468378762821 4 0 0 0 0
982 1 -0.002980232769581024 0.001063363953805189 0.09650351627623102 4 0 0 0 0
983 1 -0.005775953838641406 -0.005339823296239395 0.09695030208901707 4 0 0 0 0
984 1 -0.001861000756039444 -0.001580126942783769 0.09696956418369193 4 0 0 0 0
985 1 -0.00573742435788411 0.006759552400683752 0.09949756168603889 4 0 0 0 0
986 1 -0.004735517920866785 -0.001039388394197048 0.09952276598118187 4 0 0 0 0
987 1 -0.001570348019729091 0.002034638994176012 0.09650351627623102 4 0 0 0 0
988 1 -0.007180561125268166 0.009485504741567259 0.09649268370068631 4 0 0 0 0
989 1 0.0001860011979092501 -0.002744384444445214 0.09899829011162098 4 0 0 0 0
990 1 -0.000882793040977371 0.004583146019067849 0.09742343039480428 4 0 0 0 0
991 1 -0.0009123596570701937 -0.0007155820087015537 0.09698593540810371 4 0 0 0 0
992 1 0.005657715308991806 -0.003387497522429978 0.09945075324291153 4 0 0 0 0
993 1 0.00171626663212708 0.01029389687231659 0.09884583240893802 4 0 0 0 0
994 1 -0.00061727546619037 0.002115691480831051 0.0990930246261456 4 0 0 0 0
995 1 -0.006596405238730585 0.001744920264991292 0.09897540611906025 4 0 0 0 0
996 1 0.004431387456919849 -0.00262942836545688 0.09895700474559127 4 0 0 0 0
997 1 2.229304347871189e-05 -0.01174856790112986 0.09851312241298932 4 0 0 0 0
998 1 -0.0009991399454229199 0.01076436094928213 0.09653060739991977 4 0 0 0 0
999 1 -0.00481371582516853 -0.002150259946938754 0.09754413105282032 4 0 0 0 0
1000 1 0.003965353702602441 -0.006067775835594431 0.09952750158723898 4 0 0 0 0
1001 1 0.009152077961787452 -0.007017494141111405 0.09751624880418364 4 0 0 0 0
1002 1 -0.004679257736167979 0.00494069808674945 0.09650253367887553 4 0 0 0 0
1003 1 0.00574388536895445 -0.005283305465476088 0.09649989390527293 4 0 0 0 0
1004 1 0.007840504848255977 0.001416579122457099 0.09650143723160531 4 0 0 0 0
1005 1 0.004205736676834035 0.007021482126428041 0.09749141194319869 4 0 0 0 0
1006 1 0.002934737964027869 -0.009265482703537185 0.09897792943850324 4 0 0 0 0
1007 1 -0.005115892591202378 -0.007315025093768598 0.09844180084607078 4 0 0 0 0
1008 1 -0.001930915059890678 -0.002217781606562768 0.09649943108935899 4 0 0 0 0
1009 1 0.000527958031300315 -0.005332414819304238 0.09652061673500328 4 0 0 0 0
1010 1 -0.006038934690890826 -0.008743473784054349 0.09648589730819168 4 0 0 0 0
1011 1 -0.001385430060696353 0.007439787044932257 0.09948786193525358 4 0 0 0 0
1012 1 0.003273041441582511 0.008717655041412769 0.09845339139652327 4 0 0 0 0
1013 1 -0.00736274828525799 0.00239848136060903 0.09698389954410372 4 0 0 0 0
1014 1 -0.0008706339884306755 0.006762559473282614 0.09948786193525358 4 0 0 0 0
1015 1 0.003073572847067993 0.007119615092954158 0.09647060432127208 4 0 0 0 0
1016 1 -0.005087912313225575 -0.003515181139773294 0.09702140742235793 4 0 0 0 0
1017 1 0.003171482171595084 -0.005948100980017221 0.09646115673766723 4 0 0 0 0
1018 1 0.004490180419657862 -0.004767526625217711 0.09949989390527293 4 0 0 0 0
1019 1 0.003736138506480557 0.003688333153506575 0.09736332061024681 4 0 0 0 0
1020 1 -0.003568885816007986 -0.0001148461015616917 0.09952276598118187 4 0 0 0 0
1021 1 0.00566909780109455 0.003937866700489452 0.09847557481125843 4 0 0 0 0
1022 1 -0.003964872612623383 -0.01124820736609293 0.09651026734336329 4 0 0 0 0
1023 1 5.586440153839079e-05 -0.003323925802195589 0.09751890684662423 4 0 0 0 0
1024 1 -0.0006827863617250648 -0.0001035787725901489 0.09748719261924203 4 0 0 0 0
1025 1 0.002438124973644946 0.005412758389516157 0.09685354979733378 4 0 0 0 0
1026 1 0.0026689970881315 0.007244881380265807 0.09947060432127208 4 0 0 0 0
1027 1 -0.007204212114667923 0.009483174741965947 0.09949268370068631 4 0 0 0 0
1028 1 -0.0005259881960949395 -0.001740466790613164 0.09701523340312976 4 0 0 0 0
1029 1 0.005034022626349489 0.006628125117571035 0.09702080762192661 4 0 0 0 0
1030 1 -0.006708306375974884 -0.00964079986039942 0.09952318204342603 4 0 0 0 0
1031 1 -0.008395016169875348 0.008195412604638434 0.09849499085282055 4 0 0 0 0
1032 1 -0.004575015868481131 0.009479415056700007 0.09700958781512854 4 0 0 0 0
1033 1 0.001324800606246991 -0.009837239881673064 0.09650919360501156 4 0 0 0 0
1034 1 0.001759693869712615 -0.01165298924220995 0.09752383364240835 4 0 0 0 0
1035 1 0.005373816425591846 -0.0110372585021928 0.09699917952974002 4 0 0 0 0
1036 1 0.007680946412639948 0.005802644342055211 0.09850064587842598 4 0 0 0 0
1037 1 0.005464904062762564 -0.002117899737380718 0.09894702423958665 4 0 0 0 0
1038 1 -0.008255327485979718 0.008618388390976856 0.09949268370068631 4 0 0 0 0
1039 1 0.009918581729904931 0.0006333565727403185 0.09950734618651377 4 0 0 0 0
1040 1 0.006955404879287013 -0.004977289435150955 0.09650136538234147 4 0 0 0 0
1041 1 0.001439416806018483 -0.01037282665575974 0.09650919360501156 4 0 0 0 0
1042 1 0.003887941302193105 0.004997030036861558 0.0973445344629575 4 0 0 0 0
1043 1 0.0005856481243810682 -0.003801420844687915 0.09901947575726525 4 0 0 0 0
1044 1 3.604845602925321e-05 -0.005836084341347097 0.0985088108802865 4 0 0 0 0
1045 1 -0.002223613653622554 0.003782852035635116 0.09910607282897138 4 0 0 0 0
1046 1 -0.002229356967249821 0.009854584035725644 0.09701913165312705 4 0 0 0 0
1047 1 0.002097166355748197 0.01197885831398696 0.09901461854909381 4 0 0 0 0
1048 1 0.005092089824443553 -0.01066392358590888 0.09949322230115351 4 0 0 0 0
1049 1 -0.007697893538997552 0.001787485946432411 0.09899605115995441 4 0 0 0 0
1050 1 -0.005034758423370192 -0.003639003874004702 0.09902140742235793 4 0 0 0 0
1051 1 -0.01022668949834041 -0.0006961523400715887 0.09700942843646118 4 0 0 0 0
1052 1 -0.003135682826341911 0.00826954474371891 0.0994885242532073 4 0 0 0 0
1053 1 0.002463178245030705 0.008286542400668014 0.09848544698635112 4 0 0 0 0
1054 1 -0.001582930736828635 -0.01114629380438384 0.09842672093092408 4 0 0 0 0
1055 1 -0.005014972703524244 -0.009356626782073064 0.09648589730819168 4 0 0 0 0
1056 1 -0.0009789552730717823 -0.007199502101032184 0.09714101044667656 4 0 0 0 0
1057 1 -0.0002416139912481819 -0.01091989861761017 0.09649859451729767 4 0 0 0 0
1058 1 -0.004934580634579864 0.008099864385223813 0.09899962924391072 4 0 0 0 0
1059 1 -0.00952265574245871 -0.001194028362849837 0.09850487594419864 4 0 0 0 0
1060 1 0.007929785643378384 -0.001619508842444412 0.09649775379391758 4 0 0 0 0
1061 1 0.003547862855332022 0.01163051887948738 0.09901734546207687 4 0 0 0 0
1062 1 0.002828834120440481 0.005296028679826353 0.09637090986742029 4 0 0 0 0
1063 1 0.002973489075050492 0.008692951112173723 0.09697618461610258 4 0 0 0 0
1064 1 -0.01213839817024377 0.002181480879443023 0.09698432663350076 4 0 0 0 0
1065 1 0.008725073532828328 0.005942984846691448 0.09949473205376351 4 0 0 0 0
1066 1 0.01054542278470791 0.005632823014478412 0.09950730739691667 4 0 0 0 0
1067 1 0.001168486036040111 -0.01140786774058551 0.09700053945727719 4 0 0 0 0
1068 1 0.008496463886281927 -0.008800381936364659 0.09899837140845021 4 0 0 0 0
1069 1 0.01115440120778738 0.003375976253811659 0.09653010753008631 4 0 0 0 0
1070 1 0.002440058466888103 0.009508109744032038 0.09650558029483053 4 0 0 0 0
1071 1 0.0004576196447388251 -0.01040215147755298 0.09900778812230923 4 0 0 0 0
1072 1 -0.0003215591862386607 -0.01185349599876023 0.09751312241298932 4 0 0 0 0
1073 1 -0.009786625248632474 -0.007377802997096018 0.09699787401151766 4 0 0 0 0
1074 1 0.007638890577270784 0.005604765217249538 0.09750064587842598 4 0 0 0 0
1075 1 0.00934673116182318 0.004137990983412301 0.09899750673666974 4 0 0 0 0
1076 1 -0.002449505778033948 0.006107046077290278 0.09684879207571181 4 0 0 0 0
1077 1 -0.007628129589046477 0.006357244364354998 0.09701437030728902 4 0 0 0 0
1078 1 -0.0117214049071119 0.00172877526551707 0.09647627610276849 4 0 0 0 0
1079 1 -0.009685331315491154 0.00125515340553393 0.09900007501609195 4 0 0 0 0
1080 1 0.001837624040437687 -0.0002470177646606787 0.09650032090309382 4 0 0 0 0
1081 1 0.009554195887391658 -0.007183280803702002 0.09950595722858652 4 0 0 0 0
1082 1 0.001963026341987073 0.005755636581263098 0.0964826399299135 4 0 0 0 0
1083 1 -0.007356070694448337 -0.009744396602122249 0.09901584419499071 4 0 0 0 0
1084 1 -0.005815179001927713 0.004451424041418905 0.09650253367887553 4 0 0 0 0
1085 1 -0.002555964685667696 0.003167886077158213 0.09701782169019513 4 0 0 0 0
1086 1 0.006764486144831959 0.004569835409870789 0.0965029254462389 4 0 0 0 0
1087 1 0.00578725383067394 -0.001954797379119801 0.09694702423958665 4 0 0 0 0
1088 1 -0.01131345052038019 1.396280769328784e-05 0.09949780272359302 4 0 0 0 0
1089 1 -0.009796190318546213 -0.007363858348462649 0.09899787401151769 4 0 0 0 0
1090 1 0.00707958311899105 0.005829384188921974 0.09700591382466249 4 0 0 0 0
1091 1 -0.004418118015027109 0.006239040369753968 0.09949756168603889 4 0 0 0 0
1092 1 -0.008539380139702776 0.007969151493616591 0.09700230715213426 4 0 0 0 0
1093 1 -0.001725557420740167 -0.00962563633624269 0.09771270682858499 4 0 0 0 0
1094 1 0.007481696888163386 0.00521269871792961 0.09899765750000239 4 0 0 0 0
1095 1 2.787262528625602e-05 0.004394646020870264 0.09649063264282245 4 0 0 0 0
1096 1 0.009081341642325224 0.002009890428173583 0.09700421191451156 4 0 0 0 0
1097 1 0.001424165867686148 -0.0006898809546440857 0.09701612321686459 4 0 0 0 0
1098 1 0.001890236595240086 0.00856859879805949 0.09901484266507904 4 0 0 0 0
1099 1 0.008553325020872485 -0.0005020818599437175 0.09899919102552288 4 0 0 0 0
1100 1 0.008246148841512028 0.008348253905441617 0.09848401177686797 4 0 0 0 0
1101 1 -0.001351137046990599 0.001473818241540309 0.09900477348736934 4 0 0 0 0
1102 1 -0.001356032199269674 -0.01104463615293179 0.09742672093092408 4 0 0 0 0
1103 1 -0.003170101272067792 0.003100334431522044 0.09758820174502261 4 0 0 0 0
1104 1 -0.007882634238288048 0.008649916723227456 0.09698980580227563 4 0 0 0 0
1105 1 -0.001904386973484727 -0.009560562054785955 0.0967120887217402 4 0 0 0 0
1106 1 -0.009333737434678427 -0.000606443980987012 0.09899325023133047 4 0 0 0 0
1107 1 -0.01105791527788305 -0.00185274668967882 0.09651162571286818 4 0 0 0 0
1108 1 -0.0008574576538317078 -0.009813764679747809 0.09680573886883746 4 0 0 0 0
1109 1 -0.002329425592884365 -0.009602229147519441 0.09640494437020039 4 0 0 0 0
1110 1 0.008238767243374587 0.006264178401197751 0.09899772043218709 4 0 0 0 0
1111 1 -0.001289287210825312 0.002193350393044902 0.0985965409023766 4 0 0 0 0
1112 1 -0.001943719536995545 0.00313222944851268 0.09760958910520239 4 0 0 0 0
1113 1 -0.0007993434271579029 0.003545785914168975 0.09659176741500727 4 0 0 0 0
1114 1 -0.008033495286347557 0.006222454098626891 0.09951724820569971 4 0 0 0 0
1115 1 -0.007398468661302782 0.006689821529794103 0.09649712210158934 4 0 0 0 0
1116 1 0.00295507002634352 -0.0005924335629274727 0.09650032090309382 4 0 0 0 0
1117 1 -0.003183740975155233 -0.006139848208383354 0.09902487234183528 4 0 0 0 0
1118 1 -0.005776046327077255 -0.0108520626090037 0.09703344938678934 4 0 0 0 0
1119 1 -9.167877651033766e-05 0.0003178419008334206 0.09650125721113834 4 0 0 0 0
1120 1 0.003875862774581248 0.01096101275391158 0.0994940512902549 4 0 0 0 0
1121 1 -0.00322774227614358 -0.01130424678748945 0.09740810973129901 4 0 0 0 0
1122 1 0.001758413254549762 0.01165040729810778 0.09735487066320131 4 0 0 0 0
1123 1 -0.008810212183319368 -0.008521035456639493 0.09699784720210959 4 0 0 0 0
1124 1 -0.0001312214744283877 4.58468653103106e-05 0.09901705952490909 4 0 0 0 0
1125 1 -0.001626298475196998 -0.008223759113292718 0.09902254639340437 4 0 0 0 0
1126 1 -0.001555887226376497 0.01004468489162782 0.09653060739991977 4 0 0 0 0
1127 1 0.001926847424778272 -0.002246750641106523 0.09949885902226199 4 0 0 0 0
1128 1 0.005264497326526723 -0.00837916720476275 0.09651162444922182 4 0 0 0 0
1129 1 -0.005348801716652109 -0.002994302824119845 0.09752959936307218 4 0 0 0 0
1130 1 -0.009838290811310307 -0.001100346899486999 0.09651162571286818 4 0 0 0 0
1131 1 -0.005040411430620213 0.009286877965845836 0.09650206755787183 4 0 0 0 0
1132 1 0.00407803530729044 0.00762300005124544 0.09647060432127208 4 0 0 0 0
1133 1 -4.030397118970911e-05 -0.006521762793601664 0.09898819414528322 4 0 0 0 0
1134 1 -0.002826628919083566 -0.0083945421210961 0.09650202358954717 4 0 0 0 0
1135 1 -0.00849056331788106 -0.008775518543416499 0.09899784720210959 4 0 0 0 0
1136 1 -0.007516899047694699 -0.005672884210003981 0.09949853287880771 4 0 0 0 0
1137 1 -0.001555497045211437 -0.009315141452400592 0.09830776245838463 4 0 0 0 0
1138 1 -0.005886216983107872 0.004078205970410588 0.09898416093048029 4 0 0 0 0
1139 1 -0.01126482808887966 0.003932231929912026 0.09651076143618714 4 0 0 0 0
1140 1 -0.007545753375500067 0.004608327310723967 0.09651724820569971 4 0 0 0 0
1141 1 -0.003083115554578099 -0.01135469643052352 0.09949289801773535 4 0 0 0 0
1142 1 -3.653765978440391e-05 0.008948667876499259 0.09951282788558735 4 0 0 0 0
1143 1 0.008484906210010752 -0.008739959401632193 0.0969983714084502 4 0 0 0 0
1144 1 -0.00147445886408198 -0.009789514604398458 0.09630714435153982 4 0 0 0 0
1145 1 0.007129023039298747 0.0029938301963572 0.096495075455945 4 0 0 0 0
1146 1 0.005237740555814979 0.006079350844348764 0.0985237330681655 4 0 0 0 0
1147 1 0.004521465625311624 0.007358110250010617 0.09699536125673602 4 0 0 0 0
1148 1 0.007239213143623071 -0.005066412083041202 0.09950136538234147 4 0 0 0 0
1149 1 0.002512455441407755 -0.01076390863705866 0.09854687797592564 4 0 0 0 0
1150 1 0.007371401376220583 -0.005440918821939297 0.0970184346644944 4 0 0 0 0
1151 1 0.0007557335059951379 -0.003175426479444692 0.09949885902226199 4 0 0 0 0
1152 1 -0.01156502890664718 -0.001462234711894799 0.09701796651093601 4 0 0 0 0
1153 1 0.00347072975659342 -0.002143637321315976 0.09650625150267977 4 0 0 0 0
1154 1 -0.003112084108149372 0.00966919127744191 0.09699604451046399 4 0 0 0 0
1155 1 0.005502516219672137 0.0003096317034239248 0.0965068908895529 4 0 0 0 0
1156 1 0.007557936946908853 -0.005558453380979937 0.09901843466449441 4 0 0 0 0
1157 1 -0.001882900026084669 0.00335584358633243 0.09959176741500728 4 0 0 0 0
1158 1 0.0004422832639502803 -0.00212338127101461 0.09851409242539172 4 0 0 0 0
1159 1 -0.003906715516171598 -0.008208987769245023 0.09850175663803458 4 0 0 0 0
1160 1 -0.007148104650392079 0.006243657101668821 0.09701437030728902 4 0 0 0 0
1161 1 0.001114209486114292 -0.01073697829068095 0.09650919360501156 4 0 0 0 0
1162 1 0.003822736270651597 0.008219236636426827 0.09894781110169278 4 0 0 0 0
1163 1 -0.01005859047642633 0.005067209279740021 0.09649056110766541 4 0 0 0 0
1164 1 0.003453897650846578 0.009336270282031668 0.0969827870752512 4 0 0 0 0
1165 1 0.0006504111023548752 -0.005755777507954966 0.09901976994425561 4 0 0 0 0
1166 1 0.004515525863375933 0.007819349804033546 0.09699536125673602 4 0 0 0 0
1167 1 0.00355635420078043 -0.003874813328549371 0.0994350007477377 4 0 0 0 0
1168 1 0.008646852009739411 0.008217891065445916 0.09948907978312854 4 0 0 0 0
1169 1 -0.002764542789718776 0.007053247296996562 0.09950776173873725 4 0 0 0 0
1170 1 -0.0003286397718494152 0.0118565648413131 0.09952272150861405 4 0 0 0 0
1171 1 0.0005459311261617083 0.009075246034188677 0.09632019270909731 4 0 0 0 0
1172 1 -0.0002515279270883841 -0.0005590856767979989 0.09951580231377077 4 0 0 0 0
1173 1 0.006987265311107333 0.01001615639460443 0.09701569899365411 4 0 0 0 0
1174 1 -0.001755470552257389 0.0002416743415867291 0.09647013309433294 4 0 0 0 0
1175 1 0.007265083786884735 0.009368162587153495 0.09949194361531585 4 0 0 0 0
1176 1 -0.004349293642384816 -0.0001063400947673867 0.09705221775770126 4 0 0 0 0
1177 1 -6.938477792462774e-05 -0.007275366986510406 0.09850871694914043 4 0 0 0 0
1178 1 0.01172659408736186 -0.0002647116648131628 0.09900734618651377 4 0 0 0 0
1179 1 0.005950491336658325 0.006580516589229857 0.09702768238170284 4 0 0 0 0
1180 1 0.006188830362481433 0.004068064753409609 0.09899800090218389 4 0 0 0 0
1181 1 0.008506771150749153 -0.008023233484788903 0.09650595722858653 4 0 0 0 0
1182 1 -0.004977707083169948 0.01083388669760998 0.09852408149197088 4 0 0 0 0
1183 1 0.009500587761513146 -0.0005841206553459808 0.09700509998043133 4 0 0 0 0
1184 1 -0.005714531573508644 -0.007058427984757618 0.09644206779758337 4 0 0 0 0
1185 1 0.004398155832133051 -0.003461484892553013 0.09688575399064919 4 0 0 0 0
1186 1 -0.001492815185149211 -0.008806041745209598 0.09832969074494417 4 0 0 0 0
1187 1 -0.006905000739864033 -0.002582967391507223 0.09650819194071425 4 0 0 0 0
1188 1 0.009223833494316063 -0.002450883044788805 0.09702059074571878 4 0 0 0 0
1189 1 0.001455576355030786 -0.009567421020552563 0.09950919360501156 4 0 0 0 0
1190 1 -0.01131099952619195 -0.003393132138463866 0.09648192327386057 4 0 0 0 0
1191 1 -0.003267079264728515 0.002502008827542809 0.09707389633105851 4 0 0 0 0
1192 1 0.004299141408280288 0.008354208057872764 0.0974725680371567 4 0 0 0 0
1193 1 -0.0006661765327295865 0.004125783340048417 0.09908240005782971 4 0 0 0 0
1194 1 0.003548121789446465 -0.01125375690150039 0.09753090667206758 4 0 0 0 0
1195 1 -0.008349210953664024 -0.002183260020321315 0.09699573969685878 4 0 0 0 0
1196 1 0.0002793708007806909 0.007769618263619741 0.09632019270909731 4 0 0 0 0
1197 1 0.01167013943338151 0.0005060758072043091 0.09868773259614705 4 0 0 0 0
1198 1 0.009806875825049978 0.007381351263270981 0.09899638718004522 4 0 0 0 0
1199 1 -0.01131196106850747 -0.003965000527740809 0.09952375536931952 4 0 0 0 0
1200 1 -0.004563532989676095 0.006530099150665271 0.09649756168603889 4 0 0 0 0
1201 1 -0.005774814335629832 0.003891744763201838 0.09698416093048029 4 0 0 0 0
1202 1 -0.005720569692307121 -0.003668717598488924 0.09650823429143372 4 0 0 0 0
1203 1 -0.0001451145638595026 -0.001298888027476713 0.09651580231377077 4 0 0 0 0
1204 1 0.006502298845121842 0.006506769082916083 0.09753067076012642 4 0 0 0 0
1205 1 0.00154133524985348 -0.0005981087599726965 0.09901612321686459 4 0 0 0 0
1206 1 -0.007923691110432304 -0.003450544520901785 0.09650029218912133 4 0 0 0 0
1207 1 -0.002569989339680617 -0.007949648485416887 0.09684304340430247 4 0 0 0 0
1208 1 0.004831082662010477 0.008245342982605475 0.09700196371588463 4 0 0 0 0
1209 1 -0.01103390916128379 -0.0009438205669915359 0.09751576923452902 4 0 0 0 0
1210 1 0.006291503878034726 -0.007687181770988944 0.09951162444922182 4 0 0 0 0
1211 1 -0.008414399045909108 0.005285476297991178 0.09700780931336511 4 0 0 0 0
1212 1 0.007096357732989641 0.009280850116210968 0.09649194361531585 4 0 0 0 0
1213 1 -0.005784248698368077 0.01084583865418982 0.09701656123471417 4 0 0 0 0
1214 1 0.001147925565747104 0.003646520305578694 0.0995045433995906 4 0 0 0 0
1215 1 0.006458615587955353 -0.009697000228644719 0.09701758167780833 4 0 0 0 0
1216 1 0.001621084596267144 0.009896109933106467 0.09950558029483053 4 0 0 0 0
1217 1 0.003626006549269685 0.004005072056059013 0.0983633206102468 4 0 0 0 0
1218 1 0.008620731080244727 0.008476378027972601 0.09748401177686797 4 0 0 0 0
1219 1 -0.007604094500263834 -0.002243848271296053 0.09850393163757303 4 0 0 0 0
1220 1 -0.0003290408274553535 -0.0007495887358511323 0.09651580231377077 4 0 0 0 0
1221 1 0.009088252259663789 0.001365317304128515 0.09650143723160531 4 0 0 0 0
1222 1 0.005285959704982739 0.00840479121533733 0.09700196371588463 4 0 0 0 0
1223 1 0.0002067863332642844 -0.008094009877755326 0.09631094969589038 4 0 0 0 0
1224 1 -0.009795697515526345 0.0006441597330742355 0.09649780272359301 4 0 0 0 0
1225 1 -0.009160494422380469 -0.004147310411926498 0.09701291486954915 4 0 0 0 0
1226 1 0.006563585260063654 -0.009008180308066402 0.09651162444922182 4 0 0 0 0
1227 1 -0.0007218088093832823 -0.006342865687547567 0.0964890409360309 4 0 0 0 0
1228 1 -0.005083997760216899 -0.006129116415212727 0.09944206779758337 4 0 0 0 0
1229 1 -0.01118175909380823 -0.001892679172757876 0.09951162571286819 4 0 0 0 0
1230 1 0.007210913641592705 -0.009169256164439848 0.09900403862908549 4 0 0 0 0
1231 1 0.000506188800161137 0.01008183980121681 0.09685307999969486 4 0 0 0 0
1232 1 -0.005720596088208676 0.007750571481945969 0.09849675134550002 4 0 0 0 0
1233 1 -0.01156724639132242 0.003977619040774952 0.09901881196691943 4 0 0 0 0
1234 1 -0.004706536715504064 -0.006587914509875987 0.0989559035378791 4 0 0 0 0
1235 1 0.004652017841455735 0.001161795724978331 0.0995068908895529 4 0 0 0 0
1236 1 0.004419597565415359 -0.007341405199401697 0.09652750158723898 4 0 0 0 0
1237 1 -0.0116358018245714 -0.001466884357826928 0.09901796651093601 4 0 0 0 0
1238 1 -0.005361176728050472 -0.004166779563652323 0.09950823429143373 4 0 0 0 0
1239 1 0.01065267963906497 0.005187671330154598 0.09649301745593261 4 0 0 0 0
1240 1 0.001280970638821785 -0.01171060854374148 0.09900053945727719 4 0 0 0 0
1241 1 0.003199337234843366 0.003072998606547707 0.09651483683375199 4 0 0 0 0
1242 1 -0.007043201818280173 -0.01007663675887284 0.09701584419499071 4 0 0 0 0
1243 1 0.001961946895429995 -0.008540041569082281 0.09646353925272036 4 0 0 0 0
1244 1 -0.005141138088616735 -0.002608856879646959 0.09902136507163847 4 0 0 0 0
1245 1 0.002910701601302441 -0.008286247200936486 0.09646353925272036 4 0 0 0 0
1246 1 -0.01110468207920801 -0.0009484702129236651 0.09851576923452902 4 0 0 0 0
1247 1 0.006534164838627103 -0.009101936333237923 0.09951162444922182 4 0 0 0 0
1248 1 0.00886808856836965 -0.0007706545515702059 0.09649775379391758 4 0 0 0 0
1249 1 -0.0006523412888019267 0.005204863226906681 0.09683166297979703 4 0 0 0 0
1250 1 -0.004699605975695733 0.0002851069860851685 0.09652945177651939 4 0 0 0 0
1251 1 0.008585446112052492 -0.0002480610751010813 0.09699919102552287 4 0 0 0 0
1252 1 0.004703288214504879 -0.003849254897360029 0.09838564789592213 4 0 0 0 0
1253 1 -0.001249784516441161 -0.01187530851495505 0.09652318204342603 4 0 0 0 0
1254 1 0.000235339587635202 2.393987205505767e-05 0.09701705952490909 4 0 0 0 0
1255 1 -0.0001395214916847225 -0.001789465140729623 0.09901523340312975 4 0 0 0 0
1256 1 0.00381330710761938 0.006846040595436604 0.09896665500773477 4 0 0 0 0
1257 1 -0.006980720827499474 0.004881289829144179 0.09651724820569971 4 0 0 0 0
1258 1 0.004654618726813426 0.00349702192799563 0.09647757390907455 4 0 0 0 0
1259 1 0.005837547359966535 0.004200203689115006 0.09747557481125843 4 0 0 0 0
1260 1 0.00800940336316289 0.001554478309585186 0.09950143723160532 4 0 0 0 0
1261 1 -0.008853490149153324 0.008573767095119988 0.09899786875123123 4 0 0 0 0
1262 1 -0.0004833920233501502 0.004701494651875033 0.09949063264282246 4 0 0 0 0
1263 1 -0.004272810965247687 0.001697858290382345 0.09909983183134689 4 0 0 0 0
1264 1 -0.005567325892233743 -0.003177624075128839 0.09852959936307218 4 0 0 0 0
1265 1 -0.01215015841021348 0.001683573816704951 0.09898432663350076 4 0 0 0 0
1266 1 -0.0009846766379373244 0.005456558139254384 0.09634103033697458 4 0 0 0 0
1267 1 -0.001874970307345595 0.009882286332291901 0.09901913165312705 4 0 0 0 0
1268 1 -0.00301699695420359 -0.007692289041828349 0.0973568791445982 4 0 0 0 0
1269 1 -0.005665063953621573 0.01055027952914191 0.09952364307581016 4 0 0 0 0
1270 1 -0.005272883578815451 0.006625190591829517 0.09649756168603889 4 0 0 0 0
1271 1 0.005121172266430015 -0.00271116147633916 0.09945075324291153 4 0 0 0 0
1272 1 -0.006319422260283121 0.008135417067714069 0.09899918965946117 4 0 0 0 0
1273 1 -0.004928175967189617 -0.006534289673400731 0.0969559035378791 4 0 0 0 0
1274 1 -0.007045944181881374 0.0100726764195818 0.09701632677649646 4 0 0 0 0
1275 1 -0.003061946106196427 -0.004878640530756043 0.09651103660153955 4 0 0 0 0
1276 1 0.004120506860911471 -0.002946333586354331 0.09739200549332896 4 0 0 0 0
1277 1 -0.004539763786169979 0.007656239470265733 0.09949756168603889 4 0 0 0 0
1278 1 -0.002730374073562089 0.01008248991067098 0.09752665191038375 4 0 0 0 0
1279 1 0.003824744363059717 -0.002626038284962154 0.09950625150267978 4 0 0 0 0
1280 1 0.005699850333815292 -0.01081681683106847 0.09899917952974002 4 0 0 0 0
1281 1 0.008249137871972876 3.795316564210422e-05 0.09950143723160532 4 0 0 0 0
1282 1 0.0112708389284371 -4.020182341016575e-05 0.09950734618651377 4 0 0 0 0
1283 1 0.004737677930564224 0.006912617051160752 0.09702080762192661 4 0 0 0 0
1284 1 0.001138251838796534 -0.001108823376764268 0.09951580231377077 4 0 0 0 0
1285 1 0.01086290948505749 0.005777289010480206 0.09700032485284928 4 0 0 0 0
1286 1 -0.002160872257212273 -0.009372928073293044 0.0967120887217402 4 0 0 0 0
1287 1 -0.008531419336599342 -0.006174671283796247 0.09949853287880771 4 0 0 0 0
1288 1 -0.01170534972936828 0.0004733566014108335 0.09897407882636149 4 0 0 0 0
1289 1 -0.01026816889805519 0.0008931250051164965 0.09949780272359302 4 0 0 0 0
1290 1 -0.006526771670455228 -0.005881254540831276 0.09644206779758337 4 0 0 0 0
1291 1 0.007974108320220405 0.008386537734166141 0.09699493199373943 4 0 0 0 0
1292 1 0.01012518436881423 -0.007079755186007846 0.09899917952203069 4 0 0 0 0
1293 1 -0.008924498748929656 -0.002009657289710036 0.09750736540972695 4 0 0 0 0
1294 1 -0.007047018780034562 0.01008368841448501 0.09901632677649647 4 0 0 0 0
1295 1 0.004842529386961555 0.008669681016572152 0.0964772067804207 4 0 0 0 0
1296 1 0.004596532070263996 0.006431775364782929 0.09649605068646269 4 0 0 0 0
1297 1 0.004343746401979392 0.004929348439733021 0.09897362459553721 4 0 0 0 0
1298 1 -0.0002553744586053481 -0.01186498535094164 0.09952318204342603 4 0 0 0 0
1299 1 -0.0008095448787220553 0.01030383795959279 0.09904343528550712 4 0 0 0 0
1300 1 -0.01065403764775164 0.004853812981470016 0.09700132254385255 4 0 0 0 0
1301 1 0.007199355965321529 -0.009108833629707384 0.09700403862908549 4 0 0 0 0
1302 1 -0.005981459095733656 -0.003147839282835475 0.09701642623214796 4 0 0 0 0
1303 1 -0.0008999228909504062 0.001064806804131476 0.09650125721113834 4 0 0 0 0
1304 1 -0.005175119969128969 0.00360339035933923 0.09855454098530779 4 0 0 0 0
1305 1 -0.01151565559818606 0.00202785280052728 0.09950805053073228 4 0 0 0 0
1306 1 0.009514482512051304 -0.0009360190973163165 0.09900509998043133 4 0 0 0 0
1307 1 0.008666314514930896 0.007769874734615695 0.09699206816155213 4 0 0 0 0
1308 1 -0.008503373292708224 0.008591953432866064 0.09749499085282055 4 0 0 0 0
1309 1 -0.002508949947745454 0.003817892350657236 0.09651430541396411 4 0 0 0 0
1310 1 -0.0009483171281859196 -0.001382401301174048 0.09748536649746269 4 0 0 0 0
1311 1 -0.001199076027558979 -0.01129517310052863 0.0990217765607237 4 0 0 0 0
1312 1 0.01135349909421394 -0.003461430774636108 0.09646849138356711 4 0 0 0 0
1313 1 0.00199087175069612 0.009324482884316122 0.09650558029483053 4 0 0 0 0
1314 1 -0.01171844179071339 -0.0004363752509441749 0.09900414352166084 4 0 0 0 0
1315 1 -0.008734481199318946 -0.005076344641571971 0.09651262268042783 4 0 0 0 0
1316 1 -0.004199597767689911 -0.009337553188556145 0.09948589730819168 4 0 0 0 0
1317 1 0.009730387467298115 -0.006605123881808536 0.09649322229344418 4 0 0 0 0
1318 1 0.004505391161536322 0.008073268065799532 0.0984725680371567 4 0 0 0 0
1319 1 0.005032393367966312 0.005269092445894233 0.09747655004177611 4 0 0 0 0
1320 1 -0.0008145396623804605 -0.007271298744637149 0.0990095637398881 4 0 0 0 0
1321 1 0.01108873951368374 0.005417452183578956 0.09900032485284928 4 0 0 0 0
1322 1 -0.005363357738863913 -0.01043960165439854 0.09851934669498102 4 0 0 0 0
1323 1 -0.01144278365906664 -0.002387533007756415 0.09699354898672875 4 0 0 0 0
1324 1 -0.01061634099310344 0.004864504479596637 0.09900132254385255 4 0 0 0 0
1325 1 0.001166981622839853 0.01140504727885449 0.09683157649137936 4 0 0 0 0
1326 1 -0.002468742407635981 0.008814556842969766 0.09648852425320729 4 0 0 0 0
1327 1 0.011300522619009 -2.308778624891354e-06 0.09700734618651377 4 0 0 0 0
1328 1 -0.001319715941187908 -0.005825206917226885 0.09948904093603091 4 0 0 0 0
1329 1 -0.01020545924814545 0.005685630826980793 0.09698264412803603 4 0 0 0 0
1330 1 0.002681829438367336 -0.005862203911284953 0.09946115673766723 4 0 0 0 0
1331 1 0.007094386293213227 -0.009797653550285701 0.097509995857672 4 0 0 0 0
1332 1 0.005329757963287819 0.004590223768559655 0.09898049935531344 4 0 0 0 0
1333 1 0.001605047996426774 -0.01110822084420983 0.09950919360501156 4 0 0 0 0
1334 1 0.01168457678587502 0.0002036377950649995 0.09900734618651377 4 0 0 0 0
1335 1 0.009773463637007587 -0.007285210262049122 0.0969991795220307 4 0 0 0 0
1336 1 -0.002028138699691918 0.009302411585800094 0.0994885242532073 4 0 0 0 0
1337 1 -0.01116466681963514 0.003355791597103869 0.09950805053073228 4 0 0 0 0
1338 1 -0.003034078270639804 -0.007665150331694999 0.09901585932984291 4 0 0 0 0
1339 1 -0.0003958035577257528 -0.002410468314160228 0.09949943108935899 4 0 0 0 0
1340 1 0.01011185142994979 -0.0008275820696780618 0.09950734618651377 4 0 0 0 0
1341 1 -0.009931877191208381 0.005053859735387634 0.09949056110766541 4 0 0 0 0
1342 1 -0.00716940466054553 0.001910531540859348 0.09747767841155919 4 0 0 0 0
1343 1 -0.008974304961002448 0.003434076303813722 0.09699283340016437 4 0 0 0 0
1344 1 -0.007216316058945679 -0.0002213951546744937 0.09698922637519292 4 0 0 0 0
1345 1 -0.01158618829819663 -0.003969771151819694 0.09700567864318009 4 0 0 0 0
1346 1 0.0116670527687104 0.0005799915901457647 0.09739506997701777 4 0 0 0 0
1347 1 0.001042200422536954 -0.001179381018702642 0.09651580231377077 4 0 0 0 0
1348 1 0.009217945305195988 -6.15271788768563e-05 0.09750653721203664 4 0 0 0 0
1349 1 0.002728823637559668 -0.00551882736594295 0.09646115673766723 4 0 0 0 0
1350 1 -0.0006791253023556572 0.001396159329326458 0.09950125721113834 4 0 0 0 0
1351 1 0.006821037969671996 0.00747850929632481 0.09902774531388753 4 0 0 0 0
1352 1 -0.00678175985181805 -0.001383690153357169 0.09700363944845171 4 0 0 0 0
1353 1 -0.003767077863713822 0.01077859814701103 0.09650752025725672 4 0 0 0 0
1354 1 -0.009349118571962078 0.00306842099688217 0.09950227229249897 4 0 0 0 0
1355 1 0.004884262940327796 -0.003250564703066445 0.09645075324291152 4 0 0 0 0
1356 1 0.006417637490247625 -0.009730333719083776 0.09901758167780833 4 0 0 0 0
1357 1 -0.005894687973195468 0.0004696196049334478 0.09702323064397486 4 0 0 0 0
1358 1 0.005068965023235418 0.00461165550984325 0.09647757390907455 4 0 0 0 0
1359 1 0.005854773122881162 0.006303430624630645 0.09902768238170284 4 0 0 0 0
1360 1 0.0007851317195320637 0.007778424644405515 0.09950926237024854 4 0 0 0 0
1361 1 -0.009362608751913597 0.001894164842647762 0.09650227229249897 4 0 0 0 0
1362 1 0.005033804171686706 0.01008615929571931 0.0964772067804207 4 0 0 0 0
1363 1 0.0001116127564294068 0.002944478880418763 0.09909631081459785 4 0 0 0 0
1364 1 0.0056381087291824 0.00356567257905495 0.09697264936501954 4 0 0 0 0
1365 1 -0.01194989728783077 -0.001997021029972394 0.0974998897847966 4 0 0 0 0
1366 1 -0.008535601592952901 0.004779829375023897 0.09900780931336511 4 0 0 0 0
1367 1 0.01222980748858173 0.0005269478535423035 0.09918038640963328 4 0 0 0 0
1368 1 -0.009290030149995729 -0.002700321488039537 0.0990119179019895 4 0 0 0 0
1369 1 0.00812187871665538 0.004873087068713186 0.09949473205376351 4 0 0 0 0
1370 1 -0.003625655919932544 -0.011742590246167 0.09700316536109864 4 0 0 0 0
1371 1 0.01072325947341585 -0.005194836385032686 0.09952329417182199 4 0 0 0 0
1372 1 -0.0005988377473384967 -0.009377842631620127 0.09901911732115487 4 0 0 0 0
1373 1 -0.01164766887278918 -0.0004317256050120458 0.09700414352166084 4 0 0 0 0
1374 1 -0.002854448075781025 0.01097355644089869 0.09754836480049957 4 0 0 0 0
1375 1 -0.004014917553118435 -0.00703314291489405 0.09651383574029576 4 0 0 0 0
1376 1 0.007045320780477985 -0.00358883988106035 0.09950136538234147 4 0 0 0 0
1377 1 -0.01179016888775118 0.003632036837574158 0.09701881196691944 4 0 0 0 0
1378 1 -0.009042525843647524 -0.002038231653782023 0.09850736540972695 4 0 0 0 0
1379 1 -0.001747318009435159 -0.01025182062914368 0.09890353888749803 4 0 0 0 0
1380 1 -0.001681901410767966 -0.01155703559560459 0.09692812641362641 4 0 0 0 0
1381 1 0.004681309342315809 -0.003977140200422082 0.09738564789592213 4 0 0 0 0
1382 1 -9.946753211022482e-05 -0.0001375854997397276 0.09701705952490909 4 0 0 0 0
1383 1 -0.007016434024689653 -0.001732661016853564 0.09900363944845171 4 0 0 0 0
1384 1 -0.002299965897543655 0.006517197762433329 0.09716884483916996 4 0 0 0 0
1385 1 -0.0102737757342282 -0.001111836191090606 0.0990094284364612 4 0 0 0 0
1386 1 0.005241098561689481 -0.004805748243761556 0.09649989390527293 4 0 0 0 0
1387 1 -0.0085745232632858 -0.005650494016529978 0.09701115555923552 4 0 0 0 0
1388 1 0.000424128559294729 -0.008371483012634139 0.09952052280385722 4 0 0 0 0
1389 1 0.0003702487506527498 0.004827798372254099 0.09949063264282246 4 0 0 0 0
1390 1 0.004835014672033075 0.006628442141827626 0.09902080762192661 4 0 0 0 0
1391 1 -0.001426281580064313 0.01134560645811487 0.09653060739991977 4 0 0 0 0
1392 1 -0.0008751397837828203 -0.01023838954144564 0.09649859451729767 4 0 0 0 0
1393 1 0.001992895290788684 -0.0001071668927212696 0.09950032090309383 4 0 0 0 0
1394 1 0.006172169424310899 0.002245240724877822 0.096495075455945 4 0 0 0 0
1395 1 0.0116928400169504 -0.001644850184476843 0.09630697419237874 4 0 0 0 0
1396 1 0.005034142237728087 -0.002601282965681261 0.09645075324291152 4 0 0 0 0
1397 1 -0.002147490928211081 -0.01161144839428576 0.09842102443136175 4 0 0 0 0
1398 1 0.007094386293213227 -0.009797653550285701 0.09850999585767201 4 0 0 0 0
1399 1 0.002525643385534792 -0.008787151130421958 0.09946353925272036 4 0 0 0 0
1400 1 -0.003421135784537025 0.01132040252800211 0.09701775740057982 4 0 0 0 0
1401 1 0.005706812452809977 0.01016046745443363 0.09900096215875896 4 0 0 0 0
1402 1 0.0005740586751359129 -0.006441455960209532 0.09949915320925234 4 0 0 0 0
1403 1 0.0003291244736441015 0.007411381005331782 0.0976479069249396 4 0 0 0 0
1404 1 -0.004183278365211132 -0.001517458742097596 0.09652276598118187 4 0 0 0 0
1405 1 -0.008192599583229794 0.004857490930293648 0.09700780931336511 4 0 0 0 0
1406 1 0.003461261640564692 -0.01063558289684932 0.09951439018578291 4 0 0 0 0
1407 1 -0.004346135069321293 0.001974162170256674 0.09709983183134689 4 0 0 0 0
1408 1 0.01167612092999581 -0.004018570135254457 0.09699178555538911 4 0 0 0 0
1409 1 0.005501490962231429 0.004908855456981415 0.09698049935531344 4 0 0 0 0
1410 1 0.007555785442192563 -0.007033980961181545 0.09951706928215294 4 0 0 0 0
1411 1 -0.01011644261757571 0.005661589784501785 0.09898264412803603 4 0 0 0 0
1412 1 -0.007536729694292905 -0.007020973609143746 0.09949853287880771 4 0 0 0 0
1413 1 0.004406046668154376 0.007201781688377738 0.09849141194319869 4 0 0 0 0
1414 1 -0.001141158867667894 -0.009933724568888823 0.09680573886883746 4 0 0 0 0
1415 1 -0.006912536952038964 0.005650379489661999 0.09651724820569971 4 0 0 0 0
1416 1 0.008019691754906574 0.007680034440809235 0.0965029883784236 4 0 0 0 0
1417 1 -0.004083963432127052 -0.002061987345660224 0.09703593911210608 4 0 0 0 0
1418 1 0.01090460353127 -0.005807833743957478 0.09901651646526616 4 0 0 0 0
1419 1 -0.0008390502855007873 -0.001375330607170953 0.09848536649746269 4 0 0 0 0
1420 1 0.007128893990434541 0.006214651820411256 0.09900591382466249 4 0 0 0 0
1421 1 -0.008794705468369848 -0.005667164939228348 0.09901115555923552 4 0 0 0 0
1422 1 -0.002007640902300471 0.001545001892543671 0.09950351627623102 4 0 0 0 0
1423 1 -0.008013195880319542 0.002024586832454957 0.09650227229249897 4 0 0 0 0
1424 1 -0.004808241773500395 0.009385077514731787 0.09900958781512854 4 0 0 0 0
1425 1 0.008592614038671224 -0.006153821701074697 0.09951706928215294 4 0 0 0 0
1426 1 -0.005847804652105167 -0.00837043600025838 0.09948589730819168 4 0 0 0 0
1427 1 0.00410263652222188 -0.01100626290544606 0.09900761248693642 4 0 0 0 0
1428 1 0.0001931032584831507 -0.0123000568624131 0.09901452789569165 4 0 0 0 0
1429 1 0.01170299667146611 -0.0006510881041841364 0.09861962239600996 4 0 0 0 0
1430 1 -0.006233578829583913 0.003509781229209625 0.09948162725160478 4 0 0 0 0
1431 1 0.0003097642993874457 0.005456895488586627 0.09682122255316265 4 0 0 0 0
1432 1 0.003716932881867146 -0.004321885494171624 0.0964350007477377 4 0 0 0 0
1433 1 -0.006931348428419958 -0.006183840344239872 0.09694060067639106 4 0 0 0 0
1434 1 0.004844258807786548 0.01069727078179557 0.09697125807067559 4 0 0 0 0
1435 1 -0.003112490662869945 -0.01016823167017402 0.09640494437020039 4 0 0 0 0
1436 1 0.01199798097748393 -0.002178612639158117 0.09677546557594585 4 0 0 0 0
1437 1 0.006182673777613495 0.003423195739560611 0.096495075455945 4 0 0 0 0
1438 1 0.008587409029794152 0.008841997667585425 0.09898102339844439 4 0 0 0 0
1439 1 0.002041678455711426 0.005935794078360482 0.09948263992991351 4 0 0 0 0
1440 1 1.141683342086166e-05 0.003771384797260391 0.09858694345742031 4 0 0 0 0
1441 1 0.009072103309631829 0.003948254030665928 0.09699750673666974 4 0 0 0 0
1442 1 -0.008628514923682154 0.002950297978003383 0.09650227229249897 4 0 0 0 0
1443 1 0.002362426782070237 -0.008194077404408336 0.09646353925272036 4 0 0 0 0
1444 1 -0.003261991317543301 0.009591558155567259 0.098996044510464 4 0 0 0 0
1445 1 -0.002652942678328419 0.002569560473178978 0.09650351627623102 4 0 0 0 0
1446 1 0.008182851862746332 0.005983902585174682 0.09699772043218709 4 0 0 0 0
1447 1 0.01126444347883157 -0.003907533711172915 0.09952329417182199 4 0 0 0 0
1448 1 -0.001803155482816496 -0.009646402432960159 0.09840556247704518 4 0 0 0 0
1449 1 -0.004563253001404881 0.009801473458189726 0.09950752025725672 4 0 0 0 0
1450 1 0.0001570816288684801 0.01221501612941616 0.0990140458858859 4 0 0 0 0
1451 1 -0.0002380211486800166 0.01034067060055406 0.09951282788558735 4 0 0 0 0
1452 1 -0.005997269599655112 0.008658452154083913 0.09950206755787183 4 0 0 0 0
1453 1 0.0006172350640680508 0.01050470691932031 0.09634025211410752 4 0 0 0 0
1454 1 -0.004391818696637208 0.00101514556346862 0.0995294517765194 4 0 0 0 0
1455 1 -0.005557950572237839 -0.009820895819702455 0.09900907935161771 4 0 0 0 0
1456 1 -0.01149585455706759 -0.002422815844903342 0.09899354898672875 4 0 0 0 0
1457 1 0.005640703296329654 0.01021817031774528 0.09700096215875896 4 0 0 0 0
1458 1 0.0009637576906269469 0.00659658119656212 0.09633058991034021 4 0 0 0 0
1459 1 -0.01025173181969134 -0.005238552759426116 0.09951262268042783 4 0 0 0 0
1460 1 -0.007457423530600665 -0.00130856498984266 0.09949544750773746 4 0 0 0 0
1461 1 0.008278117979513203 -0.004029829159628266 0.09902420233414269 4 0 0 0 0
1462 1 0.007623544404466599 0.006208521556847119 0.0965029883784236 4 0 0 0 0
1463 1 -0.008400702989177885 -0.002124668136862811 0.09899573969685878 4 0 0 0 0
1464 1 -0.01080090641947077 0.005472234528710788 0.09849340556422317 4 0 0 0 0
1465 1 -0.005421159689773978 0.01109156268980151 0.09901656123471417 4 0 0 0 0
1466 1 -0.006265507139532755 0.005197314567249846 0.09901978188457522 4 0 0 0 0
1467 1 0.00303278519676285 0.00822190710647672 0.09647060432127208 4 0 0 0 0
1468 1 -8.874224734065195e-05 -0.005000971231651704 0.09652061673500328 4 0 0 0 0
1469 1 0.005451157932429495 0.01082928180382153 0.09849501344901386 4 0 0 0 0
1470 1 -0.01194989728783077 -0.001997021029972394 0.0984998897847966 4 0 0 0 0
1471 1 -0.01115403905644536 9.85095151738401e-05 0.09649780272359301 4 0 0 0 0
1472 1 -0.001670579218410708 -0.0005827346446231799 0.09947013309433295 4 0 0 0 0
1473 1 0.009224645859736749 -0.000201170822305963 0.09850653721203664 4 0 0 0 0
1474 1 -0.001909306563883486 0.006428817355991191 0.09666108310043273 4 0 0 0 0
1475 1 -0.002058846444373779 0.00601866567084814 0.09634103033697458 4 0 0 0 0
1476 1 0.005637250681152734 -0.001496331527295851 0.09949627099667514 4 0 0 0 0
1477 1 -0.005397910897381142 0.008767204073210216 0.09650206755787183 4 0 0 0 0
1478 1 0.003423964163570524 -0.01022528447072775 0.09651439018578291 4 0 0 0 0
1479 1 -0.004286698276069919 0.01106738698396086 0.09700043841616071 4 0 0 0 0
1480 1 0.003864888892679441 -0.003686646499651767 0.0964350007477377 4 0 0 0 0
1481 1 -0.001363463300165502 -0.01040069992528847 0.09949859451729767 4 0 0 0 0
1482 1 0.003983099456684125 0.01126391347578467 0.0964940512902549 4 0 0 0 0
1483 1 -0.007134018675369117 0.00139922632019218 0.09949377886745547 4 0 0 0 0
1484 1 -0.003754930831410836 -0.002943931661559786 0.09951317313092423 4 0 0 0 0
1485 1 -0.01080090641947077 0.005472234528710788 0.09749340556422317 4 0 0 0 0
1486 1 0.002153334454048856 -0.01140092524998119 0.09903248779014273 4 0 0 0 0
1487 1 0.007053374467587657 0.009958453531292783 0.09901569899365412 4 0 0 0 0
1488 1 0.003512266014446051 0.008836576272020296 0.09745339139652327 4 0 0 0 0
1489 1 0.004071749568807044 0.008703101102585859 0.0994772067804207 4 0 0 0 0
1490 1 -0.008707746859363156 -0.0007342970118967467 0.09949544750773746 4 0 0 0 0
1491 1 -0.001312446125984472 0.01186784496885886 0.09705332890853381 4 0 0 0 0
1492 1 0.005176217571768263 0.003892824597843746 0.09647757390907455 4 0 0 0 0
1493 1 -0.004593421711952677 -0.007832144428925875 0.09899973304848741 4 0 0 0 0
1494 1 -8.416124796267375e-05 -0.0105174112823609 0.09949859451729767 4 0 0 0 0
1495 1 0.0002465257809732377 0.01207611962463754 0.09649132437727186 4 0 0 0 0
1496 1 -0.01211034099970149 2.301854277337077e-05 0.09848041962442933 4 0 0 0 0
1497 1 0.003991338992737781 -0.01125481220921267 0.09649322230115351 4 0 0 0 0
1498 1 -0.005063671874700654 0.002857330474953195 0.09905200730643228 4 0 0 0 0
1499 1 0.0009352850675231221 0.003003348695206266 0.09650454339959059 4 0 0 0 0
1500 1 0.006711166036182898 0.007146105455387023 0.09702774531388753 4 0 0 0 0
1501 1 0.001829257096443866 -0.01200331294951284 0.09852383364240835 4 0 0 0 0
1502 1 -0.001400890885052444 -0.006844776608218733 0.09683006075078621 4 0 0 0 0
1503 1 0.0002478511286242795 -0.01208193439451242 0.09649134585226563 4 0 0 0 0
1504 1 -0.0001429345240853221 0.0007200515657542644 0.09950125721113834 4 0 0 0 0
1505 1 0.001736332277526451 0.009721958202192366 0.09684583240893802 4 0 0 0 0
1506 1 0.003959637469364687 0.005440160445042623 0.09949605068646269 4 0 0 0 0
1507 1 0.008562613294471269 0.002888445793185744 0.09950277468290625 4 0 0 0 0
1508 1 0.009414068296304255 0.004825645722580572 0.09949473205376351 4 0 0 0 0
1509 1 0.006489285351015495 -0.001387989900210274 0.09949627099667514 4 0 0 0 0
1510 1 0.00315116410992855 -0.01116863260439933 0.09903768437091408 4 0 0 0 0
1511 1 -0.006056827826884477 0.00103046150458653 0.09702323064397486 4 0 0 0 0
1512 1 0.006053584584060193 -0.001323983485584841 0.09649627099667514 4 0 0 0 0
1513 1 -0.01211034099970148 2.301854277337077e-05 0.09748041962442933 4 0 0 0 0
1514 1 -0.01007881120728074 -0.005177472390326032 0.09651262268042783 4 0 0 0 0
1515 1 -0.006247906484055262 0.001576235518275344 0.09750485789557964 4 0 0 0 0
1516 1 0.01186019067420922 1.856326771310297e-05 0.0965 4 0 0 0 0
1517 1 0.005117108358519373 0.009871033918421609 0.0994772067804207 4 0 0 0 0
1518 1 0.004690370891511978 -0.006628071997040489 0.09652750158723898 4 0 0 0 0
1519 1 0.007824547913959597 -0.004144977917332732 0.09650136538234147 4 0 0 0 0
1520 1 -0.0003402268815939902 0.0009424818285925409 0.09650125721113834 4 0 0 0 0
1521 1 -0.003940756196893122 0.01160919136495194 0.09751067555948383 4 0 0 0 0
1522 1 -0.01067439800500308 -0.004963816259503088 0.09703637804974734 4 0 0 0 0
1523 1 -0.002799931970786196 0.01093938059486508 0.09854836480049957 4 0 0 0 0
1524 1 0.008340525617289398 -0.005927331774061508 0.09651706928215294 4 0 0 0 0
1525 1 -0.005621499975745518 -0.002148561035297041 0.09950819194071425 4 0 0 0 0
1526 1 -0.005714410706499085 0.002845102341102833 0.09948162725160478 4 0 0 0 0
1527 1 -0.002831633728205049 0.009113172039102611 0.0994885242532073 4 0 0 0 0
1528 1 0.01173651835104814 -0.0005112768264134811 0.09731432037889251 4 0 0 0 0
1529 1 -0.003155905560417898 0.003021264718855149 0.09858820174502261 4 0 0 0 0
1530 1 -0.01161671118335767 0.0005532536629592566 0.09697407882636148 4 0 0 0 0
1531 1 0.005849490524674703 0.004720421821479812 0.0995029254462389 4 0 0 0 0
1532 1 0.000919618712818345 -0.002955126618771906 0.09649885902226199 4 0 0 0 0
1533 1 -0.01008485742644791 -0.0005242518092277815 0.09949780272359302 4 0 0 0 0
1534 1 -0.007950334692986588 0.004769596142078405 0.09951724820569971 4 0 0 0 0
1535 1 -0.0009980281401216842 -0.007920250017422782 0.09952052280385722 4 0 0 0 0
1536 1 0.01182880539180591 -0.003591060997597711 0.09899178555538909 4 0 0 0 0
1537 1 0.00486145383813889 0.01053984826780952 0.0989712580706756 4 0 0 0 0
1538 1 -3.932216093523248e-06 0.005030692624155436 0.09649063264282245 4 0 0 0 0
1539 1 -0.008687380839790581 0.00493672976535986 0.09649056110766541 4 0 0 0 0
1540 1 0.004128425841877167 0.005926109634927373 0.09649605068646269 4 0 0 0 0
1541 1 -0.003725766579986318 0.01082339393203943 0.09950752025725672 4 0 0 0 0
1542 1 -0.00488275613672937 0.004965650785082137 0.09950253367887553 4 0 0 0 0
1543 1 -0.006638120545468533 0.007694274634190956 0.09649712210158934 4 0 0 0 0
1544 1 -0.009741864302684665 -0.002284104394695051 0.09651162571286818 4 0 0 0 0
1545 1 -0.001974976472060579 0.01109388180724728 0.09653060739991977 4 0 0 0 0
1546 1 0.01210229717641055 0.0006679424051720505 0.09807545638665105 4 0 0 0 0
1547 1 -0.0007602671687220661 -0.007475996801095276 0.09766153325053378 4 0 0 0 0
1548 1 0.005156344347218273 0.008403700076078477 0.09900196371588463 4 0 0 0 0
1549 1 -0.005039841295835302 0.003047844708939939 0.09705200730643228 4 0 0 0 0
1550 1 -0.00267585796856726 0.01004831406463737 0.09852665191038375 4 0 0 0 0
1551 1 -0.01175170885835484 -0.003609989631621353 0.09900567864318009 4 0 0 0 0
1552 1 -0.00547356594694857 -0.001501163059808082 0.09650819194071425 4 0 0 0 0
1553 1 0.001912797215191716 0.0121725415931912 0.09701461854909382 4 0 0 0 0
1554 1 0.004165492520534577 -0.007495618949874524 0.09952750158723898 4 0 0 0 0
1555 1 0.003288500611099574 -0.00194984591290817 0.09950625150267978 4 0 0 0 0
1556 1 -0.01077630904663619 -0.005026161008143518 0.09903637804974734 4 0 0 0 0
1557 1 -0.003205552209854289 0.00228468028957289 0.09907389633105852 4 0 0 0 0
1558 1 -0.009876652070711322 -0.002551315957358755 0.09951162571286819 4 0 0 0 0
1559 1 -0.004608570619753185 -0.003070236678522822 0.09951317313092423 4 0 0 0 0
1560 1 -0.003366619679542195 0.01128622668196851 0.09901775740057982 4 0 0 0 0
1561 1 -0.003582100189545105 0.01001845342667854 0.09650752025725672 4 0 0 0 0
1562 1 0.005451157932429495 0.01082928180382153 0.09749501344901385 4 0 0 0 0
1563 1 0.002790932893283621 -0.007936836080245219 0.09946353925272036 4 0 0 0 0
1564 1 -0.004377026836013679 0.003209693410189255 0.0965703800548275 4 0 0 0 0
1565 1 0.004929589818446429 0.0007755515327320314 0.0965068908895529 4 0 0 0 0
1566 1 -0.002127226500846426 -0.01109281717198333 0.09640494437020039 4 0 0 0 0
1567 1 0.001913953007595685 -0.01217401925170307 0.09701464003739679 4 0 0 0 0
1568 1 0.009830397857159542 -0.003584351263327597 0.09652283695180122 4 0 0 0 0
1569 1 0.002398433845901072 0.01174323898879922 0.09652329417182196 4 0 0 0 0
1570 1 0.008927300158115492 -0.002537320563692836 0.09902059074571878 4 0 0 0 0
1571 1 0.005345351406977277 -0.004644231990087353 0.09949989390527293 4 0 0 0 0
1572 1 0.0007893159304779388 -0.007430947377463221 0.09631094969589038 4 0 0 0 0
1573 1 0.002846134994908131 1.890953328574567e-05 0.09950032090309383 4 0 0 0 0
1574 1 -0.008023833430077789 0.002461679657487143 0.09950227229249897 4 0 0 0 0
1575 1 0.000685678222612991 -0.005132167293324071 0.09952061673500329 4 0 0 0 0
1576 1 0.008287630569088201 0.0002873383297689799 0.09650143723160531 4 0 0 0 0
1577 1 0.0006249113301924527 0.005700890910027312 0.09633058991034021 4 0 0 0 0
1578 1 -0.00252581955234827 0.007503155952519602 0.09632005276345816 4 0 0 0 0
1579 1 -0.002353160272214725 0.01153819720018172 0.09704084454324287 4 0 0 0 0
1580 1 0.005452047239099258 0.006852521922109507 0.09952475693546395 4 0 0 0 0
1581 1 0.002401547649590207 -0.01174285619126868 0.09652329418513117 4 0 0 0 0
1582 1 -0.005022741733051934 0.002107928027005617 0.09858145908295166 4 0 0 0 0
1583 1 -0.00257294022744661 0.004796126667923614 0.09685533575093869 4 0 0 0 0
1584 1 -0.001975247169314611 0.01030133517301892 0.09653060739991977 4 0 0 0 0
1585 1 -0.007916491854690635 -0.001802733186031233 0.09649544750773746 4 0 0 0 0
1586 1 -0.0001718576678472598 -0.00434763247927879 0.09652061673500328 4 0 0 0 0
1587 1 0.001621091296708067 0.007913762568801675 0.09950926237024854 4 0 0 0 0
1588 1 -0.008540415362103102 -0.003276800286743748 0.09650029218912133 4 0 0 0 0
1589 1 -0.004822775754380088 -0.009182002834317051 0.09948589730819168 4 0 0 0 0
1590 1 -0.002064032811457304 -0.01197107636252543 0.09742102443136175 4 0 0 0 0
1591 1 0.003792538991585739 -0.01153931261299606 0.09853090667206758 4 0 0 0 0
1592 1 0.006159358527719382 0.007219852961700796 0.09652475693546395 4 0 0 0 0
1593 1 -0.002720107007780654 -0.005556564848228286 0.09951103660153955 4 0 0 0 0
1594 1 0.005029109927894688 0.005212797746098027 0.09847655004177611 4 0 0 0 0
1595 1 0.003487837215732606 0.007401299204537682 0.09947060432127208 4 0 0 0 0
1596 1 -0.0003125000000000032 0.008390670054886364 0.09632019270909731 4 0 0 0 0
1597 1 -0.007118949197018163 -0.0008534758138370421 0.09649544750773746 4 0 0 0 0
1598 1 0.004644394437372523 0.004306774462194648 0.09947757390907455 4 0 0 0 0
1599 1 -0.0004930594594673243 0.002806027983020524 0.09959176741500728 4 0 0 0 0
1600 1 -0.008471703448970422 -0.0006750937551988514 0.09649544750773746 4 0 0 0 0
1601 1 0.0008304848999959024 0.002844096855907303 0.0995045433995906 4 0 0 0 0
1602 1 -0.005847789205416864 -0.006242126083045174 0.09944206779758337 4 0 0 0 0
1603 1 -0.0007446854315879907 -0.01075233477288143 0.09649859451729767 4 0 0 0 0
1604 1 -0.000898662418185435 -0.008999999999999994 0.09630714435153982 4 0 0 0 0
1605 1 -0.003901353444836986 -0.0007786840425599312 0.09652276598118187 4 0 0 0 0
1606 1 0.006509553881196169 0.006694157589599695 0.09853067076012642 4 0 0 0 0
1607 1 -0.002543840503157441 0.0022211209600269 0.09950351627623102 4 0 0 0 0
1608 1 0.006422872650192603 0.003417010248639906 0.09949507545594501 4 0 0 0 0
1609 1 -0.004493424621262242 -0.003275462636380013 0.09651317313092422 4 0 0 0 0
1610 1 -0.001768673769780429 0.006916283208389121 0.09632005276345816 4 0 0 0 0
1611 1 0.003088052407636162 0.003111735495198035 0.09951483683375199 4 0 0 0 0
1612 1 -0.003103502014220516 0.006249745027213943 0.09950776173873725 4 0 0 0 0
1613 1 -0.009128811702441838 0.00160147739189614 0.09950227229249897 4 0 0 0 0
1614 1 -0.002953334200568329 0.004321277239670023 0.09651430541396411 4 0 0 0 0
1615 1 0.009303736648617703 -0.003068442166711344 0.09652283695180122 4 0 0 0 0
1616 1 0.00518622179808386 0.0004850419504883454 0.0995068908895529 4 0 0 0 0
1617 1 0.003672294567787241 0.01177599708737442 0.09701734546207685 4 0 0 0 0
1618 1 0.001609160054977638 -0.003048850030552304 0.09949885902226199 4 0 0 0 0
1619 1 -0.008301672061601555 -0.006171945009731245 0.09649853287880771 4 0 0 0 0
1620 1 0.00389919400823337 0.009531392208405307 0.0964772067804207 4 0 0 0 0
1621 1 0.01222672082391062 0.000600863636483759 0.096887723790504 4 0 0 0 0
1622 1 -0.006029816924704012 -0.004332545804662937 0.09650823429143372 4 0 0 0 0
1623 1 0.009800670265977446 0.00350197949334688 0.09950277468290625 4 0 0 0 0
1624 1 0.00367345033272529 -0.01177446747227046 0.09701651648628468 4 0 0 0 0
1625 1 -0.0006900699964781207 -0.009993571576798725 0.09949859451729767 4 0 0 0 0
1626 1 0.006128155159894802 0.002628651491751175 0.09949507545594501 4 0 0 0 0
1627 1 -0.008114981616297146 -0.003485532759299482 0.09950029218912133 4 0 0 0 0
1628 1 -0.001249421072235552 -0.002536802144607542 0.09949943108935899 4 0 0 0 0
1629 1 0.006388242393160241 0.007991553888184818 0.09952475693546395 4 0 0 0 0
1630 1 0.007111998319981125 -0.004310014817599309 0.09650136538234147 4 0 0 0 0
1631 1 -0.001657202339890727 -0.008629921721864275 0.09630714435153982 4 0 0 0 0
1632 1 -0.007578848454756058 -0.006428325615423877 0.09649853287880771 4 0 0 0 0
1633 1 -0.008648207295526088 -0.002786757971120326 0.09950029218912133 4 0 0 0 0
1634 1 -0.007819852255607085 0.001536637012705275 0.09699605115995441 4 0 0 0 0
1635 1 -0.002894584441010536 0.004232288649328756 0.09951430541396411 4 0 0 0 0
1636 1 -0.01024331810090622 -0.005798031459973592 0.09700531164140057 4 0 0 0 0
1637 1 -0.00937364741937745 -0.004753317188277562 0.09651262268042783 4 0 0 0 0
1638 1 0.006929644465957979 0.005624706196285656 0.0995029254462389 4 0 0 0 0
1639 1 -0.009360156461816226 0.003904845671208533 0.09649056110766541 4 0 0 0 0
1640 1 -0.004997482611957673 -0.008388586977454645 0.09948589730819168 4 0 0 0 0
1641 1 -0.002252381339473132 0.002027495401848034 0.09650351627623102 4 0 0 0 0
1642 1 0.008720066970585215 0.004426126851551369 0.09649473205376351 4 0 0 0 0
1643 1 -0.006734929345365164 0.005584600957455127 0.09951724820569971 4 0 0 0 0
1644 1 0.01192539900006466 0.002208274883070221 0.09691783132059034 4 0 0 0 0
1645 1 -0.004793652568099632 0.001137155544961641 0.09652945177651939 4 0 0 0 0
1646 1 0.00896425162795908 -0.004010362862918394 0.09952283695180122 4 0 0 0 0
1647 1 0.01226266472666634 -0.0006302160578461422 0.09911227620949623 4 0 0 0 0
1648 1 -0.001794131908621063 0.01122349325097045 0.09953060739991977 4 0 0 0 0
1649 1 0.0100530674664048 -0.003096525089232297 0.09952283695180122 4 0 0 0 0
1650 1 -0.005367954074124757 0.00496637525741527 0.09650253367887553 4 0 0 0 0
1651 1 -0.004282131800690502 0.001411118647330208 0.09652945177651939 4 0 0 0 0
1652 1 -0.002298644167219895 0.01150402135414811 0.09904084454324287 4 0 0 0 0
1653 1 0.004242275111498078 0.006272701048886493 0.09949605068646269 4 0 0 0 0
1654 1 -0.0001522186749504447 0.01239938873705413 0.0970140458858859 4 0 0 0 0
1655 1 0.008528591045897097 -0.001995203585791408 0.09949775379391758 4 0 0 0 0
1656 1 0.0002846531141919625 -0.001235180651057673 0.09951580231377077 4 0 0 0 0
1657 1 0.005918212720676552 0.008016789760542984 0.09652475693546395 4 0 0 0 0
1658 1 0.01156077899300106 0.001692757538738239 0.096387723790504 4 0 0 0 0
1659 1 -0.002510171539316428 0.005199246843150505 0.09634103033697458 4 0 0 0 0
1660 1 0.00668114425631506 0.005206266582740354 0.0965029254462389 4 0 0 0 0
1661 1 0.0004485328878880936 -0.001453851904166141 0.09651580231377077 4 0 0 0 0
1662 1 -0.01013839684548956 -0.001738527104190967 0.09651162571286818 4 0 0 0 0
1663 1 0.007440808738362413 -0.006842353971110967 0.09651706928215294 4 0 0 0 0
1664 1 0.01210304850074951 -0.0007017293363845371 0.0979265965883887 4 0 0 0 0
1665 1 -0.002541734844060401 -0.007481718350327214 0.09634101981475532 4 0 0 0 0
1666 1 -0.000150748971234222 -0.01240498496004348 0.09701452789569165 4 0 0 0 0
1667 1 0.002174799607766854 0.009230217199967271 0.09950558029483053 4 0 0 0 0
1668 1 -0.006779037243985032 0.007547657564327967 0.09949712210158934 4 0 0 0 0
1669 1 -0.002509357901535764 -0.01150685793890418 0.09689784238793572 4 0 0 0 0
1670 1 -0.003886323681197103 -0.000917273141179 0.09952276598118187 4 0 0 0 0
1671 1 -0.001778944945988533 -0.006925895966163592 0.09634101981475532 4 0 0 0 0
1672 1 -0.001776121406213956 -0.009985186916483788 0.0967120887217402 4 0 0 0 0
1673 1 -0.005719362633732392 0.004827903282758363 0.09950253367887553 4 0 0 0 0
1674 1 -0.001665729050945135 0.007821377555917738 0.09632005276345816 4 0 0 0 0
1675 1 -0.006866847703933619 0.002746486575385372 0.09648162725160478 4 0 0 0 0
1676 1 0.01012156697125245 -0.0004277679386324786 0.09650734618651377 4 0 0 0 0
1677 1 -0.01031432767168371 -0.005796767080433246 0.09900531164140057 4 0 0 0 0
1678 1 0.001099812058711762 -0.007101211116944317 0.09949915320925234 4 0 0 0 0
1679 1 0.0001264371399151591 0.006459639650238243 0.09633058991034021 4 0 0 0 0
1680 1 -0.004299903097337245 0.01114635861502287 0.0990004384161607 4 0 0 0 0
1681 1 -0.005383762503804869 -0.008791962740226464 0.09648589730819168 4 0 0 0 0
1682 1 0.001977941248019347 0.01061188536468664 0.09634025211410752 4 0 0 0 0
1683 1 -0.007286989234026932 0.00746384386113982 0.09649712210158934 4 0 0 0 0
1684 1 -0.0007423216768927593 -0.002315016956550919 0.09649943108935899 4 0 0 0 0
1685 1 -0.004024561631647298 -0.002666311719448035 0.09651317313092422 4 0 0 0 0
1686 1 -0.006462752626047299 -0.002248348353678589 0.09950819194071425 4 0 0 0 0
1687 1 -0.005244713550271207 0.0008879012564247781 0.0995294517765194 4 0 0 0 0
1688 1 -0.005517519226715364 0.001465322583665571 0.09652945177651939 4 0 0 0 0
1689 1 0.0001493253364229827 -0.004455878572846844 0.09952061673500329 4 0 0 0 0
1690 1 -0.005048734493901207 0.002245973081576921 0.09758145908295167 4 0 0 0 0
1691 1 0.01229618640624836 -0.0004904047800754868 0.09680697419237874 4 0 0 0 0
1692 1 0.005962714122145625 0.005402809790356639 0.0965029254462389 4 0 0 0 0
1693 1 0.001321365583481807 0.01192718157393791 0.09649132437727186 4 0 0 0 0
1694 1 -0.003937979836531752 0.002619361311516877 0.0965703800548275 4 0 0 0 0
1695 1 0.003561766443987989 0.00448101790551035 0.09637090986742029 4 0 0 0 0
1696 1 0.00339191208568892 0.007706986174587175 0.09647060432127208 4 0 0 0 0
1697 1 -0.003850460020808253 0.002263987718975653 0.0995703800548275 4 0 0 0 0
1698 1 -0.01083890489862856 -0.005584375329150648 0.09752906701072007 4 0 0 0 0
1699 1 -0.002441637473983092 -0.008177765481662486 0.09950202358954717 4 0 0 0 0
1700 1 0.001322745173923182 -0.01192889775007863 0.09649134585226563 4 0 0 0 0
1701 1 -0.00333042478962966 -0.00697873023646916 0.09951383574029576 4 0 0 0 0
1702 1 -0.007430001656024938 0.0006285179190691919 0.09949377886745547 4 0 0 0 0
1703 1 -0.002227650286873295 -0.0009629935824577655 0.09647013309433294 4 0 0 0 0
1704 1 0.00644131500719448 0.002856245463346281 0.096495075455945 4 0 0 0 0
1705 1 -0.001396842928394188 0.01178064268174139 0.09905332890853381 4 0 0 0 0
1706 1 -0.00152494523905727 -0.01180757254320144 0.09952318204342606 4 0 0 0 0
1707 1 -0.003940756196893122 0.01160919136495194 0.09851067555948383 4 0 0 0 0
1708 1 -0.006009554277594064 -0.001716056239173199 0.09650819194071425 4 0 0 0 0
1709 1 -0.004882992525772314 0.006903686989111774 0.09949756168603889 4 0 0 0 0
1710 1 -0.007805539361461651 -0.001117035493440448 0.09649544750773746 4 0 0 0 0
1711 1 0.01179360085519749 0.002803027400839942 0.09653010753008634 4 0 0 0 0
1712 1 -0.002362986442225014 -0.01009845343994476 0.09940494437020039 4 0 0 0 0
1713 1 2.895875442697791e-06 -0.007285522648287347 0.09631094969589038 4 0 0 0 0
1714 1 -0.006169048246635051 -0.002522269698916443 0.09650819194071425 4 0 0 0 0
1715 1 0.00483196034112317 0.008923767702613591 0.0994772067804207 4 0 0 0 0
1716 1 -0.00570859788388615 0.002011096597354385 0.09701107902812417 4 0 0 0 0
1717 1 -0.001901355186993019 0.01206117078491906 0.09756356605185691 4 0 0 0 0
1718 1 -0.00325631002792278 -0.004880441618541153 0.09951103660153955 4 0 0 0 0
1719 1 0.002552454886515686 -7.48340612641169e-05 0.09650032090309382 4 0 0 0 0
1720 1 -0.00615712700659913 -0.004284994418522376 0.09950823429143373 4 0 0 0 0
1721 1 -0.01035662931251431 0.006365940894049398 0.09949208302037063 4 0 0 0 0
1722 1 -0.001234564912834973 -0.002594606130890802 0.09649943108935899 4 0 0 0 0
1723 1 0.004503415818097814 -0.00674506764007173 0.09952750158723898 4 0 0 0 0
1724 1 0.0002457069058918893 0.009749898534034617 0.09951282788558735 4 0 0 0 0
1725 1 -0.009345699662765055 0.004626258852425662 0.09649056110766541 4 0 0 0 0
1726 1 -0.005657692997584883 -0.01043828672836739 0.09952318204342603 4 0 0 0 0
1727 1 0.008644881876259343 -0.001445493760873628 0.09649775379391758 4 0 0 0 0
1728 1 0.008552747541230117 0.0008311998203184358 0.09950143723160532 4 0 0 0 0
1729 1 -0.002418823915606352 -0.009493035243761246 0.09890696795974754 4 0 0 0 0
1730 1 -0.00969249598596547 -0.004751856671194526 0.09951262268042783 4 0 0 0 0
1731 1 0.00884316167318704 -0.001236930134954071 0.09949775379391758 4 0 0 0 0
1732 1 -0.01083890489862856 -0.005584375329150648 0.09852906701072009 4 0 0 0 0
1733 1 -0.002060955041362318 -0.01216609789511575 0.09901608006116137 4 0 0 0 0
1734 1 0.008672644251133871 0.00569444964834056 0.09649473205376351 4 0 0 0 0
1735 1 0.007563917239993839 -0.004272389854903232 0.09950136538234147 4 0 0 0 0
1736 1 -0.005463100164210958 -0.01105699256306347 0.09903344938678935 4 0 0 0 0
1737 1 -0.007544300775441718 0.00744215281115055 0.09949712210158934 4 0 0 0 0
1738 1 0.0076154601229591 -0.00607310061580056 0.09651706928215294 4 0 0 0 0
1739 1 -0.005181717919409089 0.008767835747842328 0.09950206755787183 4 0 0 0 0
1740 1 0.004706970916853343 0.01119952667877015 0.0994940512902549 4 0 0 0 0
1741 1 0.001201624330354916 -0.01034146452748041 0.09950919360501156 4 0 0 0 0
1742 1 0.00168518688717343 -0.002740891321680013 0.09649885902226199 4 0 0 0 0
1743 1 0.007544404119423387 0.007374901867150079 0.0995029883784236 4 0 0 0 0
1744 1 -0.00164198502316531 -0.0004713659120696817 0.09647013309433294 4 0 0 0 0
1745 1 -0.007818708912437543 -0.006344914204026835 0.09949853287880771 4 0 0 0 0
1746 1 -0.0023153427008818 -0.009293792390259417 0.09721411231128735 4 0 0 0 0
1747 1 -0.001442821409799869 -0.01012939688097415 0.09721068323903784 4 0 0 0 0
1748 1 0.009066396096579023 0.005052352358878677 0.09649473205376351 4 0 0 0 0
1749 1 0.009311532127458656 -0.007871117835735214 0.09650595722858653 4 0 0 0 0
1750 1 -0.006330631252130818 0.000681159133624091 0.09649377886745547 4 0 0 0 0
1751 1 -0.009100591358580417 -0.005030474678087222 0.09951262268042783 4 0 0 0 0
1752 1 -0.002034075928083862 -0.008283148164359159 0.09715018775584228 4 0 0 0 0
1753 1 -0.0004357322138965887 -0.008621686813999803 0.09952052280385722 4 0 0 0 0
1754 1 -0.0082548423126738 -0.001408317876840359 0.09949544750773746 4 0 0 0 0
1755 1 0.006165875056347756 0.005567075579300066 0.0995029254462389 4 0 0 0 0
1756 1 0.003380088942343761 -0.009781225741818098 0.09951439018578291 4 0 0 0 0
1757 1 -0.004386661703229137 0.002940109463535615 0.0995703800548275 4 0 0 0 0
1758 1 -0.002865331875975895 0.01185086744125154 0.0995102371433231 4 0 0 0 0
1759 1 0.006392477255282779 -0.01041860820052896 0.09650595722858651 4 0 0 0 0
1760 1 0.007936522654263842 0.009203846423183119 0.09649194361531585 4 0 0 0 0
1761 1 -0.007942492553129569 -0.00928214994710861 0.09949266215156467 4 0 0 0 0
1762 1 -0.005537570460076621 -0.006460994681226117 0.09644206779758337 4 0 0 0 0
1763 1 0.007686714821169179 0.006676185879553797 0.0995029883784236 4 0 0 0 0
1764 1 0.008807434530585684 0.005141839138332483 0.09949473205376351 4 0 0 0 0
1765 1 0.00785442617178631 -0.006255510060889013 0.09951706928215294 4 0 0 0 0
1766 1 -0.001602724431352752 -0.009364889742700624 0.09630714435153982 4 0 0 0 0
1767 1 -0.001583616163069572 -0.008382049105546401 0.09767071055969948 4 0 0 0 0
1768 1 -0.01177492581906263 0.002806311925950203 0.09950805053073228 4 0 0 0 0
1769 1 0.007936861826243181 -0.009246559917560841 0.09649241417986368 4 0 0 0 0
1770 1 0.006046260356022464 -0.008264252813618984 0.09651162444922182 4 0 0 0 0
1771 1 -0.009218179968159655 0.004476772530690273 0.09949056110766541 4 0 0 0 0
1772 1 -0.01217878861815257 -0.0009501397499153087 0.09650634079806783 4 0 0 0 0
1773 1 0.007948419502514356 -0.009306982452293305 0.09949241417986368 4 0 0 0 0
1774 1 0.0009028686843071222 0.01218571407620304 0.09949132437727186 4 0 0 0 0
1775 1 -0.002542013775210747 -0.01005324999585581 0.09640494437020039 4 0 0 0 0
1776 1 0.0001638933343003574 0.008281936385089339 0.09632019270909731 4 0 0 0 0
1777 1 0.002965593811938492 0.00468899612760426 0.09637090986742029 4 0 0 0 0
1778 1 -0.01051077250109452 8.945222757662216e-05 0.09949780272359302 4 0 0 0 0
1779 1 0.01045520623330539 9.559007177895173e-05 0.09650734618651377 4 0 0 0 0
1780 1 -0.00190135518699302 0.01206117078491906 0.09856356605185691 4 0 0 0 0
1781 1 -0.0007854588556455418 -0.006517694551728407 0.09948904093603091 4 0 0 0 0
1782 1 -0.0103802677561326 -0.00180703395134201 0.09951162571286819 4 0 0 0 0
1783 1 0.009428864782171252 0.00287141255965935 0.09950277468290625 4 0 0 0 0
1784 1 0.005979357269408994 -0.008440354572857269 0.09951162444922182 4 0 0 0 0
1785 1 0.01043222309727425 -8.194661643542932e-05 0.09950734618651377 4 0 0 0 0
1786 1 0.008406182253662214 0.0009532255871334104 0.09650143723160531 4 0 0 0 0
1787 1 0.006371309593932252 0.01042687324660926 0.09652375537833827 4 0 0 0 0
1788 1 0.002792043122569651 -0.01180564921732186 0.09952329418513117 4 0 0 0 0
1789 1 -0.008673565304445232 0.002289686690052456 0.09650227229249897 4 0 0 0 0
1790 1 0.009331139630086192 0.007884772642520816 0.09648907978312854 4 0 0 0 0
1791 1 -0.01132771298324185 -0.004670612573922563 0.09652375536931951 4 0 0 0 0
1792 1 -0.00374521222020636 0.01001979193586589 0.09950752025725672 4 0 0 0 0
1793 1 0.009019572225267889 0.002631809588964918 0.09650277468290624 4 0 0 0 0
1794 1 -0.002919847980970724 0.01188504328728514 0.0965102371433231 4 0 0 0 0
1795 1 -0.009321420187501905 -0.007969063395666526 0.09650518505054492 4 0 0 0 0
1796 1 0.006351499157575052 -0.01045194169096801 0.09950595722858652 4 0 0 0 0
1797 1 -0.009321419045853922 0.007968660129859455 0.09650518505054492 4 0 0 0 0
1798 1 -0.005886591478667673 -0.005957167928654141 0.09644206779758337 4 0 0 0 0
1799 1 -0.001494532050965699 0.01049282475934194 0.09953060739991977 4 0 0 0 0
1800 1 0.009289058415413979 -0.003231203015235812 0.09952283695180122 4 0 0 0 0
1801 1 -0.0113451998247869 0.004673074872129482 0.09651076143618714 4 0 0 0 0
1802 1 -0.001029259567719023 0.00348214771231285 0.09959176741500728 4 0 0 0 0
1803 1 0.009344999175345283 0.007967169333738214 0.09948907978312854 4 0 0 0 0
1804 1 -0.01044564594308406 0.006389981936528405 0.09649208302037063 4 0 0 0 0
1805 1 -0.00688605222296328 0.0005131804977510708 0.09649377886745547 4 0 0 0 0
1806 1 0.00567403242090251 0.007756293478938563 0.09952475693546395 4 0 0 0 0
1807 1 0.002829188536741824 0.01183325015150555 0.09952329417182199 4 0 0 0 0
1808 1 -0.007639963741148687 0.005525564730122727 0.09951724820569971 4 0 0 0 0
1809 1 0.009414898623017056 0.003242956553637159 0.09650277468290624 4 0 0 0 0
1810 1 -0.01044565759704832 -0.00638991699328121 0.09649268896097274 4 0 0 0 0
1811 1 -0.006427200701995308 -0.01048739223616934 0.09652318204342603 4 0 0 0 0
1812 1 -0.006429933747882972 0.0104834398245151 0.09652364307581016 4 0 0 0 0
1813 1 -0.01214783092872106 0.001028198371061463 0.09647627610276849 4 0 0 0 0
1814 1 -0.009330985257415644 -0.007955118747033156 0.09950518505054493 4 0 0 0 0
1815 1 0.01183439780059393 -0.001792235802207959 0.09961227620949623 4 0 0 0 0
1816 1 -0.006375936818772144 -0.01041947885199823 0.09952318204342603 4 0 0 0 0
1817 1 0.00454240640103447 0.009419833071984528 0.0964772067804207 4 0 0 0 0
1818 1 -0.005689359002050792 0.003283729933387106 0.09648162725160478 4 0 0 0 0
1819 1 -0.007984838754573908 0.009338494146077658 0.09949268370068631 4 0 0 0 0
1820 1 0.01185627144487558 -0.002865260745623006 0.09646849138356711 4 0 0 0 0
1821 1 0.01047575660134147 -0.006348736530254064 0.09649322229344418 4 0 0 0 0
1822 1 -0.01223646947473167 0.0009483013095130394 0.09947627610276849 4 0 0 0 0
1823 1 -0.004712199694001743 -0.01137613223205463 0.09651026734336329 4 0 0 0 0
1824 1 0.004688255945033307 -0.01133631475127709 0.09949322230115351 4 0 0 0 0
1825 1 -0.004184065836254362 -0.007105033845033263 0.09951383574029576 4 0 0 0 0
1826 1 0.006437418750412574 0.01036917038329761 0.09952375537833827 4 0 0 0 0
1827 1 -0.008871738212976855 0.002390320603988509 0.09950227229249897 4 0 0 0 0
1828 1 0.009363962605597595 -0.007935992721783029 0.09950595722858653 4 0 0 0 0
1829 1 0.0009385503502021223 -0.01227072807184503 0.09949134585226563 4 0 0 0 0
1830 1 -0.007517355619810574 0.000971938780570324 0.09649377886745547 4 0 0 0 0
1831 1 0.004696047074409656 -0.0113497091957693 0.09649322230115351 4 0 0 0 0
1832 1 0.000545931126161707 0.008586601357646158 0.09632019270909731 4 0 0 0 0
1833 1 0.01127868784792938 0.004706932956005696 0.09649301745593264 4 0 0 0 0
1834 1 -0.01190114780980913 -0.002856567002917382 0.09648192327386057 4 0 0 0 0
1835 1 -0.007961663021752639 -0.009351676616682691 0.09649266215156466 4 0 0 0 0
1836 1 -0.0009448076958007629 -0.01220629003005156 0.09952318204342606 4 0 0 0 0
1837 1 -0.004730150882673948 0.0113250629761524 0.09649291815890398 4 0 0 0 0
1838 1 -0.01199277783449932 0.002913657785290662 0.09650805053073228 4 0 0 0 0
1839 1 0.0074206726406752 0.006960101334994894 0.0965029883784236 4 0 0 0 0
1840 1 -0.00796226236332734 0.00935183614058218 0.09649268370068631 4 0 0 0 0
1841 1 0.01049462548284941 0.006397010686118904 0.09950730739691667 4 0 0 0 0
1842 1 -0.01051666716782581 -0.006388652613740864 0.09949268896097276 4 0 0 0 0
1843 1 0.008039139551678613 0.009348861757437297 0.09949194361531585 4 0 0 0 0
1844 1 -0.01033714488219573 9.850951517385978e-05 0.09649780272359301 4 0 0 0 0
1845 1 0.01049811158178321 0.006428751303791084 0.09650730739691665 4 0 0 0 0
1846 1 0.01140140327294887 0.004739335180919358 0.09949301745593264 4 0 0 0 0
1847 1 0.001324595850399536 0.009836182636987632 0.09634025211410752 4 0 0 0 0
1848 1 0.004689775886501 0.01135694919275621 0.0964940512902549 4 0 0 0 0
1849 1 0.0005594289773593634 0.006262292612244213 0.09633058991034021 4 0 0 0 0
1850 1 0.002955560406959183 -0.01197687385641911 0.09652329418513117 4 0 0 0 0
1851 1 0.002953620249197044 0.01197872835939259 0.09652329417182196 4 0 0 0 0
1852 1 0.01141505324935745 -0.004730303587846324 0.09652329417182198 4 0 0 0 0
1853 1 -0.01130750317013869 0.004683766370256104 0.09951076143618715 4 0 0 0 0
1854 1 -0.00199708101600914 -0.00740313466073216 0.09634101981475532 4 0 0 0 0
1855 1 0.0003208340436933259 -0.007580526157112851 0.09631094969589038 4 0 0 0 0
1856 1 -0.002907271545324727 -0.01194520139758173 0.09649289801773533 4 0 0 0 0
1857 1 -0.01195421870781009 -0.002891849840064309 0.0994819232738606 4 0 0 0 0
1858 1 -0.004743355703941274 0.0114040346072144 0.09949291815890399 4 0 0 0 0
1859 1 -0.0008980048776000121 0.01237008661672517 0.09652272150861405 4 0 0 0 0
1860 1 -0.0008965455107436144 -0.01237568365325721 0.09652318204342603 4 0 0 0 0
1861 1 -0.01224956153607678 -0.0009547893958474378 0.09950634079806783 4 0 0 0 0
1862 1 0.01053986752331612 -0.006459146581469101 0.09949322229344418 4 0 0 0 0
1863 1 -0.009364688835622319 0.008021802961783814 0.09950518505054493 4 0 0 0 0
1864 1 -0.00151161500254274 0.005152549998774887 0.09634103033697458 4 0 0 0 0
1865 1 0.01190474464596653 0.00287231338780329 0.09953010753008634 4 0 0 0 0
1866 1 -0.001987642934031163 0.007423204165726236 0.09632005276345816 4 0 0 0 0
1867 1 0.01203135090810113 -0.002872835085583466 0.09946849138356711 4 0 0 0 0
1868 1 -0.0009824016800097275 0.0122828843296077 0.09952272150861405 4 0 0 0 0
1869 1 0.0113075666005916 -0.004683613229986887 0.09952329417182199 4 0 0 0 0
1870 1 0.01216314905296828 -0.002278082567813985 0.09908076759306333 4 0 0 0 0
1871 1 0.01218763130530018 0.001097543062986493 0.096387723790504 4 0 0 0 0
1872 1 0.0008954230296373182 0.01231806650529417 0.09649132437727186 4 0 0 0 0
1873 1 0.0008956289741517006 -0.01231831097599196 0.09649134585226563 4 0 0 0 0
1874 1 -0.001987464480342763 0.005460081519038833 0.09634103033697458 4 0 0 0 0
1875 1 -0.002793316333286535 -0.01202046306239524 0.09949289801773535 4 0 0 0 0
1876 1 0.001438038404244018 0.01037029770563137 0.09634025211410752 4 0 0 0 0
1877 1 -0.006431008346036161 0.01049445181941831 0.09952364307581016 4 0 0 0 0
1878 1 0.00111271540977388 0.01073415701540723 0.09634025211410752 4 0 0 0 0
1879 1 0.01219071796997129 0.001023627280045038 0.09968038640963328 4 0 0 0 0
1880 1 -0.001380166991153742 -0.008999999999999991 0.09630714435153982 4 0 0 0 0
1881 1 0.0122235752080559 -0.001126895484348872 0.09961227620949623 4 0 0 0 0
1882 1 -0.002759075955983164 -0.008980191963097213 0.09950202358954717 4 0 0 0 0
1883 1 -0.01142962402487496 -0.004732957322562993 0.09952375536931952 4 0 0 0 0
1884 1 -0.004785586949765357 -0.01136928631701966 0.0995102673433633 4 0 0 0 0
1885 1 -0.006134195479052047 0.002693397834714731 0.09648162725160478 4 0 0 0 0
1886 1 -0.002134657285762221 -0.01043620776482016 0.09640494437020039 4 0 0 0 0
1887 1 0.01225709688763793 -0.000987084206578217 0.09630697419237874 4 0 0 0 0
1888 1 0.004571990121713606 -0.001013698222477942 0.09750941338890778 4 0 0 0 0
1889 1 0.004897274737407486 -0.0005048033488482119 0.09700316188622801 4 0 0 0 0
1890 1 -0.004303469809047106 -0.004278949347460161 0.09753244402389748 4 0 0 0 0
1891 1 -0.00480360752116659 -0.004100506330824006 0.09702140742235793 4 0 0 0 0
1892 1 0.002186226952199403 0.008278240729164256 0.09748544698635112 4 0 0 0 0
1893 1 0.002457313209355651 0.008565728210062438 0.09697618461610258 4 0 0 0 0
1894 1 0.006826419468174687 0.0004548896134036815 0.0970083281211582 4 0 0 0 0
1895 1 0.006469386543488453 -5.723978432820156e-05 0.09750459911783334 4 0 0 0 0
1896 1 0.0006308999634125692 0.0003981415625961441 0.09701705952490911 4 0 0 0 0
1897 1 0.001160302380045023 0.0001419624718477961 0.0975173804280029 4 0 0 0 0
1898 1 0.0008576461897060604 -9.91229652861275e-06 0.09651580231377077 4 0 0 0 0
1899 1 0.001387048606338514 -0.0002660913872769608 0.09701612321686458 4 0 0 0 0
1900 1 -0.00285521635931245 -0.006010152962160401 0.09685205641629484 4 0 0 0 0
1901 1 -0.0026861533410762 -0.00648355147222737 0.09634101981475529 4 0 0 0 0
1902 1 0.002056745672990178 0.001511027034618985 0.0970048643026844 4 0 0 0 0
1903 1 0.002323250694255511 0.0020791247612551 0.09751970113643639 4 0 0 0 0
1904 1 -0.003604814350005927 -0.003880467695196711 0.09651317313092422 4 0 0 0 0
1905 1 -0.003471732993882929 -0.004282210548239095 0.09702420973246377 4 0 0 0 0
1906 1 0.01079124756337292 0.002361486820012004 0.09903288221299256 4 0 0 0 0
1907 1 0.01074728802970279 0.001676114310958916 0.09854022839950632 4 0 0 0 0
1908 1 -0.007786861447653197 0.002957009031726128 0.09698389954410375 4 0 0 0 0
1909 1 -0.007290960866328825 0.003305014246502469 0.09648162725160478 4 0 0 0 0
1910 1 0.0001591304149189298 0.01048148106367848 0.09685307999969484 4 0 0 0 0
1911 1 0.0002701766788258437 0.01090434818178198 0.09634025211410749 4 0 0 0 0
1912 1 0.007580694526507031 -0.002834655770021627 0.09899911917625903 4 0 0 0 0
1913 1 0.007067925741972882 -0.002363644165134268 0.09849539017293417 4 0 0 0 0
1914 1 0.002318956779636045 0.007674333850257895 0.09647060432127208 4 0 0 0 0
1915 1 0.001978832349590114 0.007694093340010621 0.09697986669152062 4 0 0 0 0
1916 1 -0.01003098916956612 0.007010559653303642 0.09699726807091555 4 0 0 0 0
1917 1 -0.009414209378902735 0.007152050876648396 0.09650518505054492 4 0 0 0 0
1918 1 0.0077841786487611 0.002225683258431388 0.09749928737045656 4 0 0 0 0
1919 1 0.008297200163514509 0.001975928338149369 0.09700421191451156 4 0 0 0 0
1920 1 -0.0009634467803127163 0.007611964590238546 0.09712810740780903 4 0 0 0 0
1921 1 -0.001068550367907786 0.007886790861496627 0.09664024547255545 4 0 0 0 0
1922 1 -0.0006393164592919263 0.007978586686349039 0.09632019270909731 4 0 0 0 0
1923 1 -0.000857417167932456 -0.007692098608626112 0.09717249231450287 4 0 0 0 0
1924 1 -0.0004229990440506901 -0.007790660179015019 0.09683147249974758 4 0 0 0 0
1925 1 -0.001274457605723656 -0.008049101420042705 0.09716868697015232 4 0 0 0 0
1926 1 -0.0008400394818418896 -0.008147662990431612 0.09682766715539701 4 0 0 0 0
1927 1 0.01160438504780465 0.002115694272065827 0.09953010753008631 4 0 0 0 0
1928 1 0.01210565621684123 0.001753631821490043 0.09921049393971962 4 0 0 0 0
1929 1 0.0001043249908573491 -0.01051468705597141 0.09649859451729764 4 0 0 0 0
1930 1 0.0005162830713383718 -0.01057490255531103 0.0970077881223092 4 0 0 0 0
1931 1 -0.001724917370737946 -0.007950200478855462 0.09664816416629513 4 0 0 0 0
1932 1 -0.001502514226214338 -0.008217838353326951 0.09630714435153981 4 0 0 0 0
1933 1 -0.002861929007929818 -0.0004697149087439011 0.09647013309433294 4 0 0 0 0
1934 1 -0.003206195703786439 -0.0006931833537234316 0.09699289907551481 4 0 0 0 0
1935 1 -0.009368462538101387 0.007181152666093747 0.09950518505054493 4 0 0 0 0
1936 1 -0.009941972538996376 0.006986518610824635 0.09899726807091555 4 0 0 0 0
1937 1 -0.008492961418075956 -0.004713072702010872 0.09951262268042782 4 0 0 0 0
1938 1 -0.008561853643270513 -0.004161333956960186 0.09901291486954915 4 0 0 0 0
1939 1 0.004029418383986383 -0.0002426017429092583 0.09900721179264671 4 0 0 0 0
1940 1 0.003876039660426265 -0.0008408316730592762 0.09851346329532648 4 0 0 0 0
1941 1 0.00368391534906873 0.01010468271516855 0.09647720678042068 4 0 0 0 0
1942 1 0.003238618991681938 0.009909560788794916 0.09698278707525121 4 0 0 0 0
1943 1 -0.003308647255055707 -0.007087261413202334 0.09685485555505105 4 0 0 0 0
1944 1 -0.00291077204159386 -0.007032044648329048 0.09634101981475529 4 0 0 0 0
1945 1 0.003014052704393473 -0.004926335270374565 0.09689615748540491 4 0 0 0 0
1946 1 0.00310389792538896 -0.004515098289142826 0.0964350007477377 4 0 0 0 0
1947 1 0.003220258374269235 -0.009267274701383442 0.09651439018578289 4 0 0 0 0
1948 1 0.003053522128523843 -0.008881105234077461 0.09697792943850325 4 0 0 0 0
1949 1 0.004440509135421395 -0.005556073677725426 0.09902739549251188 4 0 0 0 0
1950 1 0.003887930361386242 -0.005519809193317644 0.0984885522301791 4 0 0 0 0
1951 1 0.003525789443931152 0.009411853393535305 0.09947720678042068 4 0 0 0 0
1952 1 0.003063298056192018 0.009374153981147723 0.09898278707525121 4 0 0 0 0
1953 1 -0.006209054088661698 0.006154740387456694 0.09901480989173858 4 0 0 0 0
1954 1 -0.006651840802688175 0.006557999965332809 0.09851193199332792 4 0 0 0 0
1955 1 0.01076663520020705 -0.005131116691677085 0.09652329417182198 4 0 0 0 0
1956 1 0.01084049260929535 -0.005697423692742442 0.09701651646526618 4 0 0 0 0
1957 1 0.008415804701454109 -0.002653553352048802 0.09702059074571878 4 0 0 0 0
1958 1 0.008148845612784221 -0.003142238387515491 0.09752195612806025 4 0 0 0 0
1959 1 0.00378960009803593 0.003403349388621598 0.09899241074282651 4 0 0 0 0
1960 1 0.004341926958361129 0.003502470241950255 0.09947757390907452 4 0 0 0 0
1961 1 0.0117022610249917 0.00359038984401828 0.09902312498601895 4 0 0 0 0
1962 1 0.01123174903712072 0.003962415806961388 0.09949301745593261 4 0 0 0 0
1963 1 0.002759129457435674 -0.003451415306282957 0.0964350007477377 4 0 0 0 0
1964 1 0.002341258693743368 -0.003190570207977481 0.09693385976999966 4 0 0 0 0
1965 1 -0.003681623875690219 -0.0111906627726627 0.09840810973129901 4 0 0 0 0
1966 1 -0.003253038722373967 -0.01072750729220571 0.0988978423879357 4 0 0 0 0
1967 1 -0.004079537519479182 -0.01162900623134026 0.09900316536109864 4 0 0 0 0
1968 1 -0.00365095236616293 -0.01116585075088327 0.09949289801773534 4 0 0 0 0
1969 1 -0.01032255901619454 0.002939360872098379 0.09901032282323124 4 0 0 0 0
1970 1 -0.01012027931544226 0.003507996903464223 0.09850088393089665 4 0 0 0 0
1971 1 0.009503798693594094 -0.006812039065070128 0.09851624880418364 4 0 0 0 0
1972 1 0.008932810212171525 -0.006915564682764283 0.09902302651073946 4 0 0 0 0
1973 1 -0.009157943737465037 -0.001187188717178358 0.09700707322060564 4 0 0 0 0
1974 1 -0.009546342424495141 -0.0007829941577629485 0.09750487594419863 4 0 0 0 0
1975 1 -0.002018711662467912 0.002757382769253956 0.0990952836912383 4 0 0 0 0
1976 1 -0.002359425290005797 0.003184391218556641 0.09860958910520237 4 0 0 0 0
1977 1 0.009793016279790887 0.007298954572053585 0.0969963871800452 4 0 0 0 0
1978 1 0.00977212485601945 0.006699057036054357 0.09650730739691665 4 0 0 0 0
1979 1 -0.01160727842488038 0.001706536171340817 0.09748212935709377 4 0 0 0 0
1980 1 -0.0111902851617485 0.001253830557414864 0.09697407882636147 4 0 0 0 0
1981 1 0.0005523000270846511 -0.004074640648052643 0.09652061673500326 4 0 0 0 0
1982 1 0.0007284153652965238 -0.003602335536748145 0.09701947575726524 4 0 0 0 0
1983 1 -0.004893661540333396 0.009703548112567052 0.09700958781512853 4 0 0 0 0
1984 1 -0.004768932111137575 0.01042651517597611 0.09700043841616071 4 0 0 0 0
1985 1 -0.005465525520959869 0.009865195598589227 0.09753323089093871 4 0 0 0 0
1986 1 -0.005340796091764048 0.01058816266199828 0.09752408149197089 4 0 0 0 0
1987 1 0.0008882265920224827 0.009439022220494819 0.09666044482320479 4 0 0 0 0
1988 1 0.0006143171551033374 0.009608098524577401 0.09717327270879214 4 0 0 0 0
1989 1 -0.002136245063817283 -0.008807177483072 0.09630714435153981 4 0 0 0 0
1990 1 -0.00229071550748681 -0.008728041800038371 0.09680916794108697 4 0 0 0 0
1991 1 -4.059817550972332e-05 0.007462177581979425 0.09632019270909731 4 0 0 0 0
1992 1 -0.0001475095672728113 0.007356427614803929 0.09680805464435087 4 0 0 0 0
1993 1 -0.00048289210128198 0.007562412334911698 0.09632019270909731 4 0 0 0 0
1994 1 -0.0005898034930450681 0.007456662367736204 0.09680805464435087 4 0 0 0 0
1995 2 -0.006175763982007166 -0.0002739540129311963 0.0921855609574736 3.999931698445843 -0.02347389236235567 0.03127241735848157 -11.20932121191342 11.20938941332499
1996 2 -0.006128502378404631 0.0002993384139545511 0.09250779858837405 3.999937483497428 -0.02427490593853276 -0.0136405581846866 -11.21063025518385 11.21066483551843
1997 2 -0.003861099352501426 0.000364020254537014 0.09233333399836866 3.99993452675177 -0.0448726362161214 -0.09011064808369555 -11.21229069856808 11.21274258116967
1998 2 -0.005846480594365307 0.0008283452421552929 0.09215770151892033 3.999931274311542 -0.09869268538686594 -0.1297340283593302 -11.21195152815548 11.21313641377698
1999 2 -0.00341893738336907 0.0007912450541498926 0.07203395736894734 3.999568979656936 0.01880229761500636 0.01912489891117129 -11.26564796192787 11.26567988584105
2000 2 -0.003896015813180388 0.0003902763339612623 0.07263900090715869 3.999579897852298 0.004042722093606739 -0.003341197526334898 -11.23783398105852 11.23783520492432
2001 2 -0.003869504238584776 -0.0004270976322404303 0.09235503802007677 3.999934862505949 -0.04685442312584319 0.006883058921229744 -11.20939677912866 11.20949681588815
2002 2 -0.006174019454851987 -9.878522056283091e-05 0.07220854501116175 3.999572149391219 -0.001307485852468398 0.003613718611014222 -11.23786193698717 11.23786259407306
2003 2 -0.003413682321285581 -0.0008030649829984093 0.09169183718662736 3.999922949764023 -0.01668811649748912 -0.0350822023667682 -11.25987603782858 11.2599430567575
2004 2 -0.004513824369659343 0.0009194326859277478 0.08764527770484054 3.999850071468283 0.003279702345063097 0.006285976910445587 -11.23043289887072 11.23043513698338
2005 2 -0.004001690309645259 0.000304708130056506 0.08764344602983817 3.999850039157267 0.00615310775849607 0.002862245636523849 -11.23047331242645 11.23047536279333
2006 2 -0.006613333356708521 -0.0002755410235578418 0.08116287432936925 3.999733388163645 0.000561193545051423 -0.004663018669373001 -11.23346698763639 11.23346796946508
2007 2 -0.00677237354158074 7.980769809542353e-05 0.07282327942088528 3.999583218548375 0.0003384587818401051 0.002542899794706455 -11.23993806119406 11.23993835394005
2008 2 -0.003521505699559772 0.000707500452143895 0.08432281659266638 3.999790276293653 0.002553912115915797 -0.000464618944881011 -11.23164020475204 11.23164050472327
2009 2 -0.006749306297063308 0.0005091269742771046 0.09183814366705322 3.999925527024378 0.08237899850289589 -0.05347034732237343 -11.09074529665102 11.09118012713813
2010 2 -0.003895504210901574 -0.000410003637372917 0.07263709461225908 3.999579852909807 0.004124506377117613 -0.01316402767261894 -11.23769940836579 11.23770787553949
2011 2 -0.005954031581539413 -0.0007449769672093772 0.09217734202996974 3.999931578306915 -0.01971776127541542 0.02177549737134808 -11.20970295247386 11.20974144416796
2012 2 -0.00341764756236639 -0.0008095003828972449 0.07203211700979098 3.999568961412757 -0.005814795008189039 0.001360246540219973 -11.21977874126977 11.21978033052166
2013 2 -0.006305152256323616 -0.001005415921076234 0.08114733409191784 3.999733103977747 -0.0001922354368443506 -0.002788080184602955 -11.23347547550657 11.23347582314366
2014 2 -0.004000103916573531 0.0003031527571961205 0.08371896612721544 3.999779407866129 0.002139884769632877 -0.003229612398729448 -11.23586731416101 11.2358679820891
2015 2 -0.006638245926109071 0.0001440746669339781 0.08043281712368902 3.999720247859101 0.0003707538532809025 -0.002686450167924406 -11.2367734407662 11.23677376801641
2016 2 -0.006040216766333202 -2.984932537815743e-05 0.08178142386695328 3.99974452534233 -0.0002977572204951688 -0.006478053668625838 -11.23658673483191 11.23658860612237
2017 2 -0.006040814689423952 -3.2744298749528e-05 0.07981961354169688 3.999709205732 0.0004872634672983545 -0.002844019371243609 -11.23703536628077 11.23703573674645
2018 2 -0.006130191946019594 -0.001384285925934075 0.07208690980196135 3.999569966870526 -0.008646753218414824 -0.002155743859622861 -11.25284499487827 11.2528485234775
2019 2 -0.006796567900665842 -6.41654526086428e-05 0.09151590603615278 3.999919741972792 0.07097087359095143 -0.08177791730978196 -11.10383190936123 11.10435984485403
2020 2 -0.005849960325211322 -0.00082461737494085 0.07265489725817792 3.99958019739852 -0.004724242882071644 0.01140637967010069 -11.23796230953634 11.23796909118936
2021 2 -0.005729587496923182 -0.0007619449160636288 0.07981401020117654 3.999709099628213 0.001458455473548991 -0.005217832140959563 -11.23711878964328 11.23712009571041
2022 2 -0.005732035665948297 -0.0007597242228965494 0.08176588362950186 3.999744241156432 -0.002191045194291403 -0.00193661343593454 -11.23674171669037 11.23674209718993
2023 2 -0.004448250410115075 0.0009878731679390713 0.09251730657120963 3.999937821779114 -0.09536989187282811 -0.03220796269112785 -11.20920626318136 11.20965823830864
2024 2 -0.004001465948184295 0.0003060554763657256 0.08568381792799318 3.999814774912001 0.003572711471966751 -0.0008332983116825108 -11.23527365328027 11.23527425222665
2025 2 -0.00337615657846648 0.0003068010206943076 0.08506109784266638 3.999803562846411 0.002260674064885916 0.0001423964098646889 -11.23283931423376 11.23283954262321
2026 2 -0.006018837633223395 -0.001315000847898515 0.08041167354571727 3.999719857569417 0.001388865714995465 -0.004730741942016204 -11.23784773557482 11.23784881713718
2027 2 -0.003375501212469307 -0.0004948897690893277 0.08899171400856901 3.999874297198135 0.006525971894228367 -0.003831653657013144 -11.23343373270215 11.23343628178348
2028 2 -0.006467284513023983 0.001038133802477846 0.0914880465975995 3.999919317838491 0.0807276200525379 -0.06028028916373319 -11.08833638149762 11.08879409003272
2029 2 -0.003930522160451094 0.001405868505712283 0.07203395754078383 3.999568996957336 0.03972049056642328 -0.005481843456795392 -11.26566959273867 11.26574094947755
2030 2 -0.004407600590262411 0.001004899785523653 0.07263900107899518 3.999579915152698 0.0147537659978377 -0.01607564008509803 -11.23775096297146 11.23777214600747
2031 2 -0.005455783147480462 0.0007377574311894492 0.06975103510312566 3.999527898793032 -0.01366894416932975 0.02199518684812744 -11.21888732548639 11.21891721380626
2032 2 -0.005329454694919409 -0.001682524752767428 0.08040179539041395 3.999719677890995 -0.002109783323821891 -0.002213561859938118 -11.23787205522789 11.23787247127826
2033 2 -0.005279250597492454 0.001119962246675184 0.09212849140378107 3.999930799492359 0.04213300725753268 -0.03659494594273863 -11.21312249037723 11.21326136164554
2034 2 -0.004379731221067874 -0.001041468981222514 0.09222924740936325 3.999932512316566 -0.106097428000976 -0.0647353764833784 -11.20984678833004 11.21053577448599
2035 2 -0.004382714658745623 -0.001019625683657878 0.0725942146275769 3.999579083013381 0.01675179467515419 0.00202694373613083 -11.23801488983012 11.23802755803568
2036 2 -0.003373436096197217 -0.0004964857230832351 0.08507795702546309 3.999803859997202 0.003662431528486592 -0.01044593579952551 -11.23284014635003 11.23284560048932
2037 2 -0.006175962380592535 -7.612092663725938e-05 0.07773073896122944 3.999671597014441 0.002350680909152096 0.001054136731848716 -11.2376004102356 11.23760070553463
2038 2 -0.005040204558619196 -0.001129468820932542 0.07980413204587322 3.999708919949791 -0.003213493911692394 -0.002565698121741932 -11.23601823368499 11.23601898614681
2039 2 -0.005857328653381334 -0.000806798593651124 0.07773432296612488 3.999671660661376 0.002926753718329561 -0.0002691686677734939 -11.23759811041426 11.23759849476414
2040 2 -0.00390485801021044 -0.001419122429182205 0.0719892370251088 3.99956819151633 -0.00143266779652128 0.006799407624038167 -11.21977534562321 11.21977749738093
2041 2 -0.003998485291567497 -0.0004965558891875957 0.08960542619519635 3.999885347115161 0.004560640355972829 -0.00583456496064281 -11.22901786606333 11.22902030802145
2042 2 -0.003892800080297945 0.000400198840825561 0.07495668713410494 3.999621637740487 0.001783408253195689 -0.002729713013744299 -11.2383251474537 11.23832562047249
2043 2 -0.005174518663327285 -0.001173269876140904 0.0777442279497511 3.999671831426788 0.009192128219678596 -0.003427415171720819 -11.2375771020799 11.23758138424752
2044 2 -0.003923909303768678 -0.001417436331980493 0.09156604657591383 3.99992059957464 -0.04946780899151233 -0.07431883517563673 -11.25986944091275 11.26022336278411
2045 2 -0.005750646643086764 -0.0008666988778633118 0.07001038813012624 3.999532587084489 -0.005912955164016696 -0.007201265785393833 -11.21561352317242 11.2156173937254
2046 2 -0.005421737733504822 -0.001739022026318619 0.07201311485857213 3.999568635996952 0.003858663152589138 -0.008383596772789978 -11.25281436548895 11.2528181500516
2047 2 -0.003897385775599523 0.0004005403163940701 0.07769079583756799 3.999670874602841 0.0002649696385772164 -0.002867085522646521 -11.23760311994647 11.23760348881464
2048 2 -0.003998745465915032 -0.0004972312674118172 0.08570067711078988 3.999815072062792 0.00394892183560106 -0.01017778201828692 -11.23352564276631 11.23353094747679
2049 2 -0.004413220089510634 -0.001016583222331619 0.07772171260140458 3.999671419876234 0.002721047828569437 -0.004596226652147086 -11.23759598568477 11.23759725505765
2050 2 -0.005141506112696549 -0.001179353475325394 0.0725811023147887 3.999578866524946 0.01483577929583088 0.001586912705441845 -11.23799174605392 11.23800165078362
2051 2 -0.006170191575741231 -8.25709312870089e-05 0.07500811329265991 3.999622566775164 0.0009458307604997942 -0.001721269196331678 -11.23833124400008 11.23833141561646
2052 2 -0.004001690309645522 -0.0004966907328438158 0.08764344602983817 3.999850042928475 0.006139052463528342 0.00300194010432894 -11.23044930903523 11.23045138818647
2053 2 -0.003897713223390014 -0.0004012489606223654 0.07769447403524851 3.999670934151051 0.0002649375051984557 -0.007537084544708571 -11.23760101487905 11.23760354557171
2054 2 -0.006746374762608894 -0.0003270987153558892 0.07712098027377561 3.999660617209215 0.0002694305833723288 -0.001037397566881486 -11.24098490159139 11.24098495268952
2055 2 -0.006427741035397692 -0.001057776382369754 0.07712456427867104 3.999660680856149 -9.106056874008457e-06 -0.0004015652018380296 -11.24098825993148 11.24098826710778
2056 2 -0.003405277435202224 0.0007894517666793568 0.09167013316491925 3.999922624101012 0.01959145469023038 -0.005007727624028764 -11.32098646605182 11.32100452552516
2057 2 -0.003892716735419972 -0.0004011002343204637 0.07498504469976895 3.999622148839269 0.001780833857688112 0.003408595994907688 -11.23832695818936 11.2383276162008
2058 2 -0.006074288089092734 -0.0001416817914263969 0.07002750801440842 3.999532882604961 -0.01538991404509412 0.01613288668105764 -11.21889686842192 11.21891902385315
2059 2 -0.005054123300551111 -0.001787028912628795 0.07713839121758789 3.999660920116102 0.007274883297657476 -0.0007314303155052535 -11.23389423347174 11.23389661282972
2060 2 -0.005262615905933476 -0.001118291798187879 0.09216060636217641 3.999931243322592 0.04581867635852637 -0.03814803802652011 -11.21327126016146 11.21342975979568
2061 2 -0.005810647572880767 0.001453864275655618 0.09271233690513395 3.999941273297781 -0.04916423051548052 -0.002335382720312395 -11.12333103110203 11.12343992670666
2062 2 -0.006581013708868195 -0.0007498101412482701 0.0927336764736594 3.99994154683097 -0.02553053325442068 0.02429521316869592 -11.20413308322889 11.2041885119903
2063 2 -0.004292824726734461 -0.00163034225881951 0.07711587586924137 3.999660508565549 0.003536285557351013 -0.001455221763834691 -11.23396300425684 11.23396365509508
2064 2 -0.003520850333563211 -0.000895589200539646 0.08825343275856901 3.99986101333237 0.007186467143194548 0.0001961980721333648 -11.22653021026458 11.22653251212444
2065 2 -0.003270372529392924 0.0004004681295641105 0.0755821123458936 3.999632899443031 0.0009723231917204697 -0.002401430889486327 -11.23937028493201 11.23937058353783
2066 2 -0.005961205345368205 0.0006685146041879056 0.07220479312029578 3.999572078981989 -0.001812347218738194 0.001876892052196502 -11.23783349989367 11.23783380276904
2067 2 -0.006276539640568407 -0.001269258362456718 0.09150920539620176 3.999919529802657 -0.01715270374613445 -0.05875121254829749 -11.27768347263344 11.27784954808012
2068 2 -0.005849858181600182 -0.0008117480558553567 0.0750099151341807 3.999622594091313 0.00261525878734817 -0.005510489272263169 -11.23832425057646 11.23832590585295
2069 2 -0.004000543109171702 -0.0004987712494047513 0.08372202565795281 3.999779464353919 0.001327138514845167 0.004854084271494335 -11.23446244620507 11.2344635732474
2070 2 -0.004033500674286423 0.001322199455122564 0.08432102321932064 3.999790250626172 0.006678406962133099 -0.005270936049179525 -11.23159717738481 11.23160039971708
2071 2 -0.003270372016508757 0.0004004675156234803 0.07705783219015661 3.999659476043088 0.0009845521947111299 -0.00317828109851461 -11.23849972198157 11.23850021452122
2072 2 -0.006559559432096959 0.00084710752284616 0.07281952753001932 3.999583148139145 0.0001661305662429939 0.00192813537927261 -11.23993458272069 11.23993474932777
2073 2 -0.004512098891300181 0.0009178517601747893 0.0837171727538697 3.999779382198648 0.003815243986197852 -0.005223979474493832 -11.2359048716669 11.23590673382421
2074 2 -0.00327028918451495 -0.0004008309455819142 0.07561046991155762 3.999633410541813 0.0009703213159273325 0.003008367627833819 -11.23937171706428 11.23937216156417
2075 2 -0.005910754183211129 0.001294607960723389 0.07025824405021616 3.999536977949126 -0.01859371102924985 0.03047936226254715 -11.20587929441144 11.20593617144649
2076 2 -0.005815540233162738 0.001256289854048649 0.06912589499333785 3.999516631039017 -0.01509878853977891 0.02325799577233782 -11.22569039361089 11.22572464124212
2077 2 -0.005042178531342109 -0.001129408715876813 0.0817562790835972 3.999744070739623 -0.003727358426119533 -0.0008916834107341192 -11.2370837974874 11.23708445105109
2078 2 -0.003270699464299248 -0.0004013217613929552 0.07706151038783712 3.999659535591298 0.000986053270405901 -0.007234444844110764 -11.23849988882551 11.23850226056054
2079 2 -0.003519224409888681 -0.0008977102982345195 0.08434273530620046 3.999790629932234 0.004725890469128023 -0.00382053311295755 -11.22221159035831 11.22221323577869
2080 2 -0.004034664715969541 0.001321834059966229 0.08825306462673518 3.999860982425994 0.01936297308200899 0.005598980083984444 -11.20607653038393 11.20609465773541
2081 2 -0.003522530655955457 0.0007071095040949875 0.08825123295173282 3.999860950114978 0.00830935601151048 0.01862017702199276 -11.20611971887859 11.20613826928033
2082 2 -0.006745190165943334 -0.0003332066304964994 0.07565674346440611 3.999634247232234 0.0007442554129747141 -0.001943933368253367 -11.23800168071059 11.23800187348476
2083 2 -0.006413634022098038 0.0009089221927148795 0.08043851776866909 3.999720354116193 0.0002335774317034359 -0.003420486217493495 -11.23677062333441 11.23677114636209
2084 2 -0.004408036989552123 -0.001016401260929687 0.07501602115050766 3.999622706566884 -0.003118409789603457 -0.002451002832996753 -11.23834825047576 11.23834895039597
2085 2 -0.006316738207792159 -0.001114183343915453 0.06940875191497883 3.999521756011018 -0.0146250456028935 -0.005073652911770155 -11.22873046241664 11.22874113298175
2086 2 -0.004515612615021872 0.0009211461514102926 0.08568939607913986 3.999814877651933 0.002094184454502571 0.0008918929090280041 -11.23529915963064 11.23529939020222
2087 2 -0.004028374166978415 -0.001509449404726676 0.08825935763148046 3.999861119914773 0.002322358466670415 -0.009165241058768399 -11.22650187060653 11.2265058520327
2088 2 -0.004925912183413443 -0.001742624318925411 0.08112785139070985 3.999732753882515 -0.00271980109694341 -0.001968382675362692 -11.23897654753209 11.23897704899448
2089 2 -0.004509214143060727 -0.001110550937030845 0.08764937090274963 3.999850149510878 -0.003301208456827573 -0.009624543220399528 -11.23494126397728 11.23494587146858
2090 2 -0.005841721991968916 0.0006093772564317786 0.06790507270812461 3.999494770203413 -0.03227170513661563 0.02078215851727351 -11.15857629541576 11.15864231444308
2091 2 -0.005168635510759172 -0.00117413865382803 0.07501409779337309 3.999622667363597 -0.003360467555841953 -0.002493421211223635 -11.23834913024143 11.23834990926558
2092 2 -0.00581620278541292 0.0007321032270313734 0.07982531418667695 3.999709311989091 0.0003542606333421529 -0.00335420321697998 -11.23695776368623 11.23695826988105
2093 2 -0.003992428492815872 0.001413304680081414 0.09185410573776022 3.999925919128355 -0.03700723010377106 0.06141633209004985 -11.31853317117826 11.31876029642778
2094 2 -0.006049327451312787 0.0006032072803162918 0.08568680269217585 3.999814852087967 0.003278911387795737 -0.009972838834808056 -11.23342359079068 11.23342849618525
2095 2 -0.005585123964962468 -0.00164257319343522 0.09149246972840842 3.999919194818334 0.003984068573286778 -0.06886687668017703 -11.2708371352866 11.27104823207059
2096 2 -0.00505021404255311 -0.001221619048479624 0.07000128028319876 3.999532430026452 -0.01102294546827351 -0.003842721680877211 -11.21683464872235 11.2168407231544
2097 2 -0.006048056470992035 -0.0001566396324795621 0.06792857660276504 3.999495206883957 -0.03155856687499021 0.02311908463950643 -11.15861613152566 11.15868470770469
2098 2 -0.006424856771802285 -0.001062383755064847 0.0756585453059269 3.999634274548383 0.002304752408288194 -0.005506196713375211 -11.23798431518972 11.23798590044213
2099 2 -0.003377181534861818 0.0003064100726449841 0.08898951420173282 3.999874237751951 0.001734635068731032 0.0329428937541703 -11.23343356622818 11.23348200381652
2100 2 -0.005340140496154159 0.001037682682504705 0.08592992086150342 3.999819220380272 0.01659108762081637 -0.002222612160316868 -11.23776430492518 11.23777677199738
2101 2 -0.005455716096170266 0.001049253830282017 0.08974390397054838 3.999887855932365 -0.0001065218289162194 -0.002918326135419907 -11.22855028917553 11.22855066892064
2102 2 -0.004506295834632994 -0.001110470892411492 0.08960543318790623 3.999885333435494 -0.0039569286967278 -0.02037057339898083 -11.22433988592386 11.22435906821796
2103 2 -0.006640379653798127 -0.0003891662574785378 0.06942587179926102 3.99952205153149 -0.01964537522776926 0.01052989027221192 -11.22877039984334 11.22879252242889
2104 2 -0.004513134303984817 -0.00111236553800357 0.08571145000682928 3.999815265043484 0.00818510299165039 -0.003022166069492798 -11.23582109016368 11.2358244779618
2105 2 -0.006046325616927791 0.0006080188699646812 0.08962831703032442 3.999885787104648 0.02200781159136949 0.01039334289622664 -11.23600085572412 11.23602721584372
2106 2 -0.004000165613960007 0.0003047439525467161 0.08960322638836016 3.999885287668977 0.003108607092284403 0.03192415380085172 -11.23594372453782 11.23598950675973
2107 2 -0.004018810839491135 -0.00150999816873347 0.08436174169549962 3.999790970108989 0.003396546736407616 -0.006373668167429613 -11.22220386395411 11.22220618792589
2108 2 -0.006466158710788202 0.0008006822009784042 0.06862214957770015 3.999507591967675 -0.005056793304172537 0.03603856007087473 -11.20180279332995 11.20186190638079
2109 2 -0.004404981791443457 0.001014932143730118 0.07495485537408023 3.999621612433283 0.005314053235234148 -0.006944455600018495 -11.23831035227986 11.23831375424205
2110 2 -0.004271345396905861 -0.0009753964172854269 0.07981068182340241 3.99970904292498 -0.00387465117070117 -0.002584810082997623 -11.23583153088902 11.23583249628993
2111 2 -0.005954100696726279 0.0006895633581198842 0.0777319766266735 3.999671619754117 0.001232858488109026 -0.002821014501702857 -11.23760214801934 11.23760256973131
2112 2 -0.005953610748963988 0.0006847584985969212 0.07502402507878146 3.999622857749771 -0.0001895866842727751 -0.005717239811226614 -11.23833647344368 11.23833792929847
2113 2 -0.006672493189811319 3.466531206706346e-05 0.06864565347234057 3.999508028648219 -0.01738770124601153 -0.005808249372789561 -11.20194834102322 11.20196334143566
2114 2 -0.004409988487032238 0.001015350733939774 0.07769079383565039 3.999670877601125 0.0002571502244105554 -0.002857712898407141 -11.23760315780494 11.2376035241041
2115 2 -0.004154997409107965 -0.001590340619301376 0.08112769314875774 3.999732753822406 -0.000888866376482558 -0.002025531688003792 -11.23897501053403 11.23897522820788
2116 2 -0.004271263757036631 -0.0009771250162527783 0.08175612084164509 3.999744070679514 0.0002336708590594812 -0.0003958442311751989 -11.23593943383008 11.23593944323271
2117 2 -0.004500129538774157 -0.001111059119903702 0.08374103204725197 3.999779804530674 -0.008159212124285374 -0.007789024658000531 -11.23891482493419 11.23892048569493
2118 2 -0.006450109218000365 -0.00103000550936902 0.0870447346459598 3.999839278308783 0.008238501186115653 -0.01119825702793442 -11.23156521257113 11.23157381661627
2119 2 -0.006163479790921841 -0.00134504097440851 0.08631512559309279 3.999826146261791 0.004438264317793376 -0.006992017516978824 -11.22185042362651 11.22185347956145
2120 2 -0.006773415359911494 0.0001219428670092191 0.08630775804722536 3.99982603783058 0.01010009883540123 -0.009224477758899724 -11.24416883922868 11.24417715922636
2121 2 -0.00341764756236639 -0.0008095003828972449 0.07055922922441787 3.999542466758668 -0.005557896577388957 -0.001654119377626943 -11.23337132480786 11.23337282152341
2122 2 -0.003417711488393533 0.0008014710497295534 0.07842118349167441 3.99968402754449 0.0004180461162229061 -0.002391554025054899 -11.2369584198416 11.23695868211422
2123 2 -0.006753025013942881 -0.000296593757756543 0.08704100989332163 3.999839232064605 0.01042072880243916 -0.01646700617499458 -11.23153521049035 11.23155211617547
2124 2 -0.004883804947846075 -0.001407326027278214 0.06576143018495341 3.999456703258843 -0.09883570837822238 -0.39273134020854 -10.54041032461573 10.54818734257685
2125 2 -0.005067112277903485 -0.001780797863891935 0.08704970257072916 3.999839348908131 -0.0008018899322131603 -0.005892512454999486 -11.22948698203351 11.22948855667036
2126 2 -0.00341816267681814 0.0008032189954792629 0.08628859497295044 3.9998256543344 0.004970723646192408 0.003750713563582869 -11.22858088762071 11.22858261428338
2127 2 -0.00429085786248354 -0.001062172600704283 0.06996380079211399 3.999531757437174 0.01361239288299324 0.0006723890556732344 -11.21217471533738 11.21218299871162
2128 2 -0.005475902293437349 -0.001719894476654005 0.08631769297286607 3.999826183891334 0.003645700286819956 -0.006569432734699607 -11.22185798279213 11.22186049790909
2129 2 -0.003912235759037701 -0.001420743183715839 0.07058522992893977 3.999542931130232 -0.003140773933744291 0.001345716373638567 -11.23337331022334 11.23337382989863
2130 2 -0.004292571162296708 -0.001630439450557683 0.08704176160427769 3.999839208976673 -0.001626089423105643 -0.006043651756648479 -11.22947458492225 11.22947632898829
2131 2 -0.003796269665812229 -0.0004509297998856888 0.06993780008759208 3.999531293065609 -0.000719478622849585 -0.01515900894503264 -11.21409819709362 11.2141084660021
2132 2 -0.00341607820378695 0.0007994499014197888 0.08235315581485927 3.999754820444397 0.0009296110550939776 -0.001785392745916586 -11.23578403011302 11.23578421042104
2133 2 -0.006543481091496189 0.0008820252748077318 0.08629579595094641 3.999825828968857 0.01049532934575892 -0.007931451138521261 -11.24417328936622 11.24418098489845
2134 2 -0.006279261719728092 -0.0001568751274822208 0.08569876478845478 3.999815060949691 0.006099319371375878 -0.004181549413554215 -11.2351530715498 11.23515550529708
2135 2 -0.005904826707241898 0.0009405419519595437 0.06590497129408253 3.99945912554711 -0.5398415273018839 -0.07422484539663389 -10.60089052474565 10.61488662774671
2136 2 -0.006771972234493691 8.63519971824931e-05 0.07428946753785103 3.999609624771914 -0.0003582811190887503 -0.0003581274333725183 -11.24082151446367 11.24082152587835
2137 2 -0.003270658490811454 0.0003999538871214207 0.08702506383532681 3.999838905642369 0.00500433009766205 0.003664387884142306 -11.22845756308044 11.22845927618552
2138 2 -0.006146100190603766 -0.001360843828740564 0.07847791593091953 3.999685046212067 0.003502022996388452 -0.004950653473083089 -11.23085722569519 11.23085886284236
2139 2 -0.005283755258667504 -0.001260909350365097 0.08765731186920109 3.999850289442336 0.001311758589055076 -0.007943820290471634 -11.23361640549344 11.23361929080574
2140 2 -0.006775961110315738 9.903445558740115e-05 0.07847993526654445 3.999685088668919 0.00187378299496873 0.001626540406067345 -11.23658535520751 11.23658562916513
2141 2 -0.003270658490811718 -0.0004014449757789011 0.08702506383532681 3.999838909413578 0.00500606556934989 0.002208802051592274 -11.2284575736368 11.22845890683404
2142 2 -0.004292227834961694 -0.001629818207908439 0.07566857327754452 3.999634455518495 -0.00322439485789552 -0.002883899476893975 -11.23783836610964 11.23783919872517
2143 2 -0.006438344554183262 -0.00104984100019342 0.07920072742521815 3.999698059487052 0.004325689924012506 -0.005817878470112392 -11.23295678827524 11.23295912778828
2144 2 -0.006746612701151931 -0.0003548385620265632 0.07139251627439978 3.999557450684601 -0.003472258075305839 0.0002124250517077697 -11.24336109872232 11.24336163689326
2145 2 -0.003268333200191964 -0.0004023655515484335 0.09095355593662736 3.999909641383135 -0.005165315578371299 -0.0273462595830791 -11.27924007708609 11.27927440994958
2146 2 -0.005814445567459258 0.0007330967622482138 0.08178490380725668 3.999744594168039 0.0002732747081074726 -0.003774499820947255 -11.2362064696047 11.23620710689842
2147 2 -0.004890266658880333 -0.001403523789332054 0.094740864794334 3.999977570717422 -0.05858750204299298 0.03910466195087041 -11.12073153231683 11.1209546120757
2148 2 -0.006751122389950676 -0.0003094727156003355 0.08312843545641775 3.999768776947047 -0.0003796426025825855 -0.004779969593737769 -11.23957270797844 11.23957373080366
2149 2 -0.003771729713838809 0.00033393661775352 0.06789377791202234 3.999494408260503 0.07760320287237754 0.1602891667152227 -11.1710110576906 11.17243048423699
2150 2 -0.006749571746684033 -0.0003206403828793194 0.07920633076573849 3.999698165590838 0.00201000917449953 -0.0004899115843475577 -11.23298435300133 11.23298454351839
2151 2 -0.006282090497222407 -0.0001515587464752 0.08765118657156684 3.999850210228353 0.00958951762019053 -0.01776710879321328 -11.23372514737482 11.23374329045152
2152 2 -0.003920613136892964 -0.001415924566796742 0.09021751974339486 3.999896342625298 -0.01066071247907002 -0.01975639202181253 -11.23381921909361 11.23384164981389
2153 2 -0.004346230137931353 -0.001090418738678251 0.06759245859892396 3.999489089338056 0.102193233643605 -0.06291120782730134 -11.18126084300101 11.18190481609911
2154 2 -0.006774533105185544 0.0001099257675475355 0.08239359574766925 3.999755548417432 -0.0002958514205860504 -0.00648038074751187 -11.23662184620472 11.23662371878083
2155 2 -0.003417239837797409 -0.0008030065931814792 0.08235805270291008 3.999754909033932 0.0002686797454923401 0.002343347801458742 -11.23878876625222 11.23878901376411
2156 2 -0.005896074512573298 0.000944696528704916 0.09441261867661069 3.999971575197366 -0.04070606221801001 0.02270784246426107 -11.15633069453864 11.15642806616507
2157 2 -0.006421794609600419 -0.001081047707908705 0.07139868677351237 3.99955756154804 -0.001989239894219173 -0.003202976656793953 -11.24334939762444 11.24335002982637
2158 2 -0.003761011323020536 -0.0003627489131198771 0.08175514078066096 3.999744052578189 0.0009394960277116875 0.0002170991714193692 -11.23569251902924 11.23569256040564
2159 2 -0.00327379910141704 0.0003907981393758488 0.07129560718136117 3.999555691473921 -0.003943262900280047 0.03630452951013377 -11.22420393300619 11.2242633387629
2160 2 -0.005979174701279891 -0.0008849704980876766 0.087654911324205 3.999850256472531 0.007332464135129903 -0.01100703923598686 -11.23290492817359 11.23291271422197
2161 2 -0.003760288881608248 0.0004377835748805192 0.08175330342334751 3.999744020476443 0.0009037773249074372 -0.00186875079891653 -11.23587314770136 11.23587333945517
2162 2 -0.003272362880184406 0.0004007722322205938 0.07916030739741142 3.999697335231886 0.0001405742031863001 -0.001732986835448204 -11.23823190071154 11.23823203520799
2163 2 -0.003412914953950345 0.0008008770574850834 0.07421058122579753 3.999608200950835 0.002127128418124403 -0.00161746083767044 -11.23989548426775 11.23989580192439
2164 2 -0.003412802593827467 -0.0008020095635728457 0.09021751275068499 3.999896356304965 0.003633688968551531 -0.00262674542402261 -11.23375669147913 11.23375758625933
2165 2 -0.003417625598899111 -0.0008012217920646903 0.07844461677757236 3.999684442676932 -0.001386692203433742 -0.002474096405308294 -11.24499780374529 11.24499816141847
2166 2 -0.005972241946680955 -0.0008904472172874735 0.08570240758168404 3.999815123136724 0.003316109005220307 0.002928980087510849 -11.23595653966541 11.23595741077516
2167 2 -0.003273020882693174 -0.0004096673263371094 0.07129567311710443 3.999555718172232 -0.003422348213102871 0.003241285182552868 -11.22420400771712 11.22420499747087
2168 2 -0.005252934633388614 -0.001741516209035209 0.09286283085024977 3.999943934784806 -0.01311296045124375 0.1048809317316236 -11.37852214420479 11.37901305675196
2169 2 -0.005284664449196462 -0.001265300719532968 0.08570497496145732 3.999815160766268 0.01378692735092204 -0.001730914494381332 -11.23725678211837 11.23726537297648
2170 2 -0.003248536708023131 0.0003751320690048414 0.06728467236310487 3.999483284103647 0.2068192290667064 0.09419169007020052 -11.35492018092632 11.35719413337633
2171 2 -0.006270511268893404 0.001813140383582588 0.06963310394042833 3.999525710195111 -0.02819333306552119 0.0433977879120401 -11.2124575749591 11.2125770054115
2172 2 -0.003933132465019731 -0.001416556053773944 0.07847185534372841 3.999684928402115 -0.002862691078047678 -0.004250095429518709 -11.24499392734017 11.24499509489571
2173 2 -0.005052826356168744 -0.001787555600806782 0.07566664992040993 3.999634416315208 -0.003078668274728903 -0.002855856595805264 -11.23784094575424 11.23784173034066
2174 2 -0.003238115273403237 0.0003656863746352819 0.09319618431174131 3.999950084763795 -0.05558525169564311 -0.08516329515811305 -11.22748051727906 11.22794109678748
2175 2 -0.005283962266291384 -0.001260677133935186 0.08960543851850739 3.999885328999534 0.005963079249445483 -0.01797690752340608 -11.22699789673885 11.22701387283799
2176 2 -0.005463290200549717 -0.001727315111230344 0.07848782091454576 3.99968521697748 0.00459314953322847 -0.005510937339027105 -11.23083811565358 11.2308404069985
2177 2 -0.006156035908267426 -0.001353156193789829 0.08238169823563658 3.999755320808394 -0.001631792512183608 -0.006243575320076331 -11.23097772606117 11.23097958008391
2178 2 -0.003929831032618925 -0.001416600881790354 0.08631622705178657 3.999826148237093 0.004185551612752579 -0.002607519355400306 -11.24168320401491 11.24168428561443
2179 2 -0.003248536708023246 -0.0004262667938953542 0.06728467236310487 3.999483340503804 0.2111476135295314 -0.007923887826406906 -11.35492034059404 11.35688610684874
2180 2 -0.006440806293417463 -0.001042679779419308 0.08313207818183649 3.999768833523906 0.001819765008098825 -0.009976337219580644 -11.23954575896226 11.23955033382811
2181 2 -0.003271451524113736 0.0003996168448596543 0.08309327442217272 3.999768142509306 0.001263081313477813 -0.002601618604666972 -11.23429539121399 11.23429576345779
2182 2 -0.005088224854194163 0.001278789514550912 0.06596688032684586 3.999460292517586 0.2085010915603824 0.3128793474425355 -10.58943341575018 10.59610618377545
2183 2 -0.006130112808984383 -0.001385441266343765 0.07066880741320354 3.999544421746605 -0.007333473892447349 0.002712491028921639 -11.229772586749 11.22977530886287
2184 2 -0.006279665213788186 -0.0001612451931112313 0.08374354255457167 3.999779853785734 0.001021571625408727 -0.002586453663805832 -11.23597753800031 11.23597788213374
2185 2 -0.00590297665993264 0.0002635235389975364 0.09502120600654487 3.999982481358372 -0.03864845801570461 0.02832133039177787 -11.15792917450462 11.15803205159062
2186 2 -0.00341544219454914 -0.0008014666111986016 0.08630545415574714 3.9998259552564 0.002245098969952986 -0.004937771012581526 -11.24168831579554 11.24168962440904
2187 2 -0.003927492271813504 -0.001417382696314381 0.08235903276389422 3.999754927135258 -0.001816013478566742 -0.0001603035178445372 -11.23879332049659 11.23879346835953
2188 2 -0.003267565832857052 0.0004001776260354935 0.07347229997579753 3.999594901748444 0.00233626446638804 -0.00214126270663237 -11.24083418227702 11.24083462900265
2189 2 -0.003271949542899493 -0.0004001313325572145 0.07918006248562884 3.999697690816118 0.0001409485593745415 0.001491136396334311 -11.23823289696472 11.23823299677375
2190 2 -0.003771729713838923 -0.0004674622451466755 0.06789377791202234 3.99949446466066 0.09386605222484361 -0.07264018311826403 -11.18030850731182 11.18093850044051
2191 2 -0.005245312859185423 0.001116866749599929 0.07242000145925008 3.99957596987714 -0.01884757022759923 -0.009899392665625291 -11.23753582437708 11.23755599020698
2192 2 -0.005429680208450728 -0.001740361436960078 0.07065969956627607 3.999544264688568 -0.00311302797512268 0.0006050582105140884 -11.22978638170935 11.2297868294934
2193 2 -0.003761922679098997 0.0004398053371309116 0.07979092375589966 3.999708690332819 -0.0006523868845749493 -0.001151604553561452 -11.23684873455972 11.2368488125087
2194 2 -0.005066151625825226 -0.001783836187552114 0.07920075425354105 3.999698050574042 -0.0009142811292426276 -0.004726893149279706 -11.24053283535893 11.24053386642339
2195 2 -0.005476609544879543 -0.001714444852809798 0.09021258927367744 3.999896202427006 -0.02452190827381251 -0.03319822174891049 -11.17923169211634 11.17930787982561
2196 2 -0.005339727464576445 0.001039054696384236 0.08789355617666592 3.999854596072459 0.08096856913882633 -0.01545562043022507 -11.21782103919106 11.21812389184167
2197 2 -0.004241898453179733 -0.001676989160220162 0.06805140993405079 3.999497291268404 0.07763603079515971 0.008406919732095071 -11.27747359691851 11.27774395696103
2198 2 -0.003271890716711907 -0.0004023071617412174 0.08309633395291008 3.999768198997096 0.001250283254807194 0.004800012322376141 -11.23429554941959 11.2342966444293
2199 2 -0.003412320006793557 -0.0008007019889951205 0.07423703249656192 3.999608667107127 0.004936840862681566 -0.007821088442976402 -11.25300998267563 11.25301378351682
2200 2 -0.005466178773661238 -0.001722840686770092 0.08237209368973192 3.999755150391584 -0.007808023157688524 -0.003025399299517437 -11.23093540626051 11.23093852791753
2201 2 -0.003761509341814083 -0.0003610982276468966 0.07981067884411708 3.999709045917051 -0.0005354381004902708 0.001053599731114273 -11.23705794249355 11.23705800464355
2202 2 -0.004281729580330457 -0.001628971135373069 0.08311632040319339 3.999768557275177 -0.005601752565206493 -0.002555300087649977 -11.23121481023955 11.23121649791039
2203 2 -0.00590499320846914 0.0002626882572445348 0.06539484685866125 3.999450506000775 -0.4675292822744538 0.1487589661357103 -10.5367274414868 10.54814381945804
2204 2 -0.005723636523470866 -0.0008840590289291437 0.06798264222961709 3.999496160399728 -0.003616151068009343 -0.06132268433556672 -11.16530767206769 11.16547665619773
2205 2 -0.005049501307872713 -0.001782145426204747 0.08312922308707896 3.999768780471395 -0.007929052582175456 -0.003006059900116093 -11.23116493815065 11.23116813934399
2206 2 -0.004631941150988527 0.0009297072251459748 0.08947182716783939 3.999882931199698 0.03475378938399269 -0.005358605198138437 -11.23579412465016 11.23584915135698
2207 2 -0.004370049948523013 -0.001664693392069843 0.09293147189743661 3.99994520377878 -0.03016750455774843 0.1057706623230655 -11.38234894946461 11.38288035247308
2208 2 -0.006774255597997641 9.260435183715409e-05 0.07638999780825438 3.99964745314691 0.0008856836035862449 -0.002306017950706269 -11.23867944543435 11.23867971691438
2209 2 -0.006741439203289095 -0.0003393740366914934 0.07355746887954942 3.999596441967324 -0.0002952887365880616 0.001316133736709971 -11.23791544048645 11.23791552143578
2210 2 -0.005267901266316413 -0.001264233410735379 0.08375393473113754 3.999780027726891 -0.004394760135799434 -0.006354445762929248 -11.23784715229766 11.23784980818404
2211 2 -0.004297292464111892 -0.001629763783904998 0.07920730403107024 3.999698173549231 -0.00507279891445071 -0.005490054919284102 -11.2404807598024 11.24048324519368
2212 2 -0.003415721137602051 0.0008011669470730702 0.07631955094015661 3.999646182361208 0.0009702750364583845 -0.002503782921438552 -11.23957293356223 11.23957325432008
2213 2 -0.005969349117254973 -0.0008944522569302039 0.08374718527999042 3.999779910362594 0.003661788155754744 -0.01033241066285642 -11.23693401117789 11.23693935816017
2214 2 -0.004521091131904422 0.001546097901115484 0.08885994665621441 3.999871913593689 0.03458410315290987 -0.004654695491514232 -11.23785248849208 11.23790666803603
2215 2 -0.006128252906924694 -0.00137107760219753 0.07424879061818548 3.999608895870734 0.001877594498159428 0.004969321030776443 -11.22438781230155 11.22438906936391
2216 2 -0.005079472659525562 0.001282944091296285 0.09441261867661066 3.999971650175818 -0.08167359645497452 0.00201880560036896 -11.1560483131136 11.15634745857526
2217 2 -0.004390835588950009 -0.001722664976500253 0.08899764587419032 3.99987439010087 -0.002225003182688231 -0.01361675347399649 -11.21579458906756 11.21580307560594
2218 2 -0.005403120024306334 -0.0009489407905527005 0.06542218785203659 3.999451085680458 -0.232096663459782 -0.3117700921568672 -10.58591462413086 10.59304762006385
2219 2 -0.003267054230578237 -0.0004001023452986858 0.07347039368089792 3.999594856805953 0.002341571734742949 -0.01440841635317429 -11.24083405632761 11.24084353450908
2220 2 -0.005103595402534567 -0.001249629764334347 0.06763969570030494 3.999489988722486 0.002032865086232761 -0.06487452803519678 -11.16624521295161 11.16643385296725
2221 2 -0.004920619964407624 -0.001823855540392491 0.06940242180006929 3.999521665416001 -0.01146392051763548 -0.003221207287049691 -11.21589019469309 11.21589651597511
2222 2 -0.005408850083253013 -0.0009448355365235686 0.09506476014810317 3.99998330634417 0.0007170115552212202 0.002478572814419472 -11.1411510211401 11.14115131991662
2223 2 -0.004115446142704453 -0.001162454729922692 0.06576340197240799 3.999456741109506 0.3379505059214279 -0.217649150443791 -10.54694725977021 10.55460459692905
2224 2 -0.006756083874367312 -3.099654465608752e-05 0.093828376872755 3.999961145173835 -0.02935792176366502 0.0684369322883704 -11.18998112015882 11.19022890609402
2225 2 -0.005979454980535912 -0.0008838071529847267 0.08953095826106872 3.999884006572361 0.005789481964824545 -0.01789767550021614 -11.22697092942292 11.22698668810991
2226 2 -0.006279704213028064 -0.0001502285871546967 0.08952782245566523 3.999883975828813 0.006737884066953108 -0.0204724464763469 -11.22668680549215 11.22670749368478
2227 2 -0.00617210225912407 -0.001337574871859338 0.09013810901623877 3.999894879999833 0.001644922844112003 -0.0475498107690616 -11.17911998453946 11.17922123043484
2228 2 -0.006537268755145632 0.0008883211066599637 0.09023394949794165 3.999896752563329 0.06669832427777102 0.02842682583993362 -11.29965031897355 11.29988292337438
2229 2 -0.006770647351245907 0.0001300736495405857 0.09013345492328247 3.999894941287493 0.04271797607661085 -0.04864594209420912 -11.29941464976599 11.29960011153088
2230 2 -0.004073034414237988 -0.000471394632248026 0.06542415963949116 3.999451133480136 0.4020992125362858 -0.08421615352975671 -10.58598007118561 10.5939487541132
2231 2 -0.006707943007125996 0.0005401816792810042 0.09345131032484214 3.999954369041551 -0.05081666066135143 -0.01220322281530978 -11.13615859591788 11.13628122512553
2232 2 -0.005686545937404243 0.001558441534216372 0.08531609854281744 3.99980817688909 0.01636196938669677 -0.0008777152362716641 -11.24022560384558 11.24023754685691
2233 2 -0.004114161246255537 -0.001161922464252668 0.09475450570329397 3.999977826210748 0.01442515043368969 0.06805977002304274 -11.11944304509975 11.11966068953895
2234 2 -0.006410919552492921 -0.0001433974119304138 0.09462708024243799 3.99997545397293 -0.01515314558091445 0.07031429800786528 -11.13836280945248 11.13859505473287
2235 2 -0.004402298220030708 0.001536590698717543 0.08506488262046732 3.999803639918861 0.004651199563484165 -0.003863669921365008 -11.22748386242752 11.22748549064629
2236 2 -0.004071017865701493 -0.000470559350495031 0.09507840105706314 3.999983561837496 -0.01462047424243455 0.008059515267771706 -11.13726277730241 11.13727528997731
2237 2 -0.006418053269861146 -0.001067626511503169 0.07351499011836307 3.999595685749996 -0.004750627022357972 0.01140972749110948 -11.23796219429809 11.23796899047207
2238 2 -0.003246520159486587 -0.0004254315121421623 0.09321788833344943 3.999950420517974 -0.05909891457263196 0.0002443748796535739 -11.22748145701369 11.22763700023335
2239 2 -0.006135288476645391 -0.001367250439745058 0.07639538365467062 3.999647544109993 0.0007124952429165583 -0.002239672070022809 -11.24406800682515 11.24406825245602
2240 2 -0.005239594768546081 0.001128651713527908 0.07475146720174811 3.999617954029697 -0.0004595590618935211 -0.005904398176926105 -11.23832382946947 11.23832538989389
2241 2 -0.005241095051131527 0.001131473221968484 0.07795630148936131 3.999675659897798 0.0009805488570047661 -0.002991808150563921 -11.23761418719284 11.23761462822915
2242 2 -0.003927640260925709 -0.001416003015604344 0.07426800894730064 3.999609224834742 0.007728689757142343 -0.004484965588895906 -11.2530032360458 11.25300678387865
2243 2 -0.006749904951548898 -0.0002947111807449184 0.09076357364110697 3.999906246340112 0.03944247291292864 -0.1178961335067686 -11.2065837435083 11.20727328154488
2244 2 -0.006778572346541863 6.578496597529153e-05 0.07067975679837314 3.999544606403638 -0.003621433715823149 0.00219501972642595 -11.24680908253296 11.24680987977656
2245 2 -0.004999263717782946 -0.001836200185876258 0.06809864703543177 3.999498190652834 -0.01355438200565809 0.001960113092514061 -11.25732190619462 11.25733023691693
2246 2 -0.005444480731852859 -0.001730031687514319 0.07639930560996126 3.999647612604533 0.0008250850768465515 -0.002296457911723887 -11.2440678795344 11.24406814431776
2247 2 -0.005243743149195419 0.001766871304167136 0.09149985075609388 3.999919541382638 0.04141423670838097 -0.03747790525460695 -11.21204867155967 11.21218779479756
2248 2 -0.006451609091919214 -0.001028781136314812 0.09076509192865981 3.999906154308904 0.0163783278476656 -0.06151348317585171 -11.20600552380197 11.20618632531673
2249 2 -0.00437722928739402 0.0009586323303756506 0.0676878396808679 3.99949069012097 0.1258171226128101 0.111933793599527 -11.17967966077783 11.18094792225157
2250 2 -0.004387411363869457 -0.001723907864173938 0.08510773631080168 3.99980439315465 0.008540845937851555 -0.001507799022177329 -11.23387099094272 11.23387433883126
2251 2 -0.004526664550494681 0.0008336106807850555 0.06545675589142458 3.999451682920265 0.1900845784128237 0.3212785531948317 -10.58360396824335 10.59018531529593
2252 2 -0.00522008723230597 0.00106656402971059 0.06795205675244124 3.999495539901701 0.07532644177775753 0.1093408312156106 -11.1721696875485 11.17295865102791
2253 2 -0.003789680758900597 -0.001376168649496278 0.08040818692599103 3.999719800806075 -0.003151140098951061 -0.00280940298552161 -11.23490766187383 11.23490845504583
2254 2 -0.006394593753840344 0.001130006431969441 0.08901678956552245 3.999874833070065 0.01244874281974134 -0.03320267135292529 -11.17324006467681 11.17329633239367
2255 2 -0.004421147847901541 0.001645063201553712 0.09141818244523058 3.999918029854257 0.01668355494859966 -0.03486001475745492 -11.21339913314858 11.21346573013589
2256 2 -0.004524648001958181 0.0008344459625380571 0.09502120600654487 3.999982556336825 -0.004884316361398159 -0.03167401867680535 -11.13198822354293 11.13203435626678
2257 2 -0.005328746153433303 -0.00177252319668016 0.06868537694692838 3.999508753106539 -0.02494776841091456 -0.0008512015530399825 -11.23904009682894 11.23906781783176
2258 2 -0.005447030236083684 -0.001733468200170203 0.07425297327737787 3.999608969143019 0.006047678394745625 0.002868782706971344 -11.22436408170454 11.22436607755588
2259 2 -0.003415965240514567 -0.0008019214050893901 0.07635158670350113 3.9996467530082 0.001089630552840901 -0.0020882788144541 -11.23011167010559 11.23011191712909
2260 2 -0.004269584932554439 -0.00162502541819287 0.07345849014695445 3.999594644637142 0.01636282118185237 0.001269683571706772 -11.23704104731392 11.23705303240273
2261 2 -0.005803984233082819 0.001571241392286776 0.08913237650574637 3.999876901897782 0.03249187539960961 -0.0253940852278552 -11.1733107227679 11.17338682267161
2262 2 -0.003922583636829161 -0.001415607640806691 0.07637871361874933 3.999647240257267 0.001368880418045571 -0.001753993225924451 -11.23011243718562 11.23011265758972
2263 2 -0.00534619363188715 0.001664763513312077 0.08861599937081838 3.999867600124564 0.08112466475511732 -0.01622903152209183 -11.22199812048771 11.22230307953432
2264 2 -0.005740602887686358 0.00149362956988793 0.09325255001433647 3.999950885121756 -0.05780527706980444 0.02089316181662344 -11.05925501908147 11.05942582376438
2265 2 -0.006050399437205559 0.0006066840473409003 0.08764984696547684 3.999850232498199 -0.003312132196261478 -0.05351000172195104 -11.24344481371146 11.24357263370852
2266 2 -0.004374259335662782 0.0009736169893753125 0.06969361599985455 3.999526932846122 -0.08926680145004236 0.01893776330019161 -11.23382067712113 11.2341913018443
2267 2 -0.005028376386505364 -0.001784753209860386 0.07344537783416626 3.999594428148706 0.01539816864759268 0.001088413983187807 -11.23709016416257 11.23710076691323
2268 2 -0.003542081006641888 -0.0002443460733715536 0.06591634713949117 3.999459256994109 0.309031439292104 -0.1900459488013103 -10.65436385925416 10.66053878274958
2269 2 -0.006080418597384732 -0.0009567292927020216 0.09467063438399628 3.999976278958727 0.01074191881321307 -0.0007070907029378301 -11.13629448765412 11.13629969085569
2270 2 -0.006223164369478579 0.001209526240986622 0.06731390409462842 3.999484057066707 -0.03357692245364642 0.1175860314111898 -11.27922764583502 11.27989052123616
2271 2 -0.006395732892562871 0.001123966132027958 0.08507298037348984 3.999803808596786 0.003960410604446184 -0.00576944265006576 -11.24022372722716 11.24022590562312
2272 2 -0.004161263784338054 -0.00166440909261715 0.06936494230898452 3.999520992826723 0.01227878237657338 -0.002181733715655222 -11.21610414504911 11.21611107831259
2273 2 -0.00605034574421507 0.0006012748309656283 0.08374018338306044 3.999779799547685 -0.0005246158288725891 -0.006929593534831687 -11.23714771690649 11.23714986578292
2274 2 -0.003540064458105392 -0.0002435107916185585 0.09458621355706312 3.999974842526373 -0.07332609505129689 -0.05858492283154156 -11.09425641734338 11.09465341338626
2275 2 -0.006555391407716448 0.0008536814270664231 0.07430537932397259 3.999609915746521 -0.001967083977925547 -0.006099109409665014 -11.24079512764006 11.2407969544037
2276 2 -0.006727288172995913 -0.0003546213264564177 0.06723880963075213 3.999482754337475 -0.07753638441777587 -0.04611716621775108 -11.2533687401979 11.25373034539178
2277 2 -0.004927351964342406 -0.001803233961933317 0.06644448587185503 3.999468407045108 -0.1191612750707562 -0.09207689100237694 -11.27900168938303 11.28000694469815
2278 2 -0.003797743480070087 0.0003505003969617484 0.06993498035968793 3.999531295228449 0.000836349981795681 -0.06444814884373745 -11.2108565598049 11.21104183686295
2279 2 -0.003930314199826248 0.001416281467275257 0.07842118148975682 3.999684030542773 0.0007526646228434088 -0.002793858763436981 -11.23695842739202 11.23695879991945
2280 2 -0.003419899595348114 0.0007923952796631505 0.07055634356077045 3.999542442223197 0.01843362565186821 -0.01084914273163646 -11.13417326403325 11.13419380898166
2281 2 -0.005168502020608399 -0.001872871218023948 0.08899765120479147 3.999874385664911 0.0002235806135280103 -0.01256184628970285 -11.21579301407361 11.21580005102235
2282 2 -0.006876896432763947 2.04526663348546e-05 0.0843541343642181 3.999790852899799 0.003519646396941741 -0.005843501324672514 -11.24181777512376 11.24181984482526
2283 2 -0.006024431796284183 -0.001417771170819433 0.06868259921491043 3.999508686643519 -0.01169886851978105 -0.01057368725285101 -11.23899253940761 11.23900360206574
2284 2 -0.00643738201129252 0.0009400722554298382 0.06663642401861146 3.999471712719092 -0.112801968138087 0.05332857842419107 -11.50827850685384 11.50895487924975
2285 2 -0.006402868225474745 -0.001082040722905999 0.06729287525760416 3.999483707853246 -0.07317075776905227 -0.05806029168355282 -11.25378132987605 11.2541689687835
2286 2 -0.003928369668554118 0.001414203336616103 0.08233877148249236 3.999754564866184 0.001795919715316891 -0.002822820296839843 -11.23578022801858 11.23578072614339
2287 2 -0.00392790386141311 0.0009981854553751141 0.0658110869178105 3.99945747059386 0.1055997921208792 0.3415389150823661 -10.61723033742456 10.6232471582158
2288 2 -0.006879166185290637 3.291511013530525e-05 0.08825804282549535 3.999861145452741 0.008269997455801351 -0.01603905354776904 -11.23068941726955 11.23070391521684
2289 2 -0.006162950253823546 0.001252252589849431 0.08117205491465272 3.999733563246445 0.0002572617629563863 -0.003373737000262451 -11.23671879685495 11.23671930626899
2290 2 -0.003268333200191957 0.0003990333113518883 0.09095355593662736 3.999909651474303 -0.005269449535108338 0.01159078282977312 -11.27924010546054 11.27924729181759
2291 2 -0.004296781915162433 0.001630306701451785 0.07557734428175865 3.999632825918596 0.004803715394488886 -0.004541163121266219 -11.23551187133648 11.23551381596708
2292 2 -0.006581892972506978 -0.0007476959382996145 0.09343298065247271 3.999954108014839 -0.02158855073271818 0.02634101897539298 -11.21505799302369 11.21510970528991
2293 2 -0.006305057441128217 0.001205278133454136 0.07713229346304711 3.999660824228319 0.001167667248638863 -0.002531024818856442 -11.23791562388382 11.23791596956773
2294 2 -0.003925096665095857 0.00141561036038964 0.07420874946577281 3.999608175643631 0.006486763160375425 -0.00680890493633373 -11.23989088170404 11.23989481587334
2295 2 -0.003334898258033833 0.0006997698741892702 0.09382452369760513 3.999961319121404 -0.08313168953375391 0.0303617023106767 -11.04500301611633 11.04535759207419
2296 2 -0.003932309343655717 0.00141830967052383 0.08629417312409712 3.999825757074332 0.006959895526649276 0.001378585571243914 -11.22860232822202 11.22860456984736
2297 2 -0.005012907796551992 -0.001790703978909561 0.07131578398319567 3.999556073616428 -0.003798607868877717 0.0006819214953230154 -11.23092271352312 11.23092337662261
2298 2 -0.004290978283736006 0.001611777611458883 0.07017991895055045 3.999535669814444 -0.08422599619601075 0.02832491535469042 -11.21803635016616 11.21838829212621
2299 2 -0.003542081006641292 0.0004207607475555604 0.06591634713949079 3.999459332702009 0.3059797269020152 0.07320635269401944 -10.59138314275053 10.59605490925231
2300 2 -0.004272580346375415 0.001052537010076834 0.08173891909098059 3.99974376489823 0.001838358120284621 -0.002815875239696452 -11.2356895436034 11.23569004685306
2301 2 -0.006554099426449483 0.0008647187403445448 0.0784811729319885 3.999685111408595 0.0005089594559557017 -0.003056199447302037 -11.23656441498483 11.23656484213472
2302 2 -0.00392685195742124 0.001000550826219021 0.09466517039240868 3.999976217330181 -0.001383249883263246 -0.03257068239049427 -11.13334460086911 11.1333923295837
2303 2 -0.005123041831351276 0.001725835549454199 0.07055893456714911 3.999542400827834 -0.04176793778566966 0.01397805404610947 -11.23557840291401 11.235664733101
2304 2 -0.004208523940207998 -0.00162650868556393 0.06683040788292331 3.999475374233399 0.09659509651542625 -0.0583863734135001 -11.15593234172902 11.15650330500138
2305 2 -0.004296939217663115 0.001629769118037229 0.08703247366147587 3.999839040693317 0.00501238578731772 0.002547459805231602 -11.22461132978644 11.22461273801163
2306 2 -0.004254819527208535 -0.001630532173440664 0.07127879383694416 3.99955541264737 -0.004247985355505995 0.0005801773896059668 -11.23091264110233 11.23091345946791
2307 2 -0.006291399685510726 0.00122173144385807 0.08702770819095268 3.999839045472728 -0.002663053422127362 -0.02636137331093715 -11.28167656517428 11.28170767814248
2308 2 -0.003344355048109098 0.0007076854794679248 0.06665462838949079 3.99947199676744 0.261656311201113 -0.1068980854063695 -10.9950779561096 10.99871040107804
2309 2 -0.003730177902880914 0.001285110187287479 0.0665493681678105 3.999470134659291 -0.02940638337789225 0.2452606893047236 -11.09512429072223 11.09787369578858
2310 2 -0.005158941509081102 -0.001876843045703337 0.08510126126542972 3.999804288877433 0.01193970986239424 -2.345212009031386e-05 -11.23375800964349 11.23376435467875
2311 2 -0.004225295832387966 0.001602386761770488 0.07140664085281104 3.999557700688753 0.04407263129656201 -0.01376833886023832 -11.25195758511679 11.25205232218779
2312 2 -0.003541029102649423 0.0004231261183994668 0.09458450896931325 3.99997481481963 -0.07471973929956591 0.06488381321749208 -11.12376896158827 11.12420913411165
2313 2 -0.006548761906311601 0.0008728718551739067 0.08239707568797265 3.999755617243141 0.0005421847469469182 -0.003687503489306096 -11.23663396408745 11.23663458222834
2314 2 -0.006412838887121158 -0.0001444675238566671 0.06580637293556579 3.999457297026054 -0.3697924933044268 0.2993392845213493 -10.61314213107888 10.62380046828082
2315 2 -0.00620385051879137 -0.001315351379705876 0.09386371208680944 3.999961850020705 0.001858282371612031 -0.01306896109952671 -11.18240263343755 11.18241042473709
2316 2 -0.004274055186162534 0.001054529607872061 0.07978817702733051 3.999708642690972 0.0004972735487013736 -0.002476715240159625 -11.23706581205655 11.23706609600075
2317 2 -0.004297202402565471 0.001630383202152301 0.07705489388412877 3.999659430824141 0.0004724704901044801 -0.003776587719294228 -11.23645410758656 11.23645475217793
2318 2 -0.006561715590883241 0.0008377626744601915 0.07077658774293172 3.999546319076241 0.009803713800215989 0.04788397956461146 -11.24687037285701 11.24697657915904
2319 2 -0.003720721112805651 0.001277194582008824 0.09390518512070056 3.999962721631954 -0.02411570105291568 -0.04311106635847495 -11.06112087292435 11.0612311745358
2320 2 -0.004972616057837561 -0.001801365761401179 0.09408805146903471 3.999965984856487 -0.06339863508285862 0.06133552370936608 -11.06594904704101 11.06630063504091
2321 2 -0.006735171335786737 0.0001419415768981395 0.06653782566009472 3.999469973309316 -0.0813157760350198 0.1405955852331025 -11.4909711398595 11.49211891302484
2322 2 -0.003729841856202129 -0.001336105602496386 0.06650168322240799 3.999469386511896 0.1820941137632727 0.009390094155223537 -11.23736119866493 11.23884038277061
2323 2 -0.003859811549237016 0.001389360450495399 0.07066737706038383 3.999544434137629 0.003615232568320046 0.006573189201384888 -11.13412450311198 11.13412703032983
2324 2 -0.003929948812226049 0.001416272216056188 0.07631661463604637 3.999646134143977 0.002365439458968161 -0.004172962501367168 -11.23957280199439 11.23957382556171
2325 2 -0.005338464581174787 0.001037165636108286 0.08397216427051049 3.999783978723137 0.003449275922866807 -0.005123348110028169 -11.23597481432571 11.23597651182851
2326 2 -0.003279844703808819 -0.0007618704598577482 0.08040818394670569 3.999719803798146 -3.054387488931214e-05 -0.0003653892389016844 -11.2349023777001 11.23490238368334
2327 2 -0.005233521908245688 -0.0002035374468601228 0.06506982861310487 3.999445411565427 -0.1633535085481149 -0.0741387511753709 -10.66120751374854 10.66271666013822
2328 2 -0.006554799960383219 0.0008592969158900362 0.07640007333208185 3.999647637426338 0.0007509129988524672 -0.002776750152093488 -11.23867781726114 11.23867818537435
2329 2 -0.005231505359709188 -0.0002027021651071212 0.09543273208344943 3.999989873137397 0 0 -11.14196449203 11.14196449203
2330 2 -0.005226508844991921 0.001653338897742786 0.08482587424948451 3.999799346129505 0.003304154513625129 -0.003454451880844625 -11.22747796697739 11.22747898460013
2331 2 -0.00607459132452979 -0.0009610693769044051 0.06583371392894113 3.999457880804804 -0.1375506885233968 -0.3384880832735064 -10.63160053678412 10.63787687220434
2332 2 -0.003167819685488893 -0.0004410285078114576 0.06929453665623092 3.9995196656375 0.05970837234837673 0.01657785060266705 -11.30179689154424 11.3019667709907
2333 2 -0.003344355048109807 -0.0007588202043593848 0.06665462838949117 3.999471977459697 0.2250868830958552 0.06911179769071094 -11.2212224697701 11.22369254129831
2334 2 -0.005122842312580218 0.001749391128493718 0.08728075213330125 3.999843565297494 0.08005984373836325 -0.01106393594615124 -11.22494342418043 11.22523437908134
2335 2 -0.004671795103318964 2.913741408902944e-05 0.06506982861310487 3.999445421514442 0.1490641320541936 0.05526887267064463 -10.66736021650497 10.66854482825209
2336 2 -0.006309153701551669 0.001200815363440312 0.07568273077435513 3.99963472248627 -0.0005796306376225078 -0.00382009866127264 -11.23593230011585 11.23593296446325
2337 2 -0.005058110752840605 0.001717342408603026 0.07129248659881898 3.999555632850099 -0.04279408686797053 0.01206219756809675 -11.26948302107613 11.26957072797381
2338 2 -0.005444579541947074 -0.001785859020902578 0.06689076189031919 3.999476419265756 -0.05713909014787222 -0.09959217519749475 -11.33438806877935 11.33496962372071
2339 2 -0.006361845212421917 0.001411370347638697 0.09497988659316126 3.999981702059968 -0.01672760483544634 -0.02273567571324645 -11.19381194809823 11.19384753572695
2340 2 -0.005582740319705105 0.001654468212074731 0.08678297637828605 3.999834624406848 0.01944752827969709 -0.01164696425176232 -11.28171410114455 11.28173687506034
2341 2 -0.006647576963190831 0.0007829726904117142 0.08435077519270687 3.99979079866175 0.003212170752420045 -0.006393489124665762 -11.24181524672986 11.24181752370817
2342 2 -0.003812024708760519 -0.001453865723248722 0.06860066035446262 3.999507181132831 0.05481069152006095 0.0107455489547112 -11.30357555980789 11.3037135541827
2343 2 -0.004669778554782464 2.997269584203107e-05 0.09543273208344943 3.999989873137397 0 0 -11.14196449203 11.14196449203
2344 2 -0.006072503825674199 -0.00140207967259918 0.06661923228032213 3.999471510603838 -0.03338418385150015 -0.1118546315174788 -11.33176495841761 11.33236617106704
2345 2 -0.005102292036450541 0.001170958430990433 0.08200091474548624 3.99974848447776 0.001589905505507138 -0.002786304012593375 -11.2357695759997 11.23577003396964
2346 2 -0.006355876537892263 0.001108953801714058 0.09364142636459094 3.99995777167964 -0.02783690764663457 0.0316441950893316 -11.12175350899281 11.121833363403
2347 2 -0.006854986630551293 -0.0003986362998474139 0.08508830164128003 3.999804071696558 0.003357253121948596 -0.007040437219593091 -11.23978039984597 11.2397831062555
2348 2 -0.005580581714243582 -0.001810014059584622 0.0882673039285331 3.999861255410271 -0.004875999047268401 -0.01274828706378083 -11.22442917067539 11.22443746927651
2349 2 -0.005592051795533463 0.001647187997302736 0.0773566183257349 3.999664864372001 0.0009071738887627341 -0.002709260330825186 -11.23792573050687 11.23792609369916
2350 2 -0.004286370725740559 -0.001630651903754413 0.0908277723186237 3.999907277514086 -0.0418946543900288 -0.03787941804647054 -11.17214319651558 11.17228596196084
2351 2 -0.005131394892265058 0.001744026271249575 0.07537395610942653 3.99962916751501 -0.000694685218277013 -0.003551549928275539 -11.23552528091015 11.23552586370863
2352 2 -0.003313168806582668 -0.0008417279392616237 0.06855625540623092 3.999506318315172 0.05937938731433959 0.01556260082538916 -11.30358825703813 11.30375493324375
2353 2 -0.006647475125273789 0.0007911579039514055 0.08825670321940535 3.999861167722586 -0.01382584596993399 -0.05501122048312617 -11.23056041355551 11.2307036551997
2354 2 -0.005601529609815631 0.001666713014265433 0.06736088813894506 3.999484826764994 0.008782856103061489 0.1404043362569967 -11.26970788108479 11.27058588721926
2355 2 -0.005103313154453625 0.001171903417433341 0.08004985255689923 3.99971335603408 0.001281508627265282 -0.002499490172450968 -11.23729726885805 11.23729761990845
2356 2 -0.005110037267264691 0.0019293568769961 0.06539705171374099 3.999449695196977 0.000283091821789802 1.176199218539749 -11.33681938759757 11.39767162664562
2357 2 -0.003728556959753053 -0.001335573336826171 0.09401622445329397 3.999964666266701 0.01969829401296464 0.05854774775125992 -11.14567141853694 11.14584259854521
2358 2 -0.003920142194395623 0.001385796833108139 0.06834749744717232 3.999502545938323 0.03537214155430882 -0.02672946846225476 -11.44264894124844 11.44273483244003
2359 2 -0.006282828119747234 0.001227100328441621 0.09080869771954965 3.999907128200278 0.05850739462297957 0.01832227652657252 -11.32524475518061 11.32541070274225
2360 2 -0.005129824297849046 0.001745471960748184 0.07684292327365078 3.999655615070278 -0.0003355592352559836 -0.003631044499669603 -11.23644067986055 11.23644127155521
2361 2 -0.004246041426219815 -0.001627910457307732 0.09371774215438097 3.999959391705667 0.03289293822541676 0.06902238260910293 -11.13351577917782 11.13377831824793
2362 2 -0.005193415500969195 0.001715247984569341 0.06861742627950301 3.999507430247911 0.02159848785141222 0.04105532469640418 -11.29934529092582 11.2994405188014
2363 2 -0.005614631403616879 -0.001701299595596549 0.09360502452561703 3.999957291545213 -0.121388016815335 0.07023847603098396 -11.12016230072577 11.12104662739188
2364 2 -0.004211089185788703 0.001566963995856893 0.09346081830767772 3.99995478230169 -0.087597982568479 -0.003131737023431066 -11.12789521838765 11.12824043619392
2365 2 -0.003134908920000091 -0.0003616663265299446 0.08112671010848828 3.999732738713152 9.827917881611393e-05 -0.0001667199222272659 -11.23453903776059 11.23453903942752
2366 2 -0.003279535599681445 0.0008395655929204562 0.08038659150117483 3.999719416112168 -0.0003792534186914849 -0.0005614764312238593 -11.23607922744714 11.23607924787637
2367 2 -0.005064700702068749 -0.001778965948243774 0.09082283651830513 3.999907141751754 -0.02041303324942404 -0.03386750152740649 -11.17199614445286 11.1720661272325
2368 2 -0.00510330162113259 0.001932676171988471 0.09497988659316126 3.999981777038421 -0.08517819260077676 0.01296791881650636 -11.14781195214601 11.14814490450419
2369 2 -0.004291332321084587 0.001629534380502441 0.0734704683876093 3.999594893741639 0.01200044186404677 -0.01020478459960689 -11.22858608999588 11.22859713983375
2370 2 -0.006368580858554018 0.001408051052646326 0.06533514268097766 3.999448587892174 -0.8769132389188276 0.6344059334651302 -11.28277692526539 11.33457113711446
2371 2 -0.00423985913635016 0.001577252489446526 0.06697347391027014 3.999477703855966 0.1313172085505538 0.1375200175925303 -11.25933975057784 11.26094523490113
2372 2 -0.005558112712245037 -0.001816107641094546 0.08436816933401323 3.99979108902799 0.003099088258232722 -0.000561414516720617 -11.24898406470532 11.24898450561332
2373 2 -0.006276001156855968 -0.001434075207307202 0.08826490338353699 3.999861222440466 0.007153336668243921 -0.01778683040789186 -11.22436104527484 11.22437741775662
2374 2 -0.006316941836009527 0.001184438971209073 0.07148559532809239 3.999559092947973 -0.001995594616613908 0.0384682593957574 -11.28987014205756 11.28993585517214
2375 2 -0.003342338499573153 -0.0007579849226061994 0.09384793230706312 3.999961682582325 -0.07080372365721202 -0.06658984042560456 -11.11177784896855 11.11220294716398
2376 2 -0.006547966857504156 -0.001132208389652667 0.08509194443450929 3.999804133883592 0.0002259963262043502 0.00313123559817676 -11.23983293679524 11.23983337522304
2377 2 -0.005597183684612247 0.00164508054444986 0.07590125585323625 3.999638659986528 -0.0003009109820151969 -0.003629379911212331 -11.23594502038168 11.23594561058329
2378 2 -0.005601049349826744 0.001632791116621097 0.07170080366704669 3.999562983843123 -0.02854815255034706 0.02078269542308857 -11.29035026304193 11.29040548340112
2379 2 -0.004351308928894657 0.001608213994071674 0.06884441433733894 3.99951158727848 -0.08370520029349701 0.03126280297731557 -11.2927088269877 11.2930623204927
2380 2 -0.003134186478587805 0.0004388661614704516 0.08112487275117483 3.999732706611406 9.33062538595744e-07 -0.001387651354204225 -11.23453894785033 11.23453903354932
2381 2 -0.006259560563183597 -0.001446326487289371 0.08436141988286608 3.999790971663692 0.00381518061596857 -0.0008544556835949009 -11.2489788329258 11.24897951235179
2382 2 -0.006303098158806746 0.001209891427658726 0.07921326907616261 3.999698294587606 0.0003541962315057797 -0.003266981441104009 -11.23705005757263 11.2370505380645
2383 2 -0.005129044590007598 0.001741501344578717 0.0732514687678642 3.999590948466081 -0.01949097530430707 -0.004551139125013073 -11.22861464816938 11.22863248699812
2384 2 -0.003314642620840412 0.000761101120486009 0.06855343567832677 3.999506264077855 0.03135891677500186 -0.02330812184665356 -11.44267194016226 11.44273864860952
2385 2 -0.004295737963607553 0.001629069283034638 0.08307709671646005 3.999767861263612 0.003082138670650235 -0.003674992530046488 -11.23832967945262 11.23833070296538
2386 2 -0.00631204426702807 0.001195255217943173 0.07356962877480501 3.999596662532702 -0.0001744878106028698 -0.002768161235906744 -11.24685925292279 11.24685959493661
2387 2 -0.004297098098680658 0.001630306920507447 0.07915755866692467 3.999697290588323 0.0006020600567795204 -0.002694587286346171 -11.23668444322932 11.23668478244312
2388 2 -0.005450796722814829 0.00169011425859165 0.08138806585288226 3.999737453556166 0.001408178291159857 -0.002208663521890487 -11.23673075555619 11.23673106085676
2389 2 -0.004999145398581838 0.001735506591300018 0.06674531709569143 3.999473649387855 0.04284917278862717 0.1537589845898992 -11.31092859332108 11.31205478771028
2390 2 -0.006296031721503615 0.001215993396102895 0.08312855622520993 3.999768791534706 -0.0005041623448799973 -0.005103194569551542 -11.23970608298057 11.23970725279644
2391 2 -0.00341448291621997 0.0008006891410617878 0.09021531294384878 3.999896306949948 -0.003796455541925024 0.007521745463079122 -11.2717073041005 11.27171045312299
2392 2 -0.004988590860130026 0.001786584051859066 0.08087906707712091 3.999728288470903 0.00127240755245394 -0.00230607908219753 -11.23654890898581 11.23654921766696
2393 2 -0.003169293499746751 0.0003604016890359796 0.06929171692832677 3.99951966780034 0.06855537776433651 -0.09578143175091557 -11.30179689763849 11.30241067374388
2394 2 -0.005590208527847451 0.001649691618060693 0.07943780744638489 3.999702338632595 0.001314382859618541 -0.002618926952599623 -11.23706667258108 11.23706705463722
2395 2 -0.006107376271681034 0.002040869184643696 0.09267101749175036 3.999940493999378 -0.0965331561261219 0.09223333908740342 -11.09906445712453 11.09986745247329
2396 2 -0.004914095620487366 -0.002003791708639868 0.09530813271088456 3.999987697580025 -0.06108364674945294 0.01443570303997719 -11.09517655988087 11.09535409513155
2397 2 -0.006859663409957466 -0.0003864838189660374 0.08891763459695326 3.999872999524384 0.007745800233843014 -0.01957906121556701 -11.22458866985082 11.22460841831031
2398 2 -0.004905617360916608 -0.002006758664833027 0.06519160157184854 3.999446101473572 -0.1245509357254159 -1.321975220574536 -11.48871652259698 11.56519514560805
2399 2 -0.002938893419712418 -0.0002187787109263662 0.0653465185263863 3.999448322256772 1.974057733606171 -0.1887965768593573 -11.81463902538461 11.97990999061283
2400 2 -0.005128204149895434 0.001746428794595112 0.07893003616489858 3.999693195597265 0.0009719627491897719 -0.002763512740090993 -11.23667333922037 11.23667372108224
2401 2 -0.002938893419712423 -0.0002187787109263727 0.0951534814736137 3.999984969388976 -0.01941527853982223 -0.05854463477447166 -11.05671557016121 11.05688761029734
2402 2 -0.005124727212262602 0.001746624329058784 0.08284506751365225 3.999763686728314 0.0015625841417936 -0.003393938944424185 -11.2383170607726 11.23831768188385
2403 2 -0.005597421911121492 0.001641296894263706 0.07378636167369559 3.999600571964486 -0.001718274282492682 -0.00384503010151384 -11.24685717952761 11.24685796804666
2404 2 -0.005584150558463332 0.001651884201245553 0.08336053711265996 3.999772970710158 0.002889355409865482 -0.002833940853194134 -11.23974426919979 11.23974499784604
2405 2 -0.005784420504602362 0.001797193202410512 0.09539141267006582 3.999989093838994 1.082692791713792e-15 -2.165385583427584e-15 -11.18469093390103 11.18469093390103
2406 2 -0.003791668106744982 0.001454289863661605 0.08038384477260568 3.999719368470322 0.00133209229011623 -0.00219597598439622 -11.23608450326374 11.23608479681709
2407 2 -0.005290347867432396 0.001766676564146698 0.09039055071179923 3.999899519754374 -0.01308991824011684 -0.01850362329295551 -11.26674483896537 11.26676763745429
2408 2 -0.005791156150734464 0.001793873907418141 0.06501012443542128 3.999442636132396 -0.4300855658664893 1.241718447260374 -11.5642318930417 11.63865531632741
2409 2 -0.00636874735978126 0.0007301973579313171 0.09558847392309544 3.999992608220974 -1.082693740244548e-15 0 -11.21055168527579 11.21055168527579
2410 2 -0.004972044687971674 0.001738818368825317 0.09361221624945165 3.99995737183891 -0.09363966974332 -0.00182056002679244 -11.12461799972716 11.12501224008504
2411 2 -0.005432679044860046 -0.001545103455831383 0.09563202806465373 3.999993433206772 0 0 -11.13817671565982 11.13817671565982
2412 2 -0.005626516752791522 0.00166422082561102 0.0908497119931833 3.999907826563606 0.02058882131390819 -0.006772676392586248 -11.32488933641861 11.32491007694262
2413 2 -0.006559414177465313 -0.001120062384796067 0.08892077040235671 3.999873030267932 0.00723103025106875 -0.0178729281152934 -11.22459281305702 11.22460937174605
2414 2 -0.003652905089066931 -0.000887769008044438 0.09564566897361371 3.999993688700099 0 0 -11.11693643170474 11.11693643170474
2415 2 -0.003652905089066927 -0.0008877690080444315 0.0648543310263863 3.999440604919385 1.118535684906655 -0.4791510828935485 -11.58336611430012 11.64710600864283
2416 2 -0.007059748514099951 -0.0001186653312382233 0.09519434815898856 3.999985580835532 0.02385115498441011 0.06924611080524942 -11.16752915113053 11.16776930469134
2417 2 -0.005424932437376866 -0.001548373428107513 0.06485235923893172 3.999440483895186 -0.4987496513551359 -1.233540141134204 -11.75464225644727 11.82970781852079
2418 2 -0.004548476963565209 0.001484178043230243 0.06488692727831971 3.999441085599656 0.314539714442253 1.12835282373316 -11.53693392226898 11.59624765402967
2419 2 -0.006924168330613722 0.0005622187220582969 0.09558847392309544 3.999992608220974 0 0 -11.2105516852758 11.2105516852758
2420 2 -0.004036956196156079 0.00175814114559881 0.06488692727831971 3.999439926920986 1.056631551909609 1.537593213394558 -11.94533209318103 12.09014565432314
2421 2 -0.004158610450418509 0.001668343867407916 0.08110774169023875 3.999732403391347 0.001569823007461638 -0.002294395961197386 -11.23656033841977 11.23656068232381
2422 2 -0.004548476963565209 0.001484178043230243 0.09558847392309544 3.999992683199427 0 0 -11.09683774877449 11.09683774877449
2423 2 -0.003121951681470827 -0.0006607204491679591 0.0648543310263863 3.999439410178226 1.957916973561866 -0.237453615827795 -11.86464329039719 12.02745124718444
2424 2 -0.005960920768022362 -0.00176326660747263 0.06485235923893172 3.999439352919918 -1.007575638823353 -1.514848931736683 -12.06204174088222 12.19847641768098
2425 2 -0.00636874735978126 0.0007301973579313171 0.06482501824555638 3.999439968345839 -0.965656971335502 0.5137840995084202 -11.39499585496968 11.44737515861049
2426 2 -0.003121951681470831 -0.0006607204491679655 0.09564566897361371 3.999993688700099 0 0 -11.11693643170474 11.11693643170474
2427 2 -0.002938893419711823 0.0004463281100007478 0.06534651852638593 3.999448397964672 2.060417379668741 0.07161131154562263 -11.81463924839147 11.99317091214889
2428 2 -0.002939858064256453 0.0004478581990916525 0.09515177688586382 3.999984941682233 0.02171624013155048 0.06548293111368808 -11.05671549379359 11.05693072783075
2429 2 -0.003508739180786677 0.001467224645152798 0.09523243830895928 3.999986344192783 0.01480074478266561 -0.007216959057021102 -11.1064887185639 11.10650092522985
2430 2 -0.00596866737550554 -0.0017599966351965 0.09563202806465373 3.999993433206772 0 0 -11.13817671565982 11.13817671565982
2431 2 -0.003695316817533392 -0.001578829105719097 0.06519357335930312 3.999446212548754 0.9014137749291978 -0.8306575697961713 -11.42140815455678 11.48699712826933
2432 2 -0.006546189297233357 -0.001373938950251425 0.09523790230054685 3.99998640582133 0.007414176893707457 -0.003721296709131449 -11.1328907648513 11.13289385560554
2433 2 -0.006924168330613722 0.0005622187220582969 0.06482501824555638 3.999438457523452 -2.551051594659005 0.05544491347098741 -12.34179668608244 12.60281253600313
2434 2 -0.003507774536242047 0.001465694556061893 0.06524125830470563 3.999446576018078 0.9888478722997248 1.570648469432565 -11.99244747482344 12.13521953511685
2435 2 -0.004036956196156079 0.00175814114559881 0.09558847392309544 3.999992683199427 0 0 -11.09683774877449 11.09683774877449
2436 2 -0.003696048469620975 -0.001579132121802075 0.09532177361984454 3.999987953073351 0.03152343025724809 0.05103395277156009 -11.09340405141888 11.0935662272791
2437 2 -0.006538345475841915 -0.001377443752700807 0.06526388531583627 3.999447009833357 -1.34770504491412 -1.344136274226303 -11.80069838354872 11.95322105339257
2438 2 -0.007059651300191688 -0.000118900161411475 0.06523654432246093 3.999446050306555 -2.571783822724884 -0.004732015237224617 -12.29450245002531 12.56060846123611
2439 2 -0.00312195168147023 0.0008882698482423396 0.06485433102638592 3.999439119871096 2.339182462654994 0.9122109329193676 -12.5281623643164 12.77727496794227
2440 2 -0.004224498477446833 -0.001871275695255067 0.06483924233291682 3.9994396346949 0.5058967622818509 -1.470964731539528 -11.91285324630986 12.01398107388371
2441 2 -0.00692416833061373 -0.0008000190448812496 0.06491152607690456 3.999439824895938 -2.784696092751877 -0.6228833327364993 -12.62913558898272 12.94749325931852
2442 2 -0.00312291632601486 0.0008897999373332442 0.09564396438586384 3.999993660993356 0 1.08269402438753e-15 -11.11228185573684 11.11228185573684
2443 2 -0.006924265544521994 -0.0007997842147079979 0.09560587423589312 3.999992972614558 -2.165387677188557e-15 0 -11.12844178740914 11.12844178740914
2444 2 -0.004225230129534412 -0.001871578711338038 0.09567610464623083 3.999994264373253 0 -2.165388374479202e-15 -11.0522757668464 11.0522757668464
2445 2 -0.003980146506315905 0.001422866117861554 0.09049596687961102 3.999901390302559 0.01959337838855008 -0.02021508888521913 -11.27181353828763 11.27184869452299
2446 2 -0.004466572922250657 0.001647129959010656 0.09011847390909025 3.999894595021706 0.019418390444686 -0.0201572625920638 -11.27195798807954 11.27199273749556
2447 3 -0.005231762745781208 -0.002764877161664096 0.064375 3.084836309923141 -0.2302084286996793 -3.997626627206277 -2.28132811695535 4.608521731358555
2448 3 -0.005231762745781211 0.002764877161664095 0.064125 2.145673578652749 0.2788427514780477 -3.849810321995806 -3.137007299856981 4.973892599841022
2449 3 -0.003277591031954394 0.002038014802923904 0.064125 2.410170918656199 -3.22766267182152 -3.514525963162658 -8.6176094780732 9.850527507975981
2450 3 -0.006722408968045608 -0.002038014802923901 0.06425 2.576315596496286 2.346232892272152 0.3199385787895235 -8.617611345159096 8.937023820892074
2451 3 -0.003487770024414778 0.002309365451903678 0.06425 2.830569221293104 1.121071390299276 2.470992976877584 -2.936314236425607 3.998068114597547
2452 3 -0.003112770024414777 0.002036912003901668 0.064375 3.162117526307055 1.812062234417829 3.006211005514075 -2.029917682748753 4.054804551370307
2453 3 -0.006887229975585222 -0.002036912003901669 0.064375 3.036544231511455 -2.291165799619245 -3.27203287351199 -2.53457532791955 4.73072002337768
2454 3 -0.006512229975585222 -0.002309365451903678 0.064125 2.1237434274272 2.365864421763702 3.254007620481025 -2.281328116955351 4.624968976493456
2455 3 -0.00311277002441477 -0.002036912003901662 0.064125 2.127723932135082 -2.252747315444542 3.162823992642403 -2.629400790581085 4.689570832516068
2456 3 -0.00348777002441477 -0.002309365451903674 0.06425 2.395927543713193 -1.861401208774587 2.859700595987786 -3.142742993881892 4.638915334893936
2457 3 -0.004088040156576465 -0.0007822641564568732 0.064375 3.294403527105439 2.738581087599798e-06 -1.173135655141526e-06 -8.617668576552402 8.617668576552918
2458 3 -0.005091708699744782 -0.001197997279164433 0.06425 2.589372379027936 -8.557099287802544e-08 -3.288514493931831e-06 -8.617668576552401 8.617668576553029
2459 3 -0.006887229975585224 0.002036912003901666 0.064125 2.137257724648514 2.237792098300134 -3.224135305271498 -2.628209700657764 4.723372542214326
2460 3 -0.006512229975585225 0.002309365451903678 0.06425 2.419595704010925 1.849910567716227 -2.923695451530104 -3.137007299856981 4.670222585830571
2461 3 -0.005860901681129245 0.0006589988485761569 0.06425 2.589372336670454 -1.316568221604684e-06 2.681948056190651e-06 -8.617669978370222 8.617669978370738
2462 3 -0.00485723313796093 0.001074731971283714 0.06425 2.58937225518598 -8.427507451399593e-07 3.008165569389594e-06 -8.617669978370222 8.617669978370788
2463 3 -0.003277591031954392 -0.002038014802923903 0.064375 2.8491345158914 2.329336188066674 -2.908354590466905 -8.61762742957383 9.388707899166432
2464 3 -0.003834191603142668 0.001622658176020848 0.064125 1.884347036332754 -8.554502740371111e-06 -1.207938981972203e-05 -8.6176094780732 8.617609478085912
2465 3 -0.006163685361035773 -0.001627783637894666 0.06425 2.589374799309816 4.645780831571784e-06 1.346265725874568e-05 -8.617611345159096 8.617611345170864
2466 3 -0.006722408968045603 0.002038014802923908 0.064375 2.859856531096334 -2.345216494000987 2.850401590296804 -8.617626503832266 9.374876862618152
2467 3 -0.003740145010738774 -0.0009971573358219937 0.06425 2.589374743120994 -1.524414894387831e-05 -6.35120677286893e-06 -8.617627429573833 8.617627429589657
2468 3 -0.005185755292148685 -0.00159594872028796 0.064125 1.884343412669383 3.300589929670227e-06 8.416800918221286e-06 -8.617628763720138 8.617628763724881
2469 3 -0.003900161828606221 -0.0004414408980427359 0.064125 1.884344359950586 -8.837875694359762e-06 4.020045459070071e-06 -8.617665336484922 8.617665336490392
2470 3 -0.005465557176701262 -0.001089848881699447 0.064375 3.294403655764907 -1.221120096634098e-06 -3.020153803117696e-06 -8.617664948183748 8.617664948184364
2471 3 -0.003026133341384265 -0.0003281670387039285 0.064375 3.294406370417354 4.793692381520114e-06 -5.813727571334824e-07 -8.617604615587174 8.617604615588528
2472 3 -0.006071124536514287 0.0003721200512916447 0.064375 3.29440372399431 -2.364278918100569e-06 1.257930042200513e-06 -8.617664948183748 8.617664948184164
2473 3 -0.00478765410879339 0.00153175333541069 0.064125 1.884343542597623 -2.66882227415012e-06 -8.833619324235281e-06 -8.617625666330463 8.617625666335403
2474 3 -0.004505729188419248 0.001020528034948354 0.064375 3.294403652458851 7.70107222794495e-07 2.762616672932092e-06 -8.617665336484922 8.6176653364854
2475 3 -0.006626545507346749 0.0002041414154186246 0.064375 3.294402213171923 -6.245902999916065e-06 1.357493325903574e-07 -8.61766494818375 8.617664948186013
2476 3 -0.004276133341384259 0.001805716437779257 0.06425 2.589373860354088 -2.620230323959583e-06 -8.806822368807807e-06 -8.617625666330463 8.617625666335362
2477 3 -0.003994208421010118 0.001294491137316921 0.064375 3.294402493780181 2.58701775237028e-06 3.764586559600398e-06 -8.617665336484922 8.617665336486132
2478 3 -0.00572174362279418 -0.001810841899653077 0.064125 1.88434696392653 8.724521412433505e-06 1.141547061734412e-05 -8.617628763720138 8.617628763732116
2479 3 -0.006001545507346757 -0.001304742061064564 0.064375 3.294402524789639 -2.46691141601454e-06 -3.708900828891242e-06 -8.617664948183748 8.617664948184899
2480 3 -0.006233264390203296 0.000932961950944727 0.064125 1.884343615229813 8.165403229473978e-06 -4.26637692344995e-06 -8.617626503832266 8.61762650383719
2481 3 -0.005581099796576663 0.001402899009987644 0.064375 3.294402629262205 -1.053004937982815e-06 3.0401756321384e-06 -8.617669978370223 8.617669978370824
2482 3 -0.006971743622794169 0.0003230415768301164 0.06425 2.589375261923535 1.519523388590616e-05 -8.745460358232312e-06 -8.617597288845255 8.61759728886309
2483 3 -0.003209191603142674 -0.0007701087769455214 0.06425 2.589378781174068 -4.396187056723361e-06 -3.227569925824032e-06 -8.617627429573831 8.617627429575558
2484 3 -0.003369208421010122 -0.0002143923391662634 0.064125 1.884348398003659 -1.653954519576633e-05 1.802373708025324e-06 -8.617665336484922 8.617665336500982
2485 3 -0.004369965076950611 -0.001521038855994538 0.064375 3.294402740379545 1.238619079452038e-06 -3.601456102363494e-06 -8.617668576552402 8.617668576553244
2486 3 -0.006115646222264402 -0.002222175863704545 0.064375 3.028473369302862 -0.91323037768552 -2.204730916629286 -8.617611345159098 8.941926718201366
2487 3 -0.005905467229804015 -0.002493526512684321 0.06425 2.575901200233777 -1.771842771491426 0.04908022397691936 -2.28132811695535 2.888995266954081
2488 3 -0.003884353777735602 0.002222175863704549 0.064125 2.064522182645704 -0.6187285241968751 -1.49373422153646 -8.6176094780732 8.767967839118768
2489 3 -0.002884353777735604 0.001324722415702538 0.064125 2.229999620382119 -3.213052196925423 -1.330888560107551 -8.6176094780732 9.292909226726014
2490 3 -0.002719532770195987 0.001323619616680302 0.06425 2.741719581319804 1.784426477061286 -1.124145732008314 -2.029917682748753 2.927191021707659
2491 3 -0.002701295515977197 0.0008827806774609466 0.064375 3.101098359057442 1.796928118901631 0.7443118586115135 -8.617604615587174 8.834368122166884
2492 3 -0.006788685361035759 0.0007649833150717067 0.064125 1.884348051305282 1.768605870442213e-05 -1.513947608367698e-06 -8.617626503832266 8.617626503850547
2493 3 -0.004599560923985594 -0.0001723437823422556 0.064375 3.294404319769079 3.649626275980468e-07 1.353180856107805e-07 -8.617668576552401 8.617668576552409
2494 3 -0.005161287728912316 -0.0004050186432914078 0.06425 2.589373244916096 9.783937361599962e-07 3.89409570668459e-07 -8.617668576552404 8.617668576552468
2495 3 -0.005953462505650715 0.001676862112356214 0.06425 2.589373907821565 4.203799755377014e-06 -9.650873554203146e-06 -8.617626503832268 8.617626503838698
2496 3 -0.005511520767409123 0.00185992037411462 0.064125 1.884345996991031 4.052242979296346e-06 -9.856865132885403e-06 -8.617625666330465 8.617625666337055
2497 3 -0.00226823725421879 0.000440838939219355 0.06425 2.230214705636072 -1.822981802749951 -1.014095052808675 -2.944348455137742 3.608440002904372
2498 3 -0.00241147450843758 0.0008816778784387108 0.064125 2.185835762181087 -1.822981802749951 -1.273382144713566 -2.029917682748753 3.010868734828679
2499 3 -0.002411474508437575 -0.0008816778784387048 0.06425 2.265932124142386 -2.13792946730661 0.9227856682043435 -2.629400790581084 3.512267688279139
2500 3 -0.002268237254218788 -0.0004408389392193527 0.064125 1.95922611366337 -1.822981802749951 0.9097564638552352 -2.944348455137742 3.580517742164651
2501 3 -0.005324913350483755 -9.991448541910448e-06 0.064125 1.884341772580027 1.124184571028457e-06 8.933808062258382e-07 -8.617669978370223 8.617669978370342
2502 3 -0.004763186545557032 0.0002226834124072418 0.064125 1.884341750761226 -1.32532288730427e-06 -1.212384040461851e-07 -8.617669978370223 8.617669978370326
2503 3 -0.00567370448402281 -0.002405234125462955 0.064125 2.136804813798358 0.8669540499986987 2.093002578073809 -8.617628763720136 8.910431786727813
2504 3 -0.00239323725421879 0.000440838939219355 0.064375 2.786098484613235 3.850274357699485 0.8292576154960236 -8.617604615587174 9.474987605955256
2505 3 -0.002393237254218788 -0.0004408389392193527 0.064375 2.73022724178201 3.850274357699485 -1.02289969959735 -8.617604615587174 9.49389518246246
2506 3 -0.00320919160314267 0.0009976581760208479 0.064125 1.884348421125934 -1.939087285030773e-05 -6.79549089716624e-06 -8.6176094780732 8.617609478097696
2507 3 -0.007115646222264399 -0.001324722415702531 0.064125 2.13722114015882 2.350606806283028 0.9736505422846548 -8.617611345159096 8.985353250287385
2508 3 -0.007298704484022804 -0.0008827806774609372 0.064375 3.049606903046339 -2.275579653877799 -0.9425746558547677 -8.617597288845255 8.962683346839574
2509 3 -0.007280467229804013 -0.001323619616680298 0.06425 2.59744977517399 -2.264035729183512 0.7827454257875159 -2.53457532791955 3.487494842649848
2510 3 -0.002719532770195984 -0.001323619616680298 0.064125 1.875904369181752 -2.237787108677528 0.9269167215876833 -2.629400790581084 3.574998499304666
2511 3 -0.00402206993111292 -0.001735932035359659 0.06425 2.5893739563951 -4.695859783221496e-06 1.072564325398338e-05 -8.617627429573833 8.617627429581788
2512 3 -0.004464011669354514 -0.001918990297118066 0.064125 1.884345778601119 -4.921741662292588e-06 1.035995826841424e-05 -8.617628763720136 8.617628763727769
2513 3 -0.003026133341384264 0.0005557164377792561 0.064375 3.294406004402324 5.727169289221344e-06 2.233424080299417e-06 -8.617604615587174 8.617604615589366
2514 3 -0.002701295515977196 -0.0008827806774609455 0.064375 3.045227482241248 2.316296216744927 -0.9594399032096012 -8.617604615587176 8.974901804597479
2515 3 -0.005905467229804012 0.002493526512684324 0.064125 1.965500886733207 0.9092304732814015 -2.195076613804071 -3.137007299856981 3.935209802967188
2516 3 -0.006626545507346754 -0.0006797420610645598 0.064375 3.294401879855411 -6.817947463595918e-06 -1.525044635796038e-06 -8.617664948183748 8.617664948186579
2517 3 -0.007606762745781212 0.0004408389392193609 0.064375 2.728189204730024 -3.853730714761702 1.029123946086539 -8.617597288845255 9.495963329279425
2518 3 -0.007606762745781209 -0.0004408389392193493 0.064375 2.73432392046473 -3.853730714761604 -1.007861860619296 -8.617597288845255 9.493682582891692
2519 3 -0.007588525491562423 0.0008816778784387099 0.06425 2.262236916916775 2.135656873425881 -0.9169460496884988 -2.628209700657764 3.508462137416068
2520 3 -0.007731762745781212 0.0004408389392193548 0.064125 1.958315491660522 1.835563892554129 -0.9045313750884652 -2.928302681529516 3.572454115425537
2521 3 -0.007731762745781209 -0.0004408389392193554 0.06425 2.179470110720225 1.835563892554045 0.8407020149692305 -2.928302681529516 3.556828823021209
2522 3 -0.007588525491562418 -0.0008816778784387105 0.064125 2.042595589681433 1.83556389255404 0.9523435121754379 -2.53457532791955 3.271135133517
2523 3 -0.003884353777735607 -0.00222217586370455 0.064375 3.098312617341612 0.6733943050410314 -1.625718275219999 -8.617627429573833 8.79544895473729
2524 3 -0.006971743622794175 -0.0005608418996530678 0.06425 2.589374928607024 2.175942326016983e-05 1.031208989493984e-05 -8.617597288845255 8.617597288878898
2525 3 -0.00678868536103577 -0.001002783637894662 0.064125 1.884348624838307 2.01621346622279e-05 5.674745360526831e-06 -8.617611345159096 8.617611345184551
2526 3 -0.00336920842101012 0.0006694911373169211 0.06425 2.5893760274085 -1.331702677155114e-05 1.151952320995174e-05 -8.617665336484922 8.61766533650291
2527 3 -0.005535136205868797 -0.0002968702458264226 0.064375 3.294404521653066 -3.999481635029765e-07 -1.815183384787712e-07 -8.61766494818375 8.61766494818376
2528 3 -0.004411682596015351 0.0001684794760718819 0.06425 2.589373148034097 1.960728206393513e-07 -9.59905586417489e-07 -8.617665336484921 8.617665336484976
2529 3 -0.002884353777735605 -0.001324722415702538 0.06425 2.340199892997961 2.316296260039683 -0.9594463739127445 -8.617627429573831 8.974924413254488
2530 3 -0.007298704484022801 0.0008827806774609572 0.064375 3.043472520628144 -2.332609484265873 0.9661960327146539 -8.617597288845255 8.979843250994627
2531 3 -0.005673704484022797 0.002405234125462959 0.06425 2.405761654152942 -0.6305478733989124 1.522277153800012 -8.617625666330463 8.773732984233503
2532 3 -0.006115646222264388 0.002222175863704554 0.064375 3.110789564983476 -0.6305477599113354 1.522277451698769 -8.617626503832266 8.773733850364508
2533 3 -0.007280467229804012 0.001323619616680306 0.064125 1.872492313132078 2.22237895622515 -0.9205336925432651 -2.628209700657765 3.562841104345141
2534 3 -0.007115646222264391 0.001324722415702547 0.06425 2.33844531000989 -2.33260953970799 0.9662043189257015 -8.617626503832266 8.979872193422338
2535 3 -0.004094532770195985 -0.002493526512684321 0.064125 1.940077540593945 -0.8647736508481069 2.08774675408321 -3.142742993881892 3.8708336959859
2536 3 -0.004326295515977201 -0.002405234125462957 0.06425 2.393284439547632 0.6733941242545183 -1.625718749774828 -8.617628763720134 8.795450335784208
2537 3 -0.004768237254218785 -0.002764877161664094 0.064125 2.192533024534036 0.00209132951395155 4.363220488490032 -3.142742993881892 5.37722334764254
2538 3 -0.005000000000000001 -0.00267658477444273 0.06425 2.645739923487723 1.478516539534197 0.4876840874073987 -8.617628763720136 8.757132660642021
2539 3 -0.004999999999999998 0.002676584774442731 0.06425 2.585934346072484 -1.19912838124213 0.02978404264382913 -8.617625666330465 8.700705034012714
2540 3 -0.00476823725421879 0.002764877161664096 0.064375 3.006333675852916 0.3329641178010846 4.051444069558761 -2.936314236425608 5.014678997457525
2541 3 -0.004326295515977192 0.002405234125462957 0.06425 2.769549006667038 -0.6187263305704508 -1.493739979687295 -8.617625666330463 8.767984575947596
2542 3 -0.004094532770195986 0.002493526512684323 0.064375 3.18994833644747 0.9774366816233601 2.359738412109269 -2.936314236425608 3.891746283508544
2543 4 -0.003886393277136203 0.000407151614803805 0.05974297508004143 1.179057933992958 -0.1078647441212818 0.05333253020154217 -11.23715471425016 11.23779894969636
2544 4 -0.003877147436567878 -0.0003941844167017668 0.06021944451469528 1.179087328257851 -0.1078421497797562 0.08865865388102269 -11.23710921338259 11.23797640857397
2545 4 -0.004373705724401463 -0.001005844229486422 0.06021939495175209 1.179087478896471 -0.06338144792471288 0.1426052374966301 -11.23661359687178 11.23769721015415
2546 4 -0.004407629424970488 0.001023477878225811 0.05962098458673128 1.179050057370246 -0.09204285775645502 0.03497215528860596 -11.23724898639043 11.23768035323315
2547 4 -0.003417114150376572 0.0008081662729500727 0.06036755782580153 1.179096410578581 -0.1511724454336952 -0.007455107039826545 -11.3103099482542 11.31132263762542
2548 4 -0.005899112477241756 0.0007587755273251191 0.06001334117068938 1.179073855058553 -0.03384754998538349 -0.02640897415755516 -11.23804195997267 11.23812396197259
2549 4 -0.005213182141819457 0.001147709649782088 0.06000138948695693 1.179073133123917 0.03199740681788435 0.01540865687320925 -11.23764995695813 11.23770607445624
2550 4 -0.003938350298210857 0.001424492536372079 0.06024556733249138 1.179088533955869 -0.1450822899664286 -0.01446968335130897 -11.31026549276316 11.31120523018601
2551 4 -0.005177526749522638 -0.001147829007675642 0.05995514408876453 1.179071155801798 -0.07570168122548528 0.1401547865580862 -11.23648054538587 11.23760958369575
2552 4 -0.005908596801810743 -0.0007018921072542915 0.06004377520627274 1.179076154061544 0.007153967676046677 0.08988226251752342 -11.23699208082062 11.23735382662636
2553 4 -0.006171188100514561 6.261892317383839e-05 0.05997151782502875 1.179071392489184 0.008649060465201147 0.08437127396345435 -11.2369975103626 11.23731757876463
2554 4 -0.003408952897057754 -0.0007974155552196871 0.05959918017210615 1.179049843777273 -0.08548950683116016 0.05953269896465924 -11.27367440422464 11.27415571874427
2555 4 -0.00390551118489134 -0.001409075368004343 0.05959913060916296 1.179049994415894 -0.02726450156283636 0.1251788661253028 -11.27633057593677 11.27705832029685
2556 4 -0.005874759705531829 -0.001602040320093203 0.06090055296370827 1.179128675064381 -0.00847199850523178 0.05178559764422274 -11.17511843768603 11.17524163583017
2557 4 -0.005312918664264085 -0.001763378002026489 0.06060166152416889 1.179110817333014 -0.09884569405811938 0.06213897811092544 -11.11621654707552 11.11682967600521
2558 4 -0.006215685958815331 0.001304580328891021 0.05939923981070153 1.179036027698772 -0.05413619564379107 0.1290702596758136 -11.41240521587997 11.41326345402821
2559 4 -0.006348797393277937 -0.001156134714382324 0.06071990634541663 1.179117553583546 -0.01151179616899092 0.05507600816695139 -11.17688946983247 11.17703109546442
2560 4 -0.005529755623393032 0.00169351445134799 0.05938728812696908 1.179035305764135 -0.0897737830615903 0.1087923915121293 -11.41504936982206 11.41592077898455
2561 4 -0.005193243620146567 0.00176821689866628 0.06067838537567619 1.179114663997871 -0.02210571224490736 -0.07442201155448164 -11.36171761903789 11.36198286185443
2562 4 -0.004926575765958194 -0.001393204598860698 0.06247036058878588 1.179222382843851 0.1695506748331351 0.2040085433551821 -10.68224905668877 10.68554218681609
2563 4 -0.00506149012954947 0.001319323979305726 0.0626269885871369 1.17923205638366 -0.2461584621715742 -0.343568433847129 -10.6356963693561 10.64409087326717
2564 4 -0.005421044874138204 -0.0009251269215933383 0.06296914647402299 1.179251242971262 0.1642347759217304 0.2070480855421879 -10.68069368760605 10.68396273017725
2565 4 -0.004362333455837146 0.0009990403277029024 0.05744713678377013 1.178916961488833 -0.2022328414437722 0.1977659555909651 -11.22474227653981 11.22830569008919
2566 4 -0.005880483895438638 0.000978915876106199 0.06239239657706106 1.179217656298123 0.08854828084676397 -0.202585671616336 -10.63323858257822 10.63553686968435
2567 4 -0.0058445598409568 0.0007543811813335908 0.05745245307079389 1.17891488794197 -0.1671075066043366 0.4853976135627053 -11.23258719630644 11.24431193469139
2568 4 -0.005797279563466436 -0.001641128850230932 0.06153721652347583 1.179167432987725 -0.008954360282332185 0.0615042516039479 -11.23337616686711 11.23354810644755
2569 4 -0.004092535045055776 -0.0004558437015438478 0.06298881037484344 1.179252645993423 -0.3623083743292754 0.09706077372708023 -10.64689781216869 10.65350276550713
2570 4 -0.006246113618910409 -0.001268677477384925 0.06185646227371462 1.179186648696004 -0.04397856539452615 0.09046461959958461 -11.19907781153255 11.19952953433198
2571 4 -0.003827529913196967 -0.0003916181815785913 0.05745145025707982 1.178918520058194 -0.08136530972095476 0.1593714131826273 -11.21573217950635 11.21715952830217
2572 4 -0.006606646916544728 -0.0008581929701474083 0.06134616169684577 1.179155432786742 -0.01888669147079089 0.06026572912520297 -11.16429091039665 11.16446954392313
2573 4 -0.00589284445914081 -0.0007181923932789115 0.05744085708575195 1.178915643021531 -0.3368799334011161 0.09812113230709851 -11.22978479692896 11.23526512510811
2574 4 -0.004386610514172187 0.001642718341301236 0.06079527395866295 1.179122137963745 -0.1115488074656373 -0.07342004942267034 -11.37814587973836 11.37892953228515
2575 4 -0.003840219970791344 0.0003825669989687392 0.05743751716716283 1.17891721009213 -0.08130311211187889 0.06131180519015636 -11.21227393690108 11.212736337291
2576 4 -0.004371786678529451 0.001620114225086056 0.05697454481731247 1.1788863460503 -0.2987056959926524 0.6036625380958712 -11.76083650162085 11.78010648383859
2577 4 -0.00415979274180249 -0.00115659623976036 0.06249002448960633 1.179223807684812 -0.4129845011515579 -0.001641655807555134 -10.67473602595509 10.68272194326187
2578 4 -0.005921108634763039 0.0002825910068751562 0.06280392265396562 1.179241211058928 0.1919887496860048 0.06626345814076179 -10.69388773245729 10.69581625497985
2579 4 -0.006129204180574433 2.744354703229643e-05 0.05748102296148351 1.178917339318779 -0.3267782128288123 0.06272347348762802 -11.22791683668365 11.23284624331653
2580 4 -0.004540388063947148 0.0008556739710238353 0.06303851466404146 1.179255589325664 -0.2132041988513475 -0.3613967414806962 -10.62707294071159 10.635353446048
2581 4 -0.00477867625608389 -0.001813236951242243 0.06114065706726549 1.179143500604184 -0.04499509202746355 0.04162757181525364 -11.06511791204557 11.06528769714161
2582 4 -0.006511423141764845 -0.0008870279741621481 0.05932612311801055 1.179031943443809 -0.149722378988688 0.04562421166550847 -11.4579034387072 11.45897244826945
2583 4 -0.006092516174361661 -0.0009372555079450429 0.06255762039711843 1.17922779060888 0.08095185389415385 0.2297553730573689 -10.71420279887431 10.71697169677628
2584 4 -0.005184015749693929 -0.001147581712550586 0.0574177673709589 1.178915456647884 -0.2266027667038552 0.02105263622830202 -11.22007336010805 11.22238113029388
2585 4 -0.005023172553592456 0.001305225777195944 0.05520633734369009 1.178772830750015 -1.325798237828445 1.270226270680736 -10.69442980139356 10.85090063188726
2586 4 -0.003258948698933742 -0.0003981048929784302 0.06109673377724299 1.179141537567087 -0.1741679028131858 0.04863929424477464 -11.34867636940239 11.3501169851569
2587 4 -0.006428785811142217 0.0009896378502851123 0.05674126841024615 1.17886614163097 -1.191836053055345 0.3654785927325498 -12.52258166601149 12.58447850969739
2588 4 -0.005146098357724243 -0.001768687667836881 0.059254334542022 1.179028663256414 -0.07775983018212433 0.07089505767873971 -11.34842096239927 11.34890880394306
2589 4 -0.00584244795594078 0.0009680929003388352 0.05530088897762524 1.178775170855133 -1.169804227433521 1.341855361341531 -10.70269747672337 10.84973506679048
2590 4 -0.003561581637459676 -0.0002287951426673754 0.06248881037484344 1.179224525700783 -0.315972803218171 0.1466246789642222 -10.67607227123045 10.68175344919507
2591 4 -0.00648444692114839 0.0009913383651666311 0.06082428874461356 1.179123689692746 0.08485103640514206 -0.01414454155724336 -11.37819007787239 11.37851524649102
2592 4 -0.006774014440468663 -0.0001225169437340181 0.05925386573676655 1.179027181871449 -0.1291350240988721 -0.01844225324706482 -11.45425583782251 11.45499859316643
2593 4 -0.003268198737634051 0.0004101223965083612 0.0588727107374523 1.179005105478654 -0.09145650024734776 0.04277809958373532 -11.26363832422774 11.26409084463781
2594 4 -0.003209331175562831 -0.0003955386578552547 0.05682873951962752 1.178881316891633 -0.2134018552849209 0.1091515835312369 -11.04626155918634 11.04886188048272
2595 4 -0.00524852886081837 -0.0001809408661194916 0.06337026434258913 1.17927370602661 0.1354888262572928 0.107671925016367 -10.71227660311024 10.71367446243446
2596 4 -0.004686802055891647 5.173399482966067e-05 0.06337026434258913 1.17927368420781 -0.1597303892103718 -0.01461187885723985 -10.71488992090932 10.71609039348983
2597 4 -0.003941018776717845 0.001019278329984453 0.06268311778400665 1.17923586796008 -0.09338520714402351 -0.385021920769631 -10.67485934357323 10.68220879226105
2598 4 -0.006756522544421196 0.0002951817610153503 0.06078246539895293 1.179121227123378 0.09411457936381896 0.008617537012188431 -11.37860882588073 11.37900130188954
2599 4 -0.003222021233157209 0.0003786465226920758 0.05681480642971053 1.178880006925569 -0.213403164611218 0.1092059820854943 -11.04624928499816 11.04885017200938
2600 4 -0.006428954313415058 -0.0001245647742260457 0.06239239657706106 1.179217869283431 0.1682805544576627 0.01373369375665176 -10.71413456132062 10.71546482227616
2601 4 -0.003556479361066243 0.0004423869126667511 0.06251486746255433 1.179225842549586 -0.3236482383637542 -0.05781265381649362 -10.6348308224031 10.63991151778398
2602 4 -0.00671343015075985 0.0002627002159838179 0.05676983830093578 1.17886859300778 -1.031206093651084 0.76102347099443 -12.51221372462997 12.57768003336887
2603 4 -0.004965171316343178 0.001775773068593557 0.06192669521330847 1.179191368242624 -0.1403332771462354 -0.06023161010601076 -11.26963459398241 11.27066924177156
2604 4 -0.004888456786993083 -0.001388252769628915 0.05540031341720623 1.17880010007046 -1.146734692134318 -0.4886855386387599 -8.52488836764763 8.615540359761129
2605 4 -0.003267114150376657 0.0004019643527183743 0.06111755782580153 1.179142693021738 -0.1739695529062495 0.007328890551126739 -11.34868748978327 11.35002320961232
2606 4 -0.005512274617450982 0.00170467004065608 0.05816056781402017 1.178958238536633 -0.2366133413652146 0.1060029478079795 -11.75140746716676 11.75426730841351
2607 4 -0.004340539917063038 -0.001006502919367652 0.05722900491033569 1.17890488282139 -0.1865218959506533 0.02655305663238964 -11.21762006402621 11.21920208318439
2608 4 -0.004165839763139898 -0.001596742544441933 0.06109789832906268 1.179141160203939 -0.1070066083899772 0.02216283811618317 -11.05347051504104 11.05401067633436
2609 4 -0.005149213010737677 -0.00177778455805841 0.06173958876164254 1.179179714773191 0.05276441666348494 0.04393454395040616 -11.21035458854922 11.21056485324556
2610 4 -0.00562108000435887 -0.001677157717508484 0.05873061022085201 1.178995818282203 -0.1780953098874364 0.05704304113172998 -11.46663305941177 11.46815789772448
2611 4 -0.005536184617540461 0.00172931534306383 0.06138884979208179 1.179158136142644 -0.09207790893513058 -0.05670141708439523 -11.2243094196182 11.22483030336508
2612 4 -0.005405791421789713 -0.0009290498324831491 0.05502087005903266 1.17877588410051 -3.095120202930692 0.6713220564922864 -9.157074371390866 9.689295816379341
2613 4 -0.006163414777422197 -0.001288726393168835 0.05679774054296841 1.178874019719223 -0.5135252317499029 -0.4505203903513696 -12.02318445611004 12.04257618831669
2614 4 -0.00608506330046856 0.001341556480249719 0.05607296345498453 1.178820997312931 -0.957675815328704 0.7031779466866636 -12.97744527602931 13.03171853917615
2615 4 -0.004094253485424507 -0.001152191074082717 0.05527505458694684 1.17879852511804 -0.4984109918732259 -0.2562785420075077 -8.555021015995345 8.573358547969143
2616 4 -0.004049861315294414 -0.000460313275987799 0.05489561122877325 1.178776825659189 0.6154292638879298 1.90972511558986 -9.29392090240667 9.508037070613259
2617 4 -0.003931066382111549 0.00142172983651653 0.05815586091940622 1.178960278747208 -0.2238898427487564 0.1951643171505521 -11.25767976776797 11.26159711257631
2618 4 -0.006255334736111366 -0.001241434924255102 0.05871376767933236 1.178994100209852 -0.1475838373494244 0.03713845383700715 -11.46900504047058 11.47001468491386
2619 4 -0.003408952897065748 0.0008052565077823669 0.05814624130279893 1.178960527350505 -0.08914476990554598 0.03634541891147562 -11.2513782543529 11.25179009766902
2620 4 -0.006707955202677571 -0.0002019830070993079 0.05606174873439259 1.178822875363853 -1.005146535861114 0.9041708699867133 -12.3541711446942 12.42792779159426
2621 4 -0.005510290552975448 0.001727373708681351 0.0563115561490746 1.178839128185398 -0.8418566260697838 0.766605756743168 -12.95231446597889 13.00226353335201
2622 4 -0.003746863307966494 0.00131043876486972 0.06193041126721906 1.179191824929624 0.03768350634121281 -0.1825348043787318 -11.17123016931454 11.172784903383
2623 4 -0.005883072695265182 0.0002717680311077927 0.05495280194126847 1.178760537019485 -1.027058653521698 1.742799443946035 -10.5957972815434 10.78717383799645
2624 4 -0.004249913781989504 0.001603283495196932 0.06158551477342543 1.179170858154173 -0.09740504596242569 -0.06445520274493013 -11.29487642977097 11.29548032533082
2625 4 -0.00639429955077354 -0.001007773675940752 0.05612981685215678 1.178829998372544 -0.6029715671143067 -0.3808127702330036 -12.19828024858583 12.21910938242882
2626 4 -0.004956245484751359 0.001762241514982736 0.05585645611468473 1.17881114362684 -1.441629384379892 0.6401411356500663 -12.46238592095879 12.56181271944344
2627 4 -0.005454586067975315 -0.001718115712440509 0.05677465082817535 1.178873833345576 -0.6683547650447871 -0.3601339085103077 -12.05744711584358 12.08132548503606
2628 4 -0.006751780768984169 -0.0001713875251778635 0.06148097813162608 1.179163867898934 0.05122646466303206 -0.1441677062033693 -11.19794528430739 11.19899044863134
2629 4 -0.0063909183739172 -0.0001353877499934092 0.05526110436634367 1.178776140804588 -1.730394325630866 0.3784095261588424 -9.9173884962974 10.0743264230496
2630 4 -0.00335926071726541 -0.0007377039534789138 0.06171527980949729 1.179179327215676 -0.2101648714296611 -0.05896456213589542 -11.17507593384771 11.17720753229684
2631 4 -0.003268198737626165 -0.0004022814439458138 0.0588727107374523 1.179005323028709 -0.09137399154717125 0.05579111988654763 -11.26364040253472 11.26414918993006
2632 4 -0.003701188747930092 0.001287827788818623 0.05598859240200836 1.178828869899077 -1.605176207632401 1.37852048632561 -10.65560049819255 10.86364263798519
2633 4 -0.004502070487990134 0.0008415757689140534 0.05485825030733332 1.178760713425466 -1.88881053800228 1.537437343669861 -10.48538501308019 10.76450731370024
2634 4 -0.006141457583119986 0.00134137093202115 0.06152280147728671 1.179166439902882 0.1241158713338211 0.05546574615981813 -11.27902161799655 11.27984086136624
2635 4 -0.003518907907698314 -0.0002332647171113264 0.05539561122877325 1.178800326735652 -0.1543727734183394 1.042645005716275 -9.841546824223316 9.897827208761425
2636 4 -0.006329231094178074 0.00142382839605235 0.06302213223447192 1.179257001410899 0.886511171844536 -0.6468185342066994 -11.40442940368209 11.45710636668645
2637 4 -0.004351523173163507 -0.001637770698596264 0.05904211597035569 1.179015809636249 -0.05263208153566828 0.07163970101626858 -11.35518301216398 11.35553097052295
2638 4 -0.006198060788307015 0.001313702789776866 0.05816734018903127 1.178958079871195 -0.2103772261453267 0.1214581346040239 -11.75158182170841 11.75409230727961
2639 4 -0.00607726272201317 -0.0009411784188348537 0.05532917248410786 1.178783263813279 -1.551392951533865 -0.1045766863691077 -9.933064237490326 10.05403011331825
2640 4 -0.005189514823672175 -0.001754923565834452 0.05804594630244158 1.178953983391507 -0.2554479946348169 0.06495429591819026 -11.30793540391285 11.31100684455574
2641 4 -0.003362323892314892 0.0007335473475520173 0.06176216094576673 1.179181799519131 -0.2329484951429276 0.1588442379988005 -11.07152431773785 11.0751138690126
2642 4 -0.004232822498954878 0.001579950918437186 0.05628189964367458 1.178842707855073 -0.3386915611486433 0.5810975088588718 -11.64458771751348 11.66399628769064
2643 4 -0.00509631639158995 0.001779554088294178 0.05876650284335073 1.178996854923495 -0.0760212580366406 0.1318684258239576 -11.47526207366266 11.4762715274885
2644 4 -0.003691364179665727 -0.001304193584479569 0.05606251824221045 1.178839352350994 -0.8602653096079794 0.0278695530754965 -9.974753521366139 10.01182006065379
2645 4 -0.006369855833502476 0.0007275035268213073 0.06343365831137648 1.179280556171704 0.9841153794341893 -0.5141947099042034 -11.47631149199559 11.52990046535712
2646 4 -0.004311548370514138 0.001642921988664531 0.05876033986074945 1.178996980252645 -0.1158589904895368 0.1381353771144235 -11.47516591628941 11.47658213469751
2647 4 -0.003520360362653022 0.0004301583549969889 0.05539808739369232 1.178799071595852 -0.137450612374584 -0.4112014252140935 -10.18396900544778 10.19319400319945
2648 4 -0.003769593493637979 -0.001324681792157761 0.06171649392426019 1.179178799213908 -0.1934938886372346 -0.03689160350226863 -11.17991699299982 11.18165215188324
2649 4 -0.003396262839463485 -0.0007813325132191386 0.05816017439271592 1.178962054866624 -0.06834976851507786 0.1174536832384873 -11.14922139648374 11.15004954277662
2650 4 -0.003903509668124251 0.001006468377082282 0.05521506183666174 1.178785188346296 -1.562753278343686 1.477304108704935 -10.35658104188925 10.57749479393823
2651 4 -0.006532598264871554 -0.0008898114533093948 0.05805219347571498 1.178952451692802 -0.1605393782066489 0.06639413508452666 -11.54200398346242 11.54331135452003
2652 4 -0.003303896929909778 -0.0007260904859223164 0.05618307488403688 1.178845318254498 -0.1515324029896605 1.026973016823932 -9.808116020024325 9.86289894040784
2653 4 -0.003318039442458863 0.0007115177667333294 0.05617161795903895 1.178842753148634 -0.1400079781714636 -0.4307744756292032 -10.22810107466936 10.2381258283173
2654 4 -0.005211601395041728 -0.0001944576729968646 0.05454127586436391 1.178748579087461 -2.47759341787201 2.805731529936574 -9.929777153149351 10.61183645150875
2655 4 -0.00646803289786828 0.000999652714957994 0.05878522690209428 1.178997418192694 -0.2108766988006292 0.1208252512416192 -11.75056999392007 11.75308312339572
2656 4 -0.004933381226456045 -0.002015233817156142 0.06310009624619675 1.179261478939647 0.04639951448863532 1.097440853594397 -11.35709154429314 11.41008578791314
2657 4 -0.004649874590115005 3.821718795228763e-05 0.05454127586436391 1.178751095598559 -1.639693534856407 3.1528092060628 -9.986925727863733 10.60035312015363
2658 4 -0.004932189713267574 -0.001996765181046986 0.05485903755284233 1.178762873117052 -2.024249156441178 -5.031771312626594 -12.39597411883553 13.53057580241007
2659 4 -0.006754285756248807 0.0002687120464842356 0.05868167617381993 1.17899103493474 -0.1985962873906671 0.1534126434169214 -11.75069500538505 11.75337436798925
2660 4 -0.00410980842918485 -0.001588526494201569 0.05648573753105697 1.178861713751324 -0.3863566163026715 0.3191837962874827 -10.41836239781941 10.43040865848845
2661 4 -0.006768957986305177 -0.0001441755129981871 0.05809235935144654 1.17895414799005 -0.2103001172590041 0.2228038573489709 -11.54074457183567 11.5448106511334
2662 4 -0.005449524348064205 -0.00153756224390122 0.05447959419466875 1.178738657147103 -4.570707390838605 -4.429861780564849 -13.86951794744079 15.26035941719453
2663 4 -0.005068295590047316 0.001947294761010282 0.06325672424454777 1.179271410348718 -0.1133235890893956 -1.096358937657638 -11.43977280393898 11.49274758105162
2664 4 -0.005427850334636055 -0.001547156139888782 0.06359888213143386 1.179290339067058 0.3977988795571701 1.014422889867666 -11.57955788639477 11.63071186954744
2665 4 -0.006328122620456859 0.00142652222716236 0.05475961311326133 1.178725504574376 -4.927141601840585 4.138781968892382 -15.82297577083016 17.08135834162188
2666 4 -0.007060759773912904 -0.0001215939925214849 0.06302213223447192 1.17925889547718 2.060411451701371 -0.3889374252989832 -11.96523599867401 12.14756931139168
2667 4 -0.006925276804334938 0.0005595248909482871 0.06343365831137648 1.179284992247172 2.131577260064232 -0.1824655424285304 -11.87344695111536 12.06464495087806
2668 4 -0.004870513383263053 -0.001776088948541503 0.0561778680704621 1.178839967459087 -1.59496885897445 0.01990581999202744 -10.82695319917774 10.94382188634085
2669 4 -0.002943387097957524 -0.0002258243609628192 0.06311854603225431 1.179265264459022 -1.988075394745488 0.2331670009652619 -11.84343855813289 12.01140489309225
2670 4 -0.005066905479866943 0.001946713365777873 0.05466506147932618 1.178719061163551 -1.871272653591873 8.432834666486674 -19.38500764141241 21.22246175904194
2671 4 -0.003657398767312032 -0.0008948146580808845 0.06361854603225431 1.179291924463327 -1.065173756910489 0.4845108793727634 -11.55505545881952 11.61415742019352
2672 4 -0.003724656464058746 -0.001595567196297397 0.0631197601470172 1.179263086154717 -0.829884891429447 0.8653710201790507 -11.40155238489329 11.46442204042814
2673 4 -0.006541263373101102 -0.001376226464482076 0.0631873560545293 1.179268042571193 1.195112142100468 1.303721242588609 -11.83423301191849 11.96566141468804
2674 4 -0.005963838665281549 -0.001762049319253899 0.06359888213143386 1.179293890324205 1.051513628542255 1.375837408489905 -11.93017951076694 12.05519774390838
2675 4 -0.0059855126787097 -0.001752455423266336 0.05447959419466875 1.178718227740525 -5.6225962369032 -5.011375087147647 -14.37703940561246 16.2304260812172
2676 4 -0.00636874735978126 0.0007301973579313169 0.05441152607690456 1.178710870738728 -4.706265529070495 4.438855805994039 -15.6022066133552 16.89027019625053
2677 4 -0.004249344445727081 -0.001880968135796913 0.06350121411476289 1.17928663034662 -0.5931840075231675 1.248615223044476 -11.62107567850425 11.7030041941171
2678 4 -0.003651652503327311 -0.0008857674256474625 0.05435433536440935 1.178759219459289 -2.005799799552613 3.35464025366496 -5.643499024358038 6.864832503806974
2679 4 -0.002937640833972803 -0.0002167771285293972 0.05485433536440935 1.178759323425992 6.562105325704802 1.142000203132584 -14.4270968715725 15.89045357789812
2680 4 -0.003126445359715932 -0.000667766099204412 0.06361854603225431 1.179295962516401 -1.993414529069147 0.2172295485676105 -11.82816228950282 11.99692932830279
2681 4 -0.006562937386529253 -0.001366632568494514 0.05478789661974395 1.178737520555974 -4.521626357497062 -5.56409809721523 -14.92998760340112 16.56227105169932
2682 4 -0.002938284821564091 0.0004453576943713073 0.0631446031199652 1.179266581307824 -2.076771507929158 -0.03427940831297623 -11.84345178295069 12.0242049678579
2683 4 -0.004547193524444994 0.001483644752728392 0.06366825032145233 1.179294943290722 -0.3216572424453666 -1.0646634885234 -11.5956044413653 11.64882028730906
2684 4 -0.006924168330613722 0.0005622187220582967 0.05441152607690456 1.178696363480734 -7.285840997670792 3.693027044054619 -16.81873695319896 18.69737523002519
2685 4 -0.004035672757035863 0.001757607855096959 0.06366825032145233 1.179298734281027 -1.031026544470042 -1.455861541356446 -12.05308085996158 12.1843878295044
2686 4 -0.005750697912637303 0.001812345081934175 0.06358847392309544 1.179292149638475 0.4883915378806529 -1.187986393098283 -11.77909878100721 11.84892425738243
2687 4 -0.004545803414264621 0.001483063357495983 0.05431697444296942 1.178706943839002 -0.8494067852419107 8.277177359550281 -20.18837172540079 21.8358308715567
2688 4 -0.003696044673457404 -0.00157764522374238 0.05473377872258293 1.17878091891814 -2.537992113908173 2.493184307502654 -5.239871987205517 6.333532221733671
2689 4 -0.007059651300191688 -0.0001189001614114753 0.05471982850197976 1.178728095623532 -8.012038300592815 1.585356123899965 -15.51023206577448 17.52921591241126
2690 4 -0.002939093288927511 0.0004466459435789181 0.05485681152932842 1.178758068286192 6.031814627139812 -0.4570131593855242 -14.42708151008019 15.64392308925504
2691 4 -0.0035058824989741 0.001464190849930601 0.06331285344141753 1.179276249068665 -1.087016960372421 -1.428522833392383 -12.00772492803489 12.1411589770092
2692 4 -0.005750697912637304 0.001812345081934175 0.05434808703635677 1.178685090906615 -1.778154077923911 8.418423053295999 -19.32243903195025 21.15155617850699
2693 4 -0.003120699095731212 -0.00065871886677099 0.05435433536440935 1.178743530000357 8.277792688071356 6.315716352693768 -9.142531312049703 13.85626225308183
2694 4 -0.00403428264685549 0.00175702645986455 0.05431697444296942 1.178729769076703 -18.54601936530284 -1.4817870574016 -8.185389563406739 20.32611939073464
2695 4 -0.00422647891911046 -0.001872093395675319 0.05437944335817357 1.178751499827165 -6.528469956261011 -3.96725004131366 -9.707748115959255 12.35315208127126
2696 4 -0.003121343083322498 0.000887299432612899 0.0636446031199652 1.179298382003884 -2.337073148953724 -0.8190224046296422 -12.50621142319354 12.74904046446093
2697 4 -0.00692416833061373 -0.0008000190448812496 0.06358847392309544 1.17929494170201 2.430021920659004 0.6839432357364499 -12.54643988264283 12.79788805285323
2698 4 -0.003505300856157147 0.001464897703905803 0.05467378597229783 1.178774475660935 -9.28069058276612 -6.000033103415386 -0.4211892765540047 11.05934063775089
2699 4 -0.00692416833061373 -0.0008000190448812496 0.0543083024250752 1.17869570828493 -9.596860288412541 -3.016477270511426 -18.83522287249619 21.35332487401962
2700 4 -0.003122151550685918 0.0008885876818205097 0.05435681152932842 1.178749168375097 2.318014845177581 -11.65542673243945 -4.979287472053438 12.88469902120636
2701 4 -0.005158773670100767 0.001145348432212805 0.0574456806957828 1.178915046607407 -0.5497789038846101 0.2478814856623619 -11.24855858727894 11.26471359447446
2702 4 -0.005168226892793072 0.001766422329595959 0.05697308872932513 1.178884431168875 -0.32447148963849 0.600527580906984 -11.75332748875311 11.7731313668411
2703 4 -0.004367974889195992 -0.001640995623600669 0.05831972018655475 1.178971430991217 -0.07030238473325563 0.07684091292049368 -11.27298610132295 11.27346719478165
2704 4 -0.003909272843329555 -0.001396217251008199 0.05793772904597178 1.178948417629819 -0.1701967172406569 -0.002502342204311341 -11.16096391964665 11.16226181380505
2705 5 -0.005144666132627614 9.954299123541888e-05 0.03543916603811866 1.076658542517631 0.03798602430493812 0.091241851414221 23.25185820194882 23.25206824901877
2706 5 -0.006017043582786792 -0.002014465471890338 0.04235608081283902 1.051151845050551 5.987617593116178 -4.668497932123618 -20.90592621370443 22.24194659278929
2707 5 -0.005042572119921806 -0.0005091222805139982 0.03472672443417054 1.079183708759953 0.1407710487765579 0.01709466514674447 23.38957218398449 23.39000204500999
2708 5 -0.00510731268964217 0.002898202972858011 0.04192881513575058 1.049345869479993 -8.487995574323273 -0.06774034273311554 -17.77126656486679 19.6943792220856
2709 5 -0.005375106150080237 0.002999321105613003 0.04274585085116316 1.052979149821329 3.995575991181898 -3.32267546628144 -41.28352693706261 41.60930660463728
2710 5 -0.004868674806880113 0.002355259863968665 0.04253021244389207 1.053051258318529 -25.75726100976507 9.97230403203346 -36.17161188611112 45.51119476427674
2711 5 -0.003156815045982007 -0.001500778752210432 0.03833174636700534 1.062088443087087 1.333435493358331 1.442720658740468 40.01227950716444 40.06047933404636
2712 5 -0.005510523768732835 -0.0002073299500879823 0.0362823793285442 1.073235132044543 -4.301948609359278 -1.202923263482309 25.50491690457261 25.8931375565911
2713 5 -0.0036422886629061 0.002515545199137922 0.05154831842523205 1.166909630332038 0.9409426280318275 5.329157970576332 -71.10477519998727 71.31040845448391
2714 5 -0.002327110896957646 -0.001592579163674633 0.03885141434912519 1.058672217282286 0.1632398834797491 0.9030630486012082 38.18853732993416 38.19956221645848
2715 5 -0.004221620012273244 0.002305210344849649 0.0427391256041043 1.054487592275005 17.23991786115861 5.416967254604026 -21.67849489746725 28.2226051794738
2716 5 -0.00549314923159064 -0.0004258461489096166 0.0432510450008173 1.057298474292556 -14.12192970432914 -4.061443390022643 -50.66578337257781 52.75363329422301
2717 5 -0.004480845314995083 -0.000276447419564846 0.03472672443417054 1.079181153627033 -0.0601669708512681 -0.06613618097947063 23.41024291497656 23.41041365283891
2718 5 -0.005499932554103715 -0.002268582030711632 0.04314732895361416 1.05518050648482 -8.094786727671989 -0.8275528946199578 -42.38026121015013 43.15433878766357
2719 5 -0.007308628449732641 -0.0009048552496614964 0.04710644208170998 1.106800749007691 -1.136882412292843 0.6579958861925166 -120.9225767009409 120.9297110564668
2720 5 -0.004673470865996246 5.980531075458489e-05 0.04314104216683567 1.056831901670081 4.139007723793417 8.647026570177969 -52.37697313193647 53.24706346744937
2721 5 -0.003508199327170666 0.001959345033490654 0.04781807387525727 1.118746732520284 -4.206998699072855 0.9179812329317675 -123.3656539337398 123.4407797208737
2722 5 -0.002130483478509449 0.001257835279046582 0.0485058841020049 1.129914602723061 -1.396117972563301 -1.619479689465088 -122.96632910868 122.9849175887926
2723 5 -0.0069134890288213 -0.002502998816376695 0.04234888403027121 1.051076121150456 -3.756554827824687 -5.323664720185477 -21.02135671455285 22.00796556585539
2724 5 -0.00373118348028846 0.00196560108143978 0.05235307713737017 1.171657023894248 -0.8840619102461835 -3.671501694677623 -39.16477483532259 39.3464239551282
2725 5 -0.008234658601206845 -0.0006495646301524523 0.04714406409631021 1.107307931460554 -0.2677526109455778 0.03398780689070351 -121.2964560705237 121.2967563535817
2726 5 -0.002599139710787126 -0.0008737047603252188 0.03934731184632836 1.05570296609987 -0.4655341990655501 -0.8882945288980638 34.78632208887879 34.80077576336174
2727 5 -0.005958244721422899 -0.002787042787024938 0.0416970448617916 1.049047208697558 2.840206552189243 1.485438688113677 -9.80962892868706 10.31998648612379
2728 5 -0.00458293932770089 0.0003322178521845711 0.03543916603811866 1.076655987384711 -0.03904872675872761 0.06765143013351994 23.26535341193246 23.26548454043409
2729 5 -0.006283320809339759 0.0003557962718143435 0.03602261479895227 1.074356944914874 2.609734487193474 -6.609865339052044 26.76919429922567 27.6964040504132
2730 5 -0.005634390669839461 0.002240175345876663 0.04123053522234103 1.049130567182347 7.112205583142494 4.018132978552932 6.660748145908059 10.54013409560977
2731 5 -0.005141545155032262 -0.001203564531532147 0.04372928442212339 1.060996837016086 -12.52330912825788 -12.49263804894964 -47.20654255499304 50.41187297592047
2732 5 -0.005917463173234537 0.0006626692131377447 0.03517940150852673 1.077780355387961 2.879303658342637 -1.990335518666895 23.73254693532353 23.98928112868634
2733 5 -0.004147836615513577 0.002100500945912539 0.05081210179860006 1.15978435388359 -2.544810544981968 -4.513108525033013e-05 -97.57613337049844 97.60931238488051
2734 5 -0.007079039906044683 -0.001367315275851498 0.04628357455849566 1.093417086801381 -1.571556772966394 1.491714873682978 -113.8520298191813 113.8726468380479
2735 5 -0.006173588380857157 0.002812976232744803 0.04276190750356448 1.052619609185452 -7.38360701628787 -2.823243394158282 -36.26060350411237 37.1122583833978
2736 5 -0.005721698942213972 -0.001162215486287648 0.03606711728360246 1.074229620434741 -1.942407522023954 6.429103355944912 26.22491421359939 27.07124752303973
2737 5 -0.003634084777060429 0.002729727735002842 0.04259047798073893 1.053230195068042 -7.521311065068979 -0.5325348836521093 -17.17844057258733 18.76039802471552
2738 5 -0.003423932403463381 0.002883074754822786 0.04778841612156673 1.118301189217969 -3.456532146050687 -1.258851376264116 -122.9723556776969 123.0273651761517
2739 5 -0.003901878237498497 0.002830845867757833 0.04340751369615151 1.056863475409377 3.554846718629707 0.0352269205043838 -37.07341057985934 37.2434685300887
2740 5 -0.005282097377150394 -0.002267508973245399 0.04095844562958359 1.049190025914122 -4.690684712843095 0.309477146378282 9.887224406903989 10.94785392905424
2741 5 -0.002904208945122084 0.001326069990531205 0.03985649325192538 1.0531602380148 3.614541536044066 -1.225620623930347 34.09185983776951 34.30483877862878
2742 5 -0.006518760510250181 0.002714139478915858 0.04121400450852188 1.049299572639515 -3.540616956446446 4.10728354707536 8.842369037828989 10.37271597844599
2743 5 -0.005589035948088515 -0.002420062033970288 0.04012981770870413 1.052068460769716 3.279839449565507 0.1359558046392879 30.45311181893822 30.62952579215839
2744 5 -0.007147771834633924 -0.00135419038736621 0.03951410181048326 1.054900045275996 -1.699832430409261 2.528767170982047 27.56835654525188 27.73622858830378
2745 5 -0.004321866789437867 -0.0007179130718679453 0.04361928158814178 1.060530264393611 27.2155416551456 -7.04634638134818 -40.83177973754196 49.57389374906964
2746 5 -0.002104127268109321 0.001301668800335405 0.03937564244070128 1.055593433558667 1.039829986031354 -0.3398834047184275 34.89642373250587 34.91356693961893
2747 5 -0.006790164760829809 0.003185822233029006 0.04192834107433275 1.049155334301284 8.398189099145389 1.685391136649747 -8.821770866491823 12.29608737157417
2748 5 -0.006182882933043249 0.003666709001492249 0.04310788709523906 1.054885521296975 -7.053189767690189 0.6141703229218689 -33.6458092429446 34.38262890904684
2749 5 -0.005192215684537312 -0.001250369739713745 0.03522390399317691 1.077650574194409 1.200330758569489 3.682572115552115 23.60292333095993 23.9186145310171
2750 5 -0.00782685735704081 0.001196741543730543 0.04760126063598706 1.114915156917788 -0.7319408456632657 -0.3508752509927388 -124.4073944677205 124.4100423964655
2751 5 -0.005757216778871959 0.003756829937454647 0.04059618204505319 1.05032424554226 3.870793253070809 -2.163437970696999 15.8263084270201 16.43580064031684
2752 5 -0.007902417591570106 -0.002324269096984013 0.04754092447274275 1.11389587898865 -1.683215574954187 1.439984806570429 -122.2990345688906 122.3190934703067
2753 5 -0.006186643563178371 0.002476612875482778 0.0356731572702022 1.076215860231446 3.890597750610802 -1.122474911166874 20.75334603711015 21.14469372015808
2754 5 -0.003478909028790111 0.003515088187108718 0.04223148508239942 1.051897460218473 -1.612470624857393 4.930287305270614 -24.17990599825992 24.73005557036269
2755 5 -0.003961002072117768 0.003482106532568379 0.05178986524497262 1.168388356137619 2.255072916006121 3.707583988116941 -71.5840578934576 71.71547167368652
2756 5 -0.004710233230968039 -0.002568540752543418 0.04979343719512425 1.147346700130426 6.196554115741012 2.046875929142744 -102.5128707980558 102.7203760859426
2757 5 -0.006290533062610433 0.001845546839364902 0.03517940150852673 1.07771911879404 4.159610513012397 -1.517435057053306 20.55849286145192 21.02989770556925
2758 5 -0.005246047462630226 0.003113927240278525 0.04085556915731092 1.049116912981733 3.489810447875167 -1.684457132590224 15.18565635466721 15.6722790849218
2759 5 -0.003265995501418081 0.001956251459560304 0.03943777622174054 1.05554563807177 0.2893791646141587 2.568992315371727 31.65882758483606 31.76420667770138
2760 5 -0.007722366317972913 -0.001536075125723071 0.0478232500773091 1.118509661942354 -1.28701091380313 -1.061226155453149 -124.1941495130854 124.2053516211112
2761 5 -0.004491838627741719 0.003115220676628646 0.05259462395711073 1.173092692798725 -0.0511348670911031 -5.279899885718962 -37.87713316930945 38.24339387009801
2762 5 -0.005031689087503647 -0.00309885462916939 0.04273078170979679 1.05276871970776 -8.110910938261263 -0.7378658988170409 -41.93416952869867 42.71774685531393
2763 5 -0.00483028160534734 0.0003196385605231372 0.04114456597919672 1.049859231550838 11.46569481057446 3.735316617687642 12.60565688559192 17.44469355537318
2764 5 -0.002810856362866208 -0.001092990202985326 0.0523816005865686 1.171778521389388 -4.656373791215071 1.438901458054146 -39.47616268039908 39.77586798875466
2765 5 -0.007482106927395168 0.0006505079224035213 0.04712550445505644 1.107057781087651 -0.6305809439248112 -0.5551316913339667 -121.3049906820346 121.3078998577177
2766 5 -0.002777459923514164 0.001003597295921962 0.04138175456826582 1.050191550701302 -0.901183654937862 7.199157333054036 -15.25535950777621 16.89277928576263
2767 5 -0.004182305206220857 0.00243998157111074 0.05299074250403563 1.174508594487395 -1.981362422818602 -2.650695694060393 -38.42460175557692 38.56685111320022
2768 5 -0.002931801100553183 -0.00152274703822616 0.04198506583663376 1.05094612522103 -10.86034743737532 -14.67519543479536 -19.11245308403451 26.43093585931765
2769 5 -0.001472753044263454 -0.001718320088489454 0.03770000682398142 1.065926697051777 -0.4005936295603212 1.11031622626476 39.8897195105633 39.90717980526519
2770 5 -0.006524885710344114 -0.001125993101071805 0.03576943477552149 1.075463332476203 5.033745783239395 8.864931379768322 27.69870557292067 29.5151468807734
2771 5 -0.007455667704281984 0.002724956477046022 0.04193892553474858 1.049124980529661 -6.070453914845677 -6.636279654796193 -8.589449218077668 12.43660951621712
2772 5 -0.00549711787368566 -0.003629414540464678 0.04191242233163711 1.048868627210188 9.613559556835357 -3.778548694917029 -9.720354033657646 14.18390778778275
2773 5 -0.003238199530762836 0.00259374404764626 0.0423417219781291 1.052436394737228 12.79780563435978 -3.603268680409243 -24.41151776432903 27.79729436107445
2774 5 -0.00206521098907756 -0.00157291892750202 0.04175329420767954 1.050977249978063 0.3033962394097424 -9.877877241746628 -17.84181242713387 20.39595005794367
2775 5 -0.002554087608746727 -0.00279556653998192 0.03611882792691036 1.074779711587894 1.22577765707775 -0.2774885079841094 30.3395146281979 30.36553438705284
2776 5 -0.001894044913168069 0.000554277812926766 0.04165090375704172 1.050649608574961 6.203268353791949 -1.443696732953674 -10.55597167398008 12.32855776268123
2777 5 -0.004140615557357888 -0.002427521907118681 0.03817823044014533 1.063059740880449 -2.41070902497894 -1.506608669357411 39.82909221891766 39.93041415598822
2778 5 -0.007184263453702357 0.002253273722932874 0.04122458896893771 1.049269218867892 -2.710119111649929 4.594603521812322 8.847590827638308 10.3312627773806
2779 5 -0.006854690167457407 -0.003275576131511295 0.04168984807922378 1.048971484797463 -7.665653256699705 0.7964302959808794 -9.904311301426041 12.54957861539034
2780 5 -0.002204964976987127 -0.001060524647195792 0.05160329856008732 1.167310185687217 5.423319664646173 -2.476869229436864 -66.96168084060072 67.22658684154017
2781 5 -0.00717250323661726 -0.00121158694145527 0.03859392439960348 1.059944302130905 0.00956100183598752 -0.01870910994873857 40.75050798285677 40.75051339927418
2782 5 -0.006927587854879193 0.002623383355920109 0.04382400298797946 1.060381959947679 4.209465403419283 -5.487795688287557 -60.46731927603246 60.8615823071387
2783 5 -0.005032776556146886 3.542033851154674e-05 0.04690261048897704 1.103623459372399 -1.145838110266039 0.3670745891952481 -121.7633804144205 121.7693249495777
2784 5 -0.005044000816790228 -6.380578171932317e-06 0.04804180082490456 1.121988483632554 -1.321587734049159 0.01296747227511877 -119.3575592410808 119.3648763677248
2785 5 -0.00396793763058137 -0.0007164514466128199 0.03856735577636568 1.060309530575084 -1.539703314342997 2.733761652272308 40.46988387877596 40.59132469172746
2786 5 -0.001739327262777382 0.001955848406785993 0.04901146633179215 1.137748043728286 -2.700764652095459 0.8555343967761128 -121.2759242113902 121.3090098143454
2787 5 -0.004905725729644603 -0.003224327877661312 0.04883899982733329 1.134603450444691 -2.276672104238449 -2.219816706323083 -121.691745438594 121.7332811106784
2788 5 -0.007246320591049621 -0.002219997004533867 0.03967171485604783 1.054143707733431 -1.273132880485341 -2.562891413403357 29.71953064595567 29.85698882245441
2789 5 -0.006539815226550162 0.001935448294905747 0.0432314621697554 1.055143349914971 -3.052255401601212 0.3678708139554461 -40.81047285197542 40.9261076377193
2790 5 -0.006043527768302002 -0.002956765068855929 0.04386001217802817 1.060836399516007 -0.3370507219326435 4.069863749990848 -62.09817296863323 62.23231058039654
2791 5 -0.003082330545588974 0.001460587612429 0.04997603769351099 1.150380868087618 -0.2943065979119643 -0.02776116732115503 -96.60432902985774 96.60478132248424
2792 5 -0.00444997291649284 0.003064972617124961 0.05061055671571093 1.157593524038731 0.08667324827227661 -3.073171024450767 -96.67736619451252 96.72623752997613
2793 5 -0.007876034193289813 -0.001506772695719574 0.04561606948506635 1.082849817421326 1.384044503768418 2.029695417556691 -103.0558049603121 103.0850822315933
2794 5 -0.002352069555475874 -0.001905192256151217 0.05263611444919385 1.17333364407554 -5.026897291183534 3.572295957276911 -39.61959140801857 40.09667091069812
2795 5 -0.006929703367217608 0.002932530005235038 0.03533433821622668 1.077651700414672 1.203703289388154 -0.3902888284301448 20.13085267575135 20.17058393877794
2796 5 -0.004820970529413154 -0.003109880726685138 0.0411738230994291 1.049011444426752 -2.502796931689214 -1.847643571888067 11.20228584710056 11.62621982633056
2797 5 -0.006865697955773582 -0.0003207502519418203 0.03573921512109372 1.075548682495101 12.39494956420432 -1.401448368779137 28.82283782037963 31.4062861900198
2798 5 -0.002385503428464326 -0.0001705650687467781 0.04229923503116641 1.052786587180791 7.187710129535284 5.922582999251413 -13.27217556930562 16.21390793830158
2799 5 -0.00511424818596784 -0.002500941622562382 0.04830329795740518 1.126368529826945 -3.949313844948088 -0.03586444749006124 -122.2933071022374 122.3570648884103
2800 5 -0.001746178169596793 -0.001872726700361684 0.05185781242271256 1.16886530837337 5.021824848111296 1.688206617893844 -67.97834182990087 68.18448301727204
2801 5 -0.007195465650409804 -0.002316405534946233 0.04826736565418937 1.125467665111555 0.6470023085353555 -0.7880688115730373 -121.3246177648234 121.328902328421
2802 5 -0.00174569324523967 -0.0007875379148667525 0.04176392245017981 1.051156449986117 8.198700056308997 2.43798235533036 -14.24261592576162 16.61368559311816
2803 5 -0.00703359286664967 0.002301463969117161 0.0348405824545512 1.079154958977265 1.465067008703376 -0.2654353836572446 20.5526238475124 20.60648500594469
2804 5 -0.008667180124747022 -0.001127890134675053 0.04567632876038732 1.083728459976725 -0.279868226220454 3.109885130302612 -103.4157911476123 103.4629188184554
2805 5 -0.004008009552263896 -0.003082462168452977 0.05004072228361362 1.150405083463399 -2.655356081683184 5.724389300065214 -104.7170117045412 104.9069687347235
2806 5 -0.006874964672366565 -0.003281357040885653 0.04375598915931391 1.059597944375123 -6.695747609941096 3.616450838211191 -61.84232537582352 62.30878718616224
2807 5 -0.004426680282877498 0.0005087317052328074 0.04207433444193929 1.050072236691307 -7.347181376859385 -4.280547483908815 -18.70877938194844 20.55048872676479
2808 5 -0.004443960392388637 -0.002503699598683279 0.03562828521764177 1.076476329974341 1.971866037564552 5.195297797768089 20.41964904453603 21.16226457588166
2809 5 -0.004718969482432933 0.003771954867259873 0.04155384907072047 1.049332215279379 -11.96395306237131 -5.118549945762513 -10.84916164765898 16.94225589710307
2810 5 -0.002609200455477557 -0.0008176096034989149 0.0481506549661747 1.12420136238933 1.830858839111758 2.3245281358378 -120.9744224356422 121.0106043236718
2811 5 -0.006003982185606016 -0.002419242015366091 0.0445023946528183 1.067903759877462 1.768900835815475 -2.092112124191372 -80.4265842921105 80.47323408564549
2812 5 -0.008663798325894652 0.001103591962477197 0.04784380059479233 1.118732575299274 -2.438120591636286 -0.5837108704188912 -124.4275671869766 124.4528208859453
2813 5 -0.004343067711456531 -0.002999166317035205 0.03610903945415207 1.075045510009686 0.4991346090079429 0.5546115319379045 27.92066731572993 27.9306353788262
2814 5 -0.00404773436244043 1.504299444625293e-05 0.04068399876450921 1.049892221696431 6.492904073363322 4.751546636821348 14.62466261248689 16.69178706061331
2815 5 -0.005232466723207953 -8.546838006526168e-05 0.03763792344678824 1.066315886742625 -0.4298532969867993 0.3610617467116607 43.17150927731829 43.17515897739634
2816 5 -0.005482571858290668 -0.0004111786738333753 0.04117710586927796 1.049869185030689 -6.255671182440012 -8.018893272617037 10.52051816625385 14.63275004047122
2817 5 -0.003155297038142401 0.003366936956741644 0.04844885224885375 1.128987126546453 -2.982878030670629 1.754302005430488 -124.2038506195074 124.252048858701
2818 5 -0.007850374662169873 0.001359911682109656 0.04683472311286526 1.102258415862833 -0.5974066670930204 -0.08074441079884523 -119.5464017187773 119.5479216811947
2819 5 -0.001570868251777426 0.00156955361582025 0.04011731802212169 1.051883381263174 -5.765132894473034 0.7796414786952119 26.47222022014474 27.10393037015254
2820 5 -0.005384400702266329 0.003853053874360449 0.04309183044283774 1.055245061932853 -0.4819054603662636 3.333956181259677 -33.85461242876392 34.02179124315924
2821 5 -0.005205684195423372 0.003109435880274342 0.04746683371545373 1.112977203572825 0.6950827555967384 -0.7041560331767696 -121.6525596102043 121.6565831982408
2822 5 -0.008340211471649076 0.0001501805955739688 0.04713606943877469 1.10715968949028 -0.314992339443425 0.216333251761934 -121.1935301965493 121.1941326209797
2823 5 -0.004904428375859592 0.002570516907853591 0.04794270518320767 1.120453913862916 2.689518685218041 -2.294761161730993 -122.6416145772018 122.6925632043379
2824 5 -0.003199375796039279 -0.002681588339856959 0.03814502144095428 1.063408475348096 0.05719600188005001 -0.6158244473408163 39.81222271126153 39.81702636239505
2825 5 -0.008095924186137336 -0.0008891769094358471 0.04443673547423396 1.066831758706607 -3.172298145872106 -1.777765903796607 -78.60145174449642 78.68552689966182
2826 5 -0.00701541437681261 -0.001528211563685291 0.04854969125875572 1.130081448065259 0.9088176496900775 -3.752030651046414 -123.8219261236035 123.8820934295425
2827 5 -0.002370949928790189 0.00159395480601605 0.04059816883334578 1.049450185719307 -1.983898138550769 -1.297841160937119 19.70894425681223 19.85101325427243
2828 5 -0.002482851415665912 -0.001910371251861474 0.03629812640125282 1.07407472639367 -0.1139815027929299 -1.557262773728588 28.95884911872705 29.00091380302728
2829 5 -0.008234321474836293 -0.0002089684532569377 0.05050217874714877 1.155591582959252 4.080130017299942 -1.330825379381527 -104.6211017889199 104.7090898474245
2830 5 -0.005355744302776749 0.00313303035493938 0.04824629313520208 1.125478068067135 -3.091807244935477 -0.7030624380544455 -121.5818072340735 121.6231450799355
2831 5 -0.00723360896163461 0.001419802008824427 0.04145716740769814 1.048942186488891 -7.156113531071126 -3.866485128653957 6.723846853266546 10.55318836304289
2832 5 -0.001241398092013119 -0.001150020067765246 0.04240482511410384 1.052452004291143 4.312052625545455 5.29986764542562 -17.85267595180595 19.11545012665653
2833 5 -0.006835419089670578 -0.002743833987395815 0.04439837163410405 1.066665304736578 0.8726790555491566 -2.065393077525673 -79.83623213429132 79.86771174072246
2834 5 -0.004374516647164635 0.003622919134852349 0.05135503601988289 1.16483456435461 0.4307250752291783 5.108496385034992 -73.05065291243335 73.23032261528795
2835 5 -0.001814914570349752 -0.0003722483917973265 0.04799700175108709 1.121802303481868 -2.222336653279984 -2.73117325715892 -119.6918676531915 119.7436481399754
2836 5 -0.007183572740763419 0.00133438320315237 0.04837753703639273 1.127204162673667 1.463643392228501 4.376041053889872 -120.8485140080121 120.9365756304917
2837 5 -0.001389727178243586 0.001041687599363125 0.04228507155095486 1.051736529011607 3.734973254436525 -4.471628671154726 -14.90240372491683 16.00084763268697
2838 5 -0.002713529520512245 -0.001074234175038587 0.04719838445482774 1.109002525306231 -1.807860191768515 -0.5532752849929852 -121.2838075187014 121.2985426056199
2839 5 -0.005089207209995497 -0.003247143946644662 0.05039703539960152 1.154843201314374 0.2351744717742516 -0.9776546012499717 -98.08226728231678 98.08742157275492
2840 5 -0.00307775813045702 -0.001763224688802306 0.04974327675062377 1.146802772667239 -9.384820536615814 -3.42636620650064 -104.9109952834002 105.3856336188152
2841 5 -0.003169537905168317 -0.001767709506678416 0.04106397942794406 1.049693650219511 1.62991711185374 5.026663008099614 10.04158024987897 11.34712759702957
2842 5 -0.005161531056023605 -0.003848198449858045 0.04321024019666811 1.055856018460579 -8.104046998875557 -1.021794993328268 -42.22222085821262 43.00506455021384
2843 5 -0.002654227180819264 -0.002152572637624538 0.05037728972686908 1.154723646898894 -1.861012208194585 -2.043426806684259 -100.2068545343211 100.244963241132
2844 5 -0.002445281417316396 0.00177991442279829 0.04176610829494903 1.050259764963248 -0.892864500381536 7.632315927747756 -15.06237818429941 16.90930779197814
2845 5 -0.004288539402619489 0.0002102558631430972 0.03780279354491053 1.065173376763118 0.3249394476968058 0.5952294509893449 43.10249486851205 43.10782930784271
2846 5 -0.007305451570761922 -0.001263078679816829 0.04485152704896467 1.072313632624438 -3.425245943814658 -1.629150206140515 -80.54747153945667 80.63672619575628
2847 5 -0.003889230154889097 -0.00312115847063208 0.03870300847051224 1.059632642285762 -2.298337371526545 -1.325123451220362 39.16808934634773 39.25783399371148
2848 5 -0.003644133039970588 0.0002041361391559232 0.04161376722725177 1.0501052268369 -17.26882236257331 -2.331940970164501 -14.93942314944423 22.95292004335383
2849 5 -0.005827625409804619 -0.003113500041568892 0.04829187852835574 1.126023205264421 0.6848944862931519 1.438926740434235 -121.0060036824537 121.0164968829444
2850 5 -0.008796215988976097 -0.0007331420952979333 0.04638145584841687 1.094802911809644 1.319322940437195 -0.378371688175916 -114.4366496547878 114.4448800181477
2851 5 -0.007443956052764393 0.002017525647812109 0.04264064932202974 1.051407607304813 3.455953628364407 2.799337864428228 -32.63396560607431 32.93562841573039
2852 5 -0.006079685359485227 0.002940226968459918 0.04826018152106936 1.125581077778636 -0.4015727384029114 -0.7386748817901106 -123.3666536237668 123.3695186323253
2853 5 -0.006670415392550518 0.002260119842765212 0.0445411022547134 1.06813097130976 4.805242489226361 1.717579573848752 -83.26406264147236 83.42028867449334
2854 5 -0.00237728896206413 -0.001742691727667275 0.05074928662448558 1.159157004231164 -0.8157744856817744 -0.9109316999246886 -99.68138559834637 99.68888563616123
2855 5 -0.005730498223397918 0.002238572813561639 0.03471244160394812 1.079157225793937 -0.350802563325849 0.5767507616265064 23.61249638504923 23.62214404776662
2856 5 -0.003643350900233596 -0.0004477907441507211 0.039456463548282 1.054774749520397 -3.729290709667124 0.4528502752417878 35.28693372106486 35.48634066797843
2857 5 -0.003766370039621681 -0.001018434288815635 0.04321981329611423 1.056109226080428 8.768023821697286 0.3266848041404808 -40.19758224730958 41.14402244832566
2858 5 -0.007235573874512814 -0.002318679385491553 0.04676778647705111 1.101460044902632 -1.59689908273006 1.356042336414568 -117.1649612736763 117.1836895124942
2859 5 -0.004627965308852838 0.001433915724506206 0.04264044933962174 1.053590192837284 -6.271886587130171 -19.20904468049892 -26.23484679790352 33.11481761098339
2860 5 -0.007575062088073996 0.0003746367250749597 0.0501804392152421 1.151935384816438 -0.7739225111004144 -8.742895940215941 -104.2886726777247 104.6573668422641
2861 5 -0.008880039202915781 -0.0001558342110755117 0.04998275998102929 1.149459343745702 1.503098341941028 -1.60179781218063 -105.2157007770591 105.2386276557438
2862 5 -0.003518018224268729 0.001949096175977702 0.04403121477114497 1.062861428242087 -7.441800356106868 6.136112743392729 -64.41361098407644 65.13175532831671
2863 5 -0.002407273857089481 -0.0006240760812799127 0.05301523313150704 1.174644963347173 -4.404130423256171 2.304479241149462 -39.00049174139162 39.31596807186992
2864 5 -0.008793295645282601 -0.0007437987992207019 0.04495966487698811 1.073477937301427 2.822471149461778 -3.550564644692835 -86.7341803133681 86.85269648846567
2865 5 -0.005619102953481381 -0.003836886296667822 0.04882758039828385 1.134258125882167 2.014470047044502 -0.05255211492127757 -121.4957069180989 121.5124176815843
2866 5 -0.006691817711789306 0.001904587015382134 0.03690805850186477 1.070533686984982 -3.477938224091452 -2.286714983026128 37.39198735638476 37.62294297585225
2867 5 -0.001786694062523336 -0.0003286141634422465 0.03937030801092511 1.055646409436214 0.1901055086032419 -0.1942170522811902 34.99723533382822 34.99829054938473
2868 5 -0.008648396469447119 -0.001280784506214027 0.04786087209190933 1.119016844395218 -1.043333801342865 -1.293097289077826 -124.401839655108 124.4129348403744
2869 5 -0.003709208047494267 0.002290568266494156 0.04532700426041355 1.079147753908571 1.499563539684118 -0.875049652879108 -99.66584366068524 99.68096506003896
2870 5 -0.001199042994265521 -0.0002661226698052826 0.03875447580483825 1.059368518964913 -1.593495604298649 -1.031741754109346 37.52384671405203 37.57183508304811
2871 5 -0.006029153925076275 5.163623459356501e-05 0.04644176235455731 1.095841345762379 0.4220550597580497 0.4737727810663854 -117.8229414856205 117.8246499313513
2872 5 -0.004197243492020072 -0.003735703408222498 0.04860806927586671 1.131258913178034 -4.182203408188759 -1.320608954832883 -120.4242732067381 120.5041095180166
2873 5 -0.002302947793692695 -0.001817881395954275 0.04083220779898984 1.049724774976544 3.945769760862896 4.641621729023165 7.634273269101983 9.767081428369742
2874 5 -0.008396225798083638 -0.0009889799677392488 0.05257822430193743 1.172739186574253 6.356304300728263 0.2044993386518887 -37.46214416303095 37.9981140273393
2875 5 -0.002680412300641682 -0.0007573630568144143 0.05082395506648722 1.160051802870118 -0.767304069935177 -0.3923677596777778 -99.44138540771067 99.44511973847398
2876 5 -0.003991187387986022 0.002942784327728736 0.03647548837391577 1.073178582815598 -0.401023265628249 2.038288128663597 33.20737424654256 33.2722879060783
2877 5 -0.006067170300845799 0.003684093515879565 0.0487471922679911 1.133033677765314 0.6962168487541026 4.358382038124356 -121.2868286938943 121.3671085035513
2878 5 -0.004555829912850945 -0.003293014120936142 0.03538231501998153 1.077605154790257 -0.7287696748781382 0.0896374923721439 19.8486244258563 19.8622010793809
2879 5 -0.007829446237762517 0.002708804934586214 0.043710499045577 1.059457847050949 -6.222618776907956 -5.528173473980883 -60.13903591793356 60.71231611081607
2880 5 -0.0047976140365308 0.0009543055516893996 0.04854978735127724 1.130021308472934 -2.126187164422323 -1.889214766623299 -123.5517455727107 123.5844797632633
2881 5 -0.001986757899098193 -0.0013248408076501 0.04852549128926105 1.130079068902358 1.453204537810996 3.002553596630321 -124.0068476850643 124.0517045603006
2882 5 -0.003777530092746732 -0.0005335093465749193 0.03531040413297786 1.077314625636396 -3.970588244513964 2.090193895287594 24.18914044039888 24.60180881099417
2883 5 -0.004296140067319088 -0.001405414487964764 0.04743092752414346 1.112583834868695 -0.6145278453674787 -0.4987961881045104 -122.2857542224621 122.2883155819329
2884 5 -0.004478011912970484 0.003673676716858571 0.03671823500154101 1.07172858480509 0.4806073002241979 1.591294897985721 32.33385814084094 32.37655919181978
2885 5 -0.005128358703466706 -0.003262453868414319 0.03981679763592996 1.053365021206777 3.767653169664555 -0.8148905097928146 29.92698397432326 30.17422122854598
2886 5 -0.006577584285139699 -1.33981849060799e-05 0.04732505688405254 1.110476037798877 -1.59236253586797 0.2608929689900687 -122.5466634622245 122.5572862350934
2887 5 -0.003946652188277701 -0.0006432947967754509 0.0440356002032805 1.062753566863843 5.821548347035969 -4.299987465350595 -57.35886348227562 57.81366220312791
2888 5 -0.002872366264629913 -0.002408237542964655 0.03546440020413918 1.077126916081088 -2.530750623783939 1.961252950932808 22.05956409812549 22.29070613633925
2889 5 -0.004143577001793046 0.003222393397990771 0.04790973845301833 1.120073467773323 -1.970147778753678 -2.399255025033006 -123.3793225182348 123.4183743694749
2890 5 -0.007740568365264527 -0.0001324148989380719 0.04416886880981891 1.063801302011602 -2.956020994542138 -0.5958527342506118 -78.457252982893 78.51518099210344
2891 5 -0.005626608723965856 0.002869638849679516 0.03520619736562359 1.077653967231343 -3.161356849322118 -4.207742815644965 21.81026778514304 22.43628885513413
2892 5 -0.004399646736832464 0.002519554410038948 0.03565169043519575 1.076451864480871 -4.283841639977836 -1.94420323264068 22.46209352045133 22.94944162126217
2893 5 -0.004212335704755282 -0.003062776506582307 0.04274159733874662 1.053023402737333 5.661392036984916 -3.035917459777895 -40.97322646977183 41.47376811868234
2894 5 -0.003354893437811514 0.002729883421030464 0.04464630043453006 1.069942318389493 -5.413191608751572 -2.510028392231488 -82.62101634472133 82.83619515500199
2895 5 -0.007227814904202786 -0.003081707347227712 0.04303610915233209 1.053866327443841 7.369068165585191 -1.49531537862097 -34.60572089468404 35.41320449142315
2896 5 -0.003150709345046996 0.002482065731354716 0.05029772397680046 1.154111657129773 -0.07181084756221236 -0.7258119757410412 -98.44012865131337 98.44283056022458
2897 5 -0.007225586967542853 -0.001558671210638964 0.03655529824718538 1.072334929684923 -1.178603140535372 1.762051435174512 32.29573157188028 32.36523147431554
2898 5 -0.007136580070080875 0.001661247685389543 0.04659109152372309 1.098254436621192 -0.419270380964838 0.3218586550720293 -118.186686467036 118.1878684074795
2899 5 -0.004455926361830832 -0.0008059079323828949 0.04831698138657971 1.126562676062388 -3.711323206791886 3.052026332213492 -122.3361600246096 122.4304898064395
2900 5 -0.007993487158235954 -0.0005314012442784229 0.05298260552640259 1.174288747764628 4.694929729078942 -3.399824095305459 -39.32202404599294 39.74698408827588
2901 5 -0.006286054346158951 0.002242169632909264 0.0488047904338602 1.133895712273002 -2.546170834257679 -3.280143039261265 -124.2572448613927 124.3266070671091
2902 5 -0.007534292353352124 -0.001982974158693095 0.0423429277804876 1.050978045556321 -5.811542376628764 -4.223994561885221 -21.0145718815172 22.20874571464226
2903 5 -0.004574172027676714 0.001531353231222977 0.04769298120838403 1.116477937887455 0.02317193339435339 3.354439144792682 -121.6935240254237 121.7397494191646
2904 5 -0.002701064114986092 0.002291251002921909 0.03871640461601643 1.059583042694567 -1.021085017561937 -0.8252187011014205 37.35856915018741 37.38163037465156
2905 5 -0.006023579408264269 0.0004189387954918505 0.04067213001217111 1.050776210165995 -11.82258833850547 -4.469617671506623 7.502349302952788 14.6981741115938
2906 5 -0.003611819044404898 -0.001290179518661196 0.04700079639483844 1.105596582026161 -0.04520896907401049 -0.6439683012327345 -119.483691096118 119.4854349993187
2907 5 -0.006299298986021042 0.0001647530414140721 0.04368531725654917 1.059634782329517 -12.15915613798673 -5.467917842421333 -52.32277340209184 53.99459065504673
2908 5 -0.003941038341361624 0.0005705471461940433 0.0490448697024372 1.137827618663264 -1.507052631844349 -1.952255865368501 -126.1474327270347 126.1715391608613
2909 5 -0.001688032166924716 0.001712345834831863 0.04788232909743249 1.120170473024971 1.325822342513699 -2.384037141755676 -122.772469716816 122.8027717860786
2910 5 -0.00460829030164402 -0.001400580848618903 0.03871241609589259 1.059391589270784 -2.997892267292115 1.873109208713825 40.2673974535569 40.42226111731974
2911 5 -0.00468943918204444 -0.002612428646102494 0.04746769393450043 1.113163248182846 -0.279352160129698 0.5104357912313604 -122.9603453513376 122.9617221384222
2912 5 -0.005907685574652953 0.001008787563507558 0.04383788836821764 1.061024903901312 -8.958029473978817 13.13647684703002 -47.46921054751071 50.06135501575173
2913 5 -0.001560915835851009 -0.001935401080400513 0.04239419687160356 1.05227280428309 0.4342814738391675 -9.950736646957504 -17.84073271175203 20.43275566113886
2914 5 -0.007505053821197863 -0.001029882508757583 0.04231525147026656 1.050780418339224 -10.08444989329962 5.336143948460302 -20.86176997312668 23.77780495127358
2915 5 -0.007271204770890689 -0.002077265966591695 0.03828868936539034 1.061993694986982 0.04400998444187763 0.2516677554594753 41.40439149347883 41.40517973011505
2916 5 -0.006551007518990786 0.003503367410306997 0.04383033811574231 1.060536492017473 8.338672237097899 1.129757310193539 -60.58530154995962 61.16689112712222
2917 5 -0.003657915212415054 -0.003449877143597028 0.03643321835764248 1.073332756383645 1.860696467938671 -1.180582462162215 32.66840321278483 32.74264092538741
2918 5 -0.004874755891971586 0.0009849893300279838 0.04370715706451814 1.060349857816058 4.11109086079597 11.36314362003337 -52.25898956605853 53.63789790307446
2919 5 -0.006016860880590556 -0.0001533348204690268 0.04834749021360663 1.126863111077489 4.202656769876152 0.5829354548222416 -123.2757537671402 123.3487478839022
2920 5 -0.007804296589701609 0.001947282920286457 0.04612509336777757 1.090583192530898 1.062766341395279 -0.2866790767012202 -113.1706753931449 113.1760284960115
2921 5 -0.008020513709617261 0.001241233621899024 0.04862007699519802 1.131021581055154 -0.7620240555158841 3.988814515110271 -120.5874270704259 120.6557868042906
2922 5 -0.001919243635384441 -0.0006288729633369988 0.04654473123974014 1.098489051589156 -1.638853539397644 -0.3796804676075061 -116.9743033054262 116.9863993461245
2923 5 -0.005898648901415221 -0.0007077369887879064 0.04221687716600214 1.050548762793633 7.616359515207034 6.203954579634118 -20.62485338071091 22.84474910492278
2924 5 -0.001192472013970388 -0.0008794795959485122 0.04837183807417346 1.127680009994897 -3.033140165667157 -2.029464564708268 -123.0457566656659 123.0998655527709
2925 5 -0.002801130071549098 -0.001523042254844208 0.03564369867848165 1.076421930886864 -3.456312371994144 -0.02713145204235344 22.00724191705364 22.27701793607512
2926 5 -0.005674814740545931 0.00255174959908957 0.04675017766810864 1.101108620381541 -1.21602973025528 -0.6228611242213659 -119.6160078556818 119.6238104209002
2927 5 -0.002724011148582626 0.00214717705005294 0.04705603775203835 1.106646299317496 -1.271715362278447 -0.03490841182335384 -121.7570141256047 121.7636602905094
2928 5 -0.001797852360206511 -0.0001080735751098141 0.04318340282507955 1.056077832862025 -5.208270429202969 -3.547354063624158 -38.70541159127104 39.21503140590506
2929 5 -0.006622645384383454 -0.002738513309281134 0.04014106061804272 1.052043086821847 -3.766505484955631 -0.2218799358070161 27.37434651982897 27.63314389753339
2930 5 -0.002947990393570488 -0.003375224903370359 0.03866979947132119 1.059981376753409 0.05522220974267635 -0.5874736469631003 39.23632163700968 39.24075827989565
2931 5 -0.005231757766327854 -0.001350926403881157 0.03974908236302738 1.053493519359765 4.209696823461656 3.772137090740923 29.59175331693233 30.12677264406166
2932 5 -0.008208868583124163 -0.0009015843441879582 0.04299505473663191 1.053299285750504 -0.961599964208673 -4.812967704913364 -35.46552342217176 35.8035289354041
2933 5 -0.003782796060364003 -0.002372372513598151 0.0351311056586354 1.077999550326364 -1.069922993426024 2.581637973156111 22.50435650198327 22.6772055466422
2934 5 -0.007626685205855823 0.0006691125044178418 0.05106290216813548 1.161684796476578 4.641424586215942 10.28646881618062 -81.74185598960958 82.5171817473298
2935 5 -0.005667459288699496 0.003294452890859282 0.04627523448623137 1.093444206362791 -2.02284523477593 -2.649273737872898 -113.8136039318584 113.8624037781566
2936 5 -0.005231651013012298 0.001167358233056465 0.05294566143591024 1.174299569556393 -11.02630052322492 2.079859038705409 -37.37782879109097 39.02572487456785
2937 5 -0.004924819195389733 -0.001198373343156268 0.04057771028390684 1.050615084504171 -6.409893949065425 -6.22060570595521 11.69285830888803 14.71412964530896
2938 5 -0.00777520195236531 -0.002774019515579736 0.04634253466098042 1.094506451383495 -1.538311146970858 1.370932482727065 -114.2234801114725 114.2420643451135
2939 5 -0.003653058370510978 0.0001182111633948154 0.03703092912547383 1.070220888573731 2.461320517679458 1.20174871654882 40.72189974309212 40.81391205649027
2940 5 -0.004946075103271946 -0.003859023908967274 0.04064242209900604 1.050202634148306 -4.801729059043386 3.662822816260099 16.43378580727216 17.50834626397014
2941 5 -0.005580685291014684 0.002413876895135804 0.03800041655557509 1.06401176767288 -0.6130240169024918 -0.6290993183589993 41.55276920641632 41.56205232082939
2942 5 -0.004076106818611898 0.001176800804756546 0.03929159349391801 1.056073997913295 -5.725207612757582 -2.158844957700013 31.42420908586159 32.01436443899068
2943 5 -0.001289129925431727 -0.0003426561288113445 0.0471234467465147 1.108056712004297 -0.8439908919663012 0.2885517133065778 -119.5456458377426 119.5489733183851
2944 5 -0.003909140725701287 0.0006388537452086615 0.05003204065885811 1.151152386750985 1.897054680201189 1.988971014828014 -96.90956342217635 96.94853430988175
2945 5 -0.003714320262315902 0.0005466193357274471 0.03971031052410284 1.053688597856326 -3.414108966997391 -5.059251064993584 33.12089727199287 33.67856881577772
2946 5 -0.003429967315926417 0.003540772135745399 0.03611728645915809 1.074757704632413 1.258826841105099 2.719771099579701 32.37449280131344 32.51291411104657
2947 5 -0.001834959823765614 0.002148479320329169 0.0387692894401144 1.059257595845281 0.9166568849636352 -1.743742357084863 37.29691497905971 37.34890579666092
2948 5 -0.004636329668534081 0.0009725119937078407 0.04663113759560137 1.099155419718469 -1.554745994823189 -0.7070360532827786 -119.3778103902767 119.3900278443133
2949 5 -0.002929998857251534 0.002332614674982243 0.04194266900762786 1.050501968200985 4.668738005333884 -0.2161015567778482 -20.33146006307958 20.86173728963843
2950 5 -0.006407968687863926 0.002763184580733795 0.03756649986997804 1.066748479402197 -1.360131095500543 -0.1342719599736691 40.67713724555696 40.70009189240314
2951 5 -0.004342177673275241 -0.003812120327270962 0.04322105582561794 1.056110701490151 5.970314675201323 -2.510744331527547 -42.11714547800054 42.61223342696653
2952 5 -0.00659359483439477 0.0008785649894741564 0.0450361495676927 1.074416109684218 5.241155121464199 -1.760174263685991 -83.0465999004857 83.23043719383639
2953 5 -0.004269008519670772 0.0009669408457540718 0.05230799606924478 1.171470824200948 2.836667642271691 6.500557121368391 -43.73675393536114 44.30809825532137
2954 5 -0.007744386635544208 -0.002763750428621643 0.04878853701521611 1.133396657145537 -0.3344022370965359 -3.653255243167478 -121.6654305849497 121.7207258364372
2955 5 -0.004420044058700407 0.003122529559961398 0.03751096895297828 1.067181275385179 -0.8192220093743118 0.7154702143877029 41.64894979738851 41.66314968354779
2956 5 -0.006042650046521604 0.001330473797827903 0.04466972055183546 1.069311774065236 6.023120077681984 -0.9359268640279904 -82.38838016493035 82.61355288792556
2957 5 -0.008518091181790605 0.00164594691700657 0.04636872495691974 1.094587171772538 -0.2456175231088649 -1.141374193356185 -114.8303456762617 114.8362806396422
2958 5 -0.005104689222833983 0.003164871233426535 0.03781257228695015 1.06523124246777 1.169000361245283 0.7447453672419769 40.55580255138112 40.57948161439758
2959 5 -0.001301382471210399 -0.0005916105254903791 0.05173693110502575 1.168240283165302 -1.114658045373534 -9.89801209578353 -65.41422213057562 66.16822170010829
2960 5 -0.002367999294391109 -0.001981638478241083 0.04727340064212314 1.110264064568173 -1.786306293054595 -0.2859053686899199 -121.748574880971 121.7620142638904
2961 5 -0.005332705475632043 -0.002715073131820794 0.05105733780325052 1.1616251319328 -12.10832645566189 1.994369220981595 -87.51304197089281 88.36923442661325
2962 5 -0.004386983531291353 -0.003761065362554222 0.05064432048809089 1.157901584647348 -6.163271233975301 1.843576652538613 -100.1502641417499 100.3566644266319
2963 5 -0.004072974775072845 -0.003251779733042721 0.0477716467930199 1.118120482298144 1.942381444077185 -0.3318689187171076 -125.4576072580473 125.4730815815406
2964 5 -0.007498751166091411 0.00118028372982289 0.04239641552053686 1.050371469390546 2.709674254316448 1.213368819612301 -33.43951256488108 33.57105299262673
2965 5 -0.003838426664772859 0.003117542218055611 0.03529348852043808 1.078030986297686 -1.300261919979033 -0.8147344595738437 20.33130185767138 20.38912230891552
2966 5 -0.008000425279444601 -0.001371275261543653 0.04009031383043641 1.052110266604635 -0.346981840739114 1.75766938092686 26.10238763041082 26.16380014559572
2967 5 -0.001645199740303632 0.001755513232602489 0.04228525748372493 1.051719927736077 -0.6608399130442479 7.604918924191563 -14.90697766005164 16.74782028180019
2968 5 -0.006543146525673284 0.003564257586647257 0.04060906878671387 1.050166653009453 -5.696512939962793 -0.7141880980573663 15.90733329764776 16.9116402799085
2969 5 -0.003335426873273149 -0.0005453114722699893 0.04228100666012063 1.052443853502491 -17.85015617124283 -2.096706803428058 -15.27201070002642 23.58513441935453
2970 5 -0.002613022585488965 0.002101053116987652 0.04403049134849459 1.063347328802215 1.037442817516435 4.747097145377344 -66.80270802023418 66.97919839579991
2971 5 -0.00792206983216898 0.001805316875255045 0.04086240043822202 1.049556619387197 -0.9745394205171349 -1.273663395928848 13.06888930175251 13.16692117048371
2972 5 -0.00203157274734788 -0.002537432437776309 0.04071280350750093 1.050526304812133 2.268013547812701 7.836943539871002 10.77924582654131 13.51864305650519
2973 5 -0.004780723788073923 0.00386771533978499 0.04722692503320982 1.109119869729702 0.6288602568480345 -0.7880391920245083 -119.9613790537644 119.965615638281
2974 5 -0.005580471299478531 -0.003787258386724498 0.0439259268788855 1.061795863694643 3.37455293349981 0.7552984159387331 -62.29590349537302 62.39180775953635
2975 5 -0.005119696438403872 0.003843108186119039 0.0465055668530077 1.097414382522769 0.3630898109920083 -0.7316013114414459 -115.5018907507186 115.5047784365681
2976 5 -0.001869102224416595 0.0007388802051169524 0.04642394043716401 1.09662757210988 -0.3372274935614717 0.347110935077557 -113.922398402893 113.9234263277362
2977 5 -0.00801853004296333 0.001337164447764382 0.04001240983152989 1.051844280390495 0.3445751815461406 2.821719045042963 22.87733823362213 23.05327384733988
2978 5 -0.003266288818283761 -0.002197583821863693 0.04707581258213384 1.106858121288103 -1.064471509023492 0.359589790136781 -120.0217997801627 120.0270587279391
2979 5 -0.006557855519727001 0.002603596174025805 0.03643635576050717 1.073272483746518 -1.958109740969546 0.02863551367006639 32.87152594903274 32.92980765155266
2980 5 -0.002415882601036016 2.774507779199883e-05 0.04609522493038946 1.091172864724871 -1.016822489930449 -2.044826390833439 -112.4411781615488 112.4643667536604
2981 5 -0.00188935663666182 0.002036455491485168 0.04722609502288355 1.109581793513902 -0.6755213532592227 -0.3887923132469879 -122.9259395102105 122.9284104388789
2982 5 -0.008153757375128003 -0.0008473746536821326 0.03847393860321986 1.060716302850794 -0.3015349026464805 0.2063996271968075 40.69717142981144 40.69881185601223
2983 5 -0.008088154073509369 0.001424711604716488 0.04062867466851797 1.049869138209893 -1.938307420897795 -4.361458379064776 10.01911212331719 11.09783594174212
2984 5 -0.003013389642083299 -0.002488801832664624 0.04259565232710798 1.051770900361928 -2.570837290029366 -2.122745541408628 -28.94610117008824 29.13746773407668
2985 5 -0.003973190428287475 -0.003845791445036217 0.04730023869509313 1.110426505938275 0.4487303433767055 1.367782277612815 -120.4208240771721 120.4294277106109
2986 5 -0.00671396492792564 0.0005057892888065611 0.04126348443009245 1.049054602237565 -6.493316167723611 -5.282145366994942 6.090141672999971 10.35152356560607
2987 5 -0.007777001219953307 0.0007993574108197883 0.040477675916397 1.050731568379765 -2.159494682231068 5.816145631251216 17.83533050102977 18.88359026688171
2988 5 -0.003118655737328145 0.002794339484315419 0.03756525992690492 1.066718680166379 -0.7213421800142434 -1.112366017443705 39.27991692486978 39.30228449240709
2989 5 -0.008904929971375505 -0.0007657501074309563 0.04256993919726541 1.051147261166949 5.092684064782587 -5.589035622281349 -30.39455803839611 31.32094999389786
2990 5 -0.005917243355474199 0.0006196824317496017 0.03787665751565076 1.064626287942669 -0.07300238592607146 0.01652679262274591 42.67013049351433 42.67019614223453
2991 5 -0.001787493746275441 0.0005192567369204136 0.03937391559463471 1.055587807394011 0.14955551531214 0.9669517440526687 35.40946314902865 35.4229790253432
2992 5 -0.003933219533715946 0.002391637170831564 0.03726822232535305 1.068631273395686 2.805482442064605 -1.45806223361716 41.35466509456899 41.47535415513406
2993 5 -0.002751709753650711 -0.002965768478232846 0.0373224453283222 1.068442825785157 2.325871919769462 -0.2034575453578047 37.68300517706871 37.75526392882087
2994 5 -0.004001927747158304 -0.003070354847659666 0.04117151971948515 1.049198565242097 0.8652740275489909 -2.414391888408882 12.32008261229031 12.58421324148727
2995 5 -0.001306476849891187 0.0006169728461202972 0.0430353125809866 1.055199368969264 -2.100500399368248 8.094488398099148 -38.56119485624625 39.45755432228536
2996 5 -0.005371289155320941 0.001149756029848363 0.04063959012208988 1.050766256686144 6.300013678235508 9.741956176875966 8.907770112068429 14.62683324809529
2997 5 -0.003802397372382477 -0.003654350937517013 0.049329723309602 1.141569283315854 3.559368549493579 -0.04839661958904164 -110.0687079082313 110.1262543959951
2998 5 -0.005921895753101506 -0.003644476989770016 0.0475746337232498 1.114686777346151 -2.773287239184016 -0.10988685034333 -122.1753906367348 122.2069117295321
2999 5 -0.003375014409612061 0.0008434639243705747 0.03683907229808618 1.071200762579173 2.45153563759971 1.176833953370543 40.89299865280817 40.9833173859169
3000 5 -0.003860844080985047 -0.0007846180060461819 0.05227923979580585 1.171280455927252 6.880589325200257 -2.863176633628458 -43.25011016060876 43.88749615553625
3001 5 -0.002097615926314816 0.00132627157919625 0.05036663554460784 1.154975971964494 -2.030076308555447 0.4294970032935156 -98.64262867606055 98.66445089097471
3002 5 -0.003712466132851755 -0.002239035130211967 0.04316091941168873 1.055530657410442 9.398341576884647 -1.120955060047118 -40.42710334797616 41.52030888312837
3003 5 -0.001724215595331072 -0.00018213434303832 0.05251523313150704 1.172685221757713 -3.829734945551342 3.013608009642083 -38.76426164366239 39.0693829458218
3004 5 -0.002987616510356837 0.00159666810627912 0.04635124919200304 1.095158476788072 -1.985402474216698 1.962227221494615 -113.2578307176965 113.2922255829225
3005 5 -0.001710106711308077 -5.456783352242398e-05 0.04522006125347582 1.078317623171951 -5.004774428057654 2.371143266508954 -90.4989576095866 90.66824921596205
3006 5 -0.002284815554956733 -0.0003546959619531407 0.04461815149756877 1.070140898767168 -1.815202128240892 3.224274701065099 -82.46679520155764 82.54976206464771
3007 5 -0.001827811550921864 -0.002093134698371183 0.05023262024532624 1.153145150264269 -0.09308319414761772 -1.653799683261132 -99.65365955592461 99.66742487273116
3008 5 -0.006273539287519524 0.00298603618032891 0.04929180118078195 1.141348312259679 -2.953076069811146 2.330500565128752 -116.59840954271 116.6590802254487
3009 5 -0.006095840994829383 -0.0008296312650884828 0.04592127524354626 1.087397408213726 1.157894056475335 2.642380276344296 -112.3790975472172 112.4161218762584
3010 5 -0.006079603026923548 0.001223511112790827 0.03517940150852673 1.077758008994489 2.121816818568593 3.296262545027139 22.21066047385509 22.55395513124423
3011 5 -0.007264910081854447 0.002327697735600617 0.04833546000838159 1.126408520915695 -1.674112445712888 -2.781972998543912 -121.0402163581576 121.0837561453853
3012 5 -0.00650463220742604 0.003140901821832509 0.05261230895747317 1.173087445990652 0.9062862315705055 -5.627937282034839 -35.92522762805915 36.37467543376734
3013 5 -0.004695103025245715 0.001067207261806299 0.05055360938278618 1.15691731153242 -1.34717116815511 2.840217531962082 -95.36622889179853 95.41802407736225
3014 5 -0.00530624431475525 0.001326266712592113 0.03823055940112724 1.062330720001062 -0.4781670863778022 -1.322846272936886 41.48465593352081 41.50849604535102
3015 5 -0.004403752547318712 -0.003006345419211639 0.03756205782692103 1.066887726269356 -0.6533789676963282 -0.6188671083160594 42.32741753409298 42.33698354487038
3016 5 -0.003018624430858883 0.001902939504383614 0.03774954537673275 1.065435718925808 -0.7838327476613409 -0.9715867227041393 39.00848064655612 39.02845035213139
3017 5 -0.002152961998436031 0.001485946547711348 0.04652130646284824 1.098093970984478 -0.810952496893364 1.254443899108347 -114.395367580547 114.4051196290476
3018 5 -0.001289109223061231 0.0005072312041137211 0.04712516367691365 1.108021733528847 -0.7827468298488207 0.812762124901001 -119.5311137489509 119.5364397534742
3019 5 -0.001371644527343563 0.000930187890054812 0.04787876377714681 1.120076811914515 -1.017821442974058 1.881292445774867 -122.7137970738766 122.7324374973661
3020 5 -0.003668401308961988 -0.003166451409914498 0.04754196182291012 1.114356187841235 -3.006787993446368 -1.119107244295511 -122.0849122112366 122.1270607387532
3021 5 -0.004811252814971008 0.003892070084944584 0.039598394409215 1.054750119794641 -3.38210531293676 -0.3350893275818095 29.08919602564202 29.28706620034656
3022 5 -0.008857359521932789 0.0003126683494335554 0.0478427665084985 1.118694124269065 -1.338429423442425 1.242754066880545 -124.40513180306 124.4185382084559
3023 5 -0.007855545465296267 -0.0001411318044085689 0.04320145180349035 1.054905659129451 -0.03935192252558535 -1.127322911302725 -33.09856550173041 33.11778138391056
3024 5 -0.002610257082476786 0.002858250197890429 0.04261105709967508 1.052877851335358 4.227204514688456 -1.872077207782263 -24.37085329926014 24.80549176321565
3025 5 -0.001814095838928296 0.0004756773342695308 0.04850231878171922 1.129820941612604 -2.116402861474969 -0.7950651326735633 -122.483851764958 122.5047151452443
3026 5 -0.008271546858942786 -6.615347497471467e-05 0.03800093983815753 1.063796350791953 -0.3324926811543827 0.4159363428515386 41.14826698607204 41.1517123626878
3027 5 -0.002569089817765873 0.002809480147179462 0.05164806150023334 1.167700993862418 -5.960398111361878 6.110629003359126 -70.68733748720622 71.20088351623743
3028 5 -0.005356281318652989 -0.0009943845571863069 0.03807862555091487 1.063359647941472 -0.3640322835642749 0.6398277021619143 42.52298221635093 42.52935357566616
3029 5 -0.005546802248280296 -0.001234467869096278 0.05056962436424407 1.15701742027989 -2.636457554949483 -2.35491946590816 -95.53730339652647 95.60268246450991
3030 5 -0.007630445135556933 0.0004709323172160493 0.03793324042949944 1.064249015612027 -0.3870968074519873 0.3212306612902826 41.23169795406268 41.23476626890407
3031 5 -0.00284840774611762 0.003141220363148923 0.04898409223233154 1.137266110853993 0.4281818726101713 0.2873278217770139 -121.1092027803133 121.1103005325156
3032 5 -0.004912413799984735 -0.001756469578302257 0.03522390399317691 1.077635416057334 4.613857771861611 -1.214461600151295 22.34242610376858 22.84615076374069
3033 5 -0.005941737157690701 -0.003302274648380772 0.05072651566624318 1.157990893061445 -0.8943465583119565 5.962713686552154 -87.15541594754048 87.36372438983445
3034 5 -0.006587237632476785 -0.002841634096989198 0.04827847590213449 1.125704636441501 -1.646713577929926 2.006155564787234 -121.1448267240186 121.1726263136619
3035 5 -0.007300915323766238 0.003059513303778065 0.03609753670653165 1.074708323929743 -2.776102905404252 0.267293354686947 32.25688221135807 32.37722414099581
3036 5 -0.00851175418873629 -0.001401217669634617 0.03792916837570647 1.064253611109261 -0.5244235617196989 -0.3844041291155903 40.44096752820734 40.44619439729884
3037 5 -0.006507729137219208 -0.002102876873187786 0.03751893522247082 1.066699037901153 2.081910823419626 -1.64917192732172 37.82695738392906 37.92008472627828
3038 5 -0.002998587499222379 -0.003158681160503962 0.03660689184390336 1.072416410277991 -0.04356626954041459 -1.942180605592307 32.01934473879793 32.07822315881238
3039 5 -0.003865082889930742 -0.0009852754245594905 0.04983032454676957 1.14809692330284 1.31778574141058 -11.11263906012982 -103.9334241796506 104.5341282445507
3040 5 -0.007091272944903947 0.0002659499613404791 0.04051771870849535 1.050531465305743 8.379933797737891 -0.8449330269037473 19.95590914025176 21.6604596416698
3041 5 -0.0066228922766494 -0.002841792771654896 0.04677698285339178 1.101695403107268 0.1891339526298966 -0.7917114646046133 -117.2034524348144 117.2062790183829
3042 5 -0.008125490484863329 0.001251943924360572 0.0390268449091265 1.057178131980973 -0.4327615098951421 -1.154032786567331 38.52080830834774 38.54052084398175
3043 5 -0.001886469851246551 0.0008486218471235284 0.04383408934123698 1.061976915556626 1.710027408470824 -6.265228964680347 -65.76804464447156 66.08791859390637
3044 5 -0.008126824595267155 0.002411280769788481 0.04299863248548959 1.053776522558829 6.016571005784872 2.12881096169953 -35.24983447816933 35.82292273833389
3045 5 -0.001213447043286157 -0.0007111351273253238 0.04517128449322545 1.077807360839011 -1.48304377199223 -5.364935842848791 -90.31997585654716 90.49132551882964
3046 5 -0.006400887425242576 0.0001790994680257685 0.03992636429057403 1.052253073234174 1.416278610376378 1.517201030902094 25.09699747742189 25.18267313952394
3047 5 -0.003617513274879284 -0.001089225784354177 0.03531040413297786 1.077302061055126 -1.557177526692073 -2.749258474539054 23.10050242438574 23.3155835498173
3048 5 -0.004762979148175701 0.0008823716789824735 0.05355053770740975 1.176994061928062 -0.04213935594414565 0.4106335492335115 -34.62015241866398 34.62261326255719
3049 5 -0.006681507975773673 -0.003372611045190321 0.04756123109702855 1.114368208523231 0.400018721843508 -1.020215647661892 -121.9918935194112 121.99681528383
3050 5 -0.003103661036968152 -0.003215322046686333 0.04193153816699188 1.049757916928229 3.352069957774619 7.293780565082069 -10.34848149613406 13.09681935468353
3051 5 -0.004745750808532557 -0.001485110521781771 0.04984306857471368 1.148187110444229 7.368027834772303 -6.669788378538182 -102.8873325611937 103.3662281054414
3052 5 -0.004903624372198498 0.003295695441129458 0.04519038047560412 1.077127856611359 -1.837396028600464 0.5869314569981881 -97.39001282846874 97.40911205544602
3053 5 -0.008703466207629351 -0.001248505015602078 0.03981650488000571 1.053134742060287 -1.937926560532844 2.808059020303849 26.20412520803116 26.42530856458827
3054 5 -0.007166725589518913 0.002399404561516339 0.05070794402736135 1.158553374987009 -1.375993655131792 -3.208147682081885 -93.90410196351024 93.9689626188474
3055 5 -0.005088905046360189 -0.002555634592649817 0.03723787892343061 1.068600479895397 -5.325993158763566 -0.2722198407437245 39.01020860582791 39.37304512276261
3056 5 -0.008100985931757494 -0.00223376159077534 0.04167696809354729 1.048938867166372 4.774318169847935 -5.089100678055593 -7.818096714215555 10.47929844651607
3057 5 -0.008201097274010288 -0.000894797693280659 0.04092922671637323 1.048930410031405 2.375250794418382 -2.750714531701762 14.56584809316969 15.01240078883439
3058 5 -0.001254234729943545 0.0007871415524052584 0.04011559117605512 1.051877755098518 -0.9575636357964761 -4.196693934845684 26.46875186284862 26.81648734037369
3059 5 -0.002377845361561875 0.0001235754258934173 0.04398217958532992 1.062855379449387 1.306395801431917 -7.591145047624719 -65.79236397439347 66.24173390290402
3060 5 -0.003246867075444011 -0.002731866355493877 0.04118212330583404 1.049646051115221 -4.601048300066164 -4.51146987702165 11.56101785630906 13.23556344795009
3061 5 -0.003744675278870539 -0.0003892947025288612 0.05053900596501651 1.156912596173449 2.134796947671511 -1.453858290954642 -97.25268767998027 97.2869792054299
3062 5 -0.006491075891356976 9.932824473693204e-05 0.04992595053622175 1.149138362387637 -9.480036671867751 -7.415146641146535 -102.1380834580627 102.8447547884472
3063 5 -0.008438518638322092 0.001874499340500365 0.03870140242569602 1.059300975218978 -0.7679018928792528 -0.7004063671093953 38.34180382683792 38.35588824537763
3064 5 -0.007356370263223582 -0.002127155679918332 0.03715165498605995 1.069059702367436 0.6831171567881239 -1.409069089651983 36.9816687944892 37.0148071935355
3065 5 -0.001788155886934813 -0.001011263255756041 0.04456937473731839 1.069630636434228 1.032934210819057 -2.381880993278692 -81.84825555708433 81.8894208545146
3066 5 -0.00244989779903175 0.002881840362040414 0.0446455770118797 1.070428218949621 1.129444544253063 -2.684864374799524 -82.8303398976298 82.88153804826798
3067 5 -0.008098974035860297 -0.002237081878711309 0.04024792687600098 1.051353929062069 1.594689244343938 -2.488610300414688 26.05486325567814 26.22197769592224
3068 5 -0.0059385688654952 0.002487631248064874 0.03876477072347435 1.05908411915144 0.1924120258479166 -0.274479228441216 38.20981839081792 38.21128868140701
3069 5 -0.005228505137935321 0.003198461619521724 0.03561057859008834 1.076521188437009 -0.3832317716336203 -2.698942977747244 22.25459214569108 22.42092842321602
3070 5 -0.003046731416819726 -0.001911215610017249 0.04433107149268103 1.06632456639184 -3.264937934449788 -2.372212560656283 -81.21601095650885 81.31622007838602
3071 5 -0.001199842678017626 0.0005817482305573778 0.03875808338854785 1.059309916922711 -0.9021972649196059 1.684517218283853 37.51464814185855 37.5632850449874
3072 5 -0.007394110935496382 0.00145925336536219 0.03925452042535597 1.055852648427537 -0.7761971494023456 -1.25808240159631 38.05022545601798 38.07893000857226
3073 5 -0.002066595783823372 -0.002374682007518144 0.05149258011587296 1.16629568202743 4.925435734635375 0.2739933311221272 -68.39223729226099 68.56991403933986
3074 5 -0.005754782936352325 -0.001785827285034056 0.05118029538830363 1.162958940584512 -7.974450537967497 -16.11315450847036 -89.9513599046977 91.73043528895296
3075 5 -0.005664127889235765 0.001400021065521183 0.03899491356902651 1.057403071479621 0.7399363529494293 -2.370804998114732 38.16084362555694 38.24157695963532
3076 5 -0.003858721708682445 -0.003553810538852121 0.041920934580643 1.049310431055106 -13.36008757835355 0.0431348771719615 -10.50068402467297 16.992885738006
3077 5 -0.006765025301263016 0.003314134461333195 0.04754833142940376 1.114091990001934 -2.958921217298932 -0.6392839497476566 -122.6134108732238 122.6507742523649
3078 5 -0.008024023112636504 -0.001832574995964748 0.05257144655568807 1.172696830896646 4.454862357467974 4.279466948138165 -37.40326787256883 37.90994702622692
3079 5 -0.00784861822873361 -0.002561682689544112 0.04303015290254848 1.053768251849706 -5.87281942981609 5.66878374666352 -34.73928640039325 35.68533503878322
3080 5 -0.005395876203733363 -0.003227471742810292 0.0469830949468234 1.105149125166462 -1.304672760767669 0.1184261739262619 -120.4375194523084 120.4446440801604
3081 5 -0.006166818446207096 -0.0008035710620243464 0.03960271222680141 1.054224482954462 1.325013915264303 5.221490794523267 27.78135027951463 28.29881713687027
3082 5 -0.002540325515073169 0.003061677024117478 0.03703305934885553 1.070075981425865 0.3969019232154142 -0.3840699745076348 38.45346305166987 38.45742921137749
3083 5 -0.008652572375725339 0.001601855507571023 0.04110895257558161 1.048744326610406 -2.701002105675083 -2.02886756115208 13.04244825768841 13.47283090185711
3084 5 -0.006124186882291164 0.0005627308293312598 0.05064022119910652 1.157769872701745 -1.542034684253845 0.6615826410863981 -93.57990022374162 93.59494264352035
3085 5 -0.005519568187711032 0.001616537086987564 0.03471244160394812 1.079196115994385 -0.1814965196621047 0.167969224322625 23.47828008190232 23.47958241219849
3086 5 -0.008131473243464249 -0.0009823448502327648 0.04031296187938514 1.050905552212007 -1.665567014954107 4.327947815075567 28.30429828849137 28.68167616048992
3087 5 -0.003897090897174251 0.00365598914804712 0.04153367953487238 1.049848175074076 3.605074603258849 -2.852367162492608 -11.45455540967782 12.34258485723746
3088 5 -0.004170997850639665 -0.003599512673315465 0.03688966835535656 1.07093081542519 -1.083170506548138 -1.78640575869737 35.66918555671575 35.73031349093348
3089 5 -0.007442625217394731 0.002860743591603798 0.04755487247167909 1.114081508934718 0.01248166507123213 1.287727427684541 -122.5516732839279 122.5584392133425
3090 5 -0.003148659202210873 -0.002642879751174363 0.04464085625631484 1.070049746373888 -3.156713253407434 -1.735714869355705 -83.07024624083225 83.14832142132784
3091 5 -0.004856150349681142 -0.003148801846753641 0.03656548945186615 1.07264356905123 -2.625025421768829 -1.517170909535966 35.70768860680971 35.83617713532741
3092 5 -0.001776829794864954 -0.000288448935109001 0.05045758761142566 1.15608878873501 -2.727936509746094 -2.535082547912746 -98.08647096443275 98.15713966585643
3093 5 -0.005224523500626455 0.003698454573528254 0.03638819282449646 1.073491144561716 1.318545888454909 1.566621823714462 32.81517110346999 32.8789951450544
3094 5 -0.005449363987312402 0.00274673720815661 0.04543959033171883 1.080472013846458 -5.1374837662847 -1.641393409088897 -97.28431091139694 97.43369571805016
3095 5 -0.006631253933513646 2.117777637059291e-05 0.04452323337826872 1.068032146099244 6.174716640735659 3.240915039613893 -79.90830161003102 80.21201482375979
3096 5 -0.001251045149946929 -0.000258856672123019 0.05108403260685325 1.162600336235374 6.217483784019263 3.427719429402783 -85.75245243075726 86.04585674499694
3097 5 -0.007299467447919542 -0.001315575903795075 0.0500492065853237 1.150405121123784 0.5624084057983566 9.639630448683043 -100.5546097355604 101.017168429297
3098 5 -0.00403292898192332 0.003775604673978685 0.04718890027528373 1.108588583140055 -2.601319037858273 -0.9544790155077357 -120.2596733794045 120.2915912782303
3099 5 -0.001506272956529547 0.0015986087548083 0.04975790101150647 1.147701903762477 5.594574133650576 -1.497715629127025 -103.0926903755547 103.2552430664547
3100 5 -0.004088638214058374 0.003171667805224038 0.04518724924844065 1.077195114566966 0.6776104687324888 -0.04943912506820232 -98.53585646125094 98.53819872885171
3101 5 -0.007556823190176658 -0.002801913533335138 0.03893372281970664 1.058000262368425 -0.5283120539454629 2.706890070877926 36.88630030592453 36.98926219514265
3102 5 -0.00432573922856771 0.001109098034634295 0.03827318428664203 1.062023995765401 0.1102799262736508 -1.544187993163596 41.29500698969279 41.32401578379267
3103 5 -0.003874941636472066 0.003706255599909631 0.04857017458030535 1.130759405101806 0.4550323408822101 -1.288686060454435 -124.5692878251324 124.5767844963673
3104 5 -0.006510214789677097 0.002949251566627886 0.04681778699619139 1.102120397099148 -1.364983149211105 -0.6228318555807449 -120.0082452966991 120.0176238629588
3105 5 -0.007839088141595698 -0.0003481486098812778 0.0405305046875226 1.050543544910582 -0.4800861470861026 -7.535557982653957 19.90639419870644 21.29036511694567
3106 5 -0.00715282289328884 0.001689950073703799 0.05115533598224668 1.162567569038456 -6.813691898090031 -16.73011546524681 -91.99308211285609 93.74993502603226
3107 5 -0.002657984635148234 0.00225953602948132 0.05245282021237145 1.172448387424628 -4.179164443650139 -3.1528567299576 -39.54112237944874 39.88616652466429
3108 5 -0.007162520354501894 -0.00329713290174308 0.0463517310373211 1.094741809588131 0.2034779791779634 -0.7620251569418111 -114.2865844513812 114.2893060228756
3109 5 -0.008027943745351885 -0.002462093437033421 0.04562791774903222 1.083207966249252 1.44222421716139 -0.9574213915353397 -103.1734281916583 103.1879496415779
3110 5 -0.004720130245603169 0.001441321335425031 0.05294566143591024 1.174322394794095 1.780166140832424 6.429316407253078 -42.96102775024661 43.47591294396242
3111 5 -0.005240674724142766 -0.0007294221653162311 0.0512338630391373 1.163687550493463 3.933657096249925 13.68274362475878 -85.09095696551567 86.27376245741804
3112 5 -0.006689978783873814 -0.002186479412882343 0.05100336125200693 1.160932749409107 10.59578688402983 -4.793355494453708 -89.94224601010907 90.69098397266936
3113 5 -0.008904275281124457 -0.0007710626115056382 0.04113603589066962 1.04901159073754 6.098269065772664 -3.414114288226296 11.49943041755049 13.45666979232663
3114 5 -0.003734323604375621 0.003610982959760346 0.04450654542255716 1.067989679047888 -7.201177392108327 0.05121991104130141 -81.95067919089956 82.26647797956126
3115 5 -0.005818604579640935 0.002457598616446955 0.05042747025440877 1.155418921043821 1.9834881678771 -2.157078967010885 -94.92245477385599 94.9676767920368
3116 5 -0.007187814705808812 0.002495860696898488 0.04682432803846672 1.102109916031933 -0.6343074145349318 -0.1459074540707994 -119.9819899224813 119.983755319792
3117 5 -0.007872724324236725 0.002638788589363492 0.04062982199946159 1.049883651766199 0.8017577946121448 4.585811595724575 13.01479842082083 13.82235368840285
3118 5 -0.00757227377543384 0.002345541421431317 0.04442759831231095 1.06720685841303 1.903564310152013 1.00656239982546 -80.98536663066319 81.01398850353291
3119 5 -0.005550461089355836 -0.003250078551300632 0.0450431251267263 1.074970382841994 -3.230073681734642 0.4765512684139872 -89.96109596255303 90.02032694833171
3120 5 -0.006607255646833654 -0.003047876492131639 0.05065869756544318 1.157281768484866 3.998111861039279 4.814008664840876 -87.50320675566006 87.72668220332021
3121 5 -0.003256202370354691 -0.002776981201934146 0.05000330586705726 1.149951343141603 -2.206008513596114 5.841821281866105 -104.5005795826143 104.686983348235
3122 5 -0.007825571013786493 4.267298890755385e-05 0.05254592154491167 1.172783106633577 3.176430755625265 -10.16348510247285 -37.39924071162167 38.88559305937469
3123 5 -0.008901768859418326 6.660313042848777e-05 0.04637346119088134 1.094654669839369 0.6666878476774647 1.043263235207083 -114.3814351276025 114.3881356291557
3124 5 -0.003508050955026718 0.0001239685144103905 0.0442797381214504 1.065950556410744 -1.760001457860206 -8.408146861428014 -65.71689344486775 66.27597319405513
3125 5 -0.004709815834152085 0.003857703427399293 0.04578105792013597 1.086091874784515 -3.564723977149842 -1.682267685245763 -103.7649413624591 103.8397820565541
3126 5 -0.002788390472725779 -0.002534380451545195 0.04642555212930964 1.096307298663308 -1.04311014430359 0.3797649071082689 -115.5593625992328 115.5646943685604
3127 5 -0.008292319014433546 0.0008578882474668214 0.03833914739469181 1.061542638161368 -0.137176009881877 -0.2274453627549319 40.32057103171855 40.32144586909784
3128 5 -0.008901300766410334 5.756946250134578e-05 0.04495219166940439 1.07342000886972 -0.4618081522819256 3.609033478584114 -86.79404627530673 86.87027603420597
3129 5 -0.008119845896895064 -0.002101544773322241 0.03792140912897947 1.064354359453265 -1.086014426824292 0.3580884130073006 40.44905621148194 40.46521720004016
3130 5 -0.00841718062435204 0.0004216410454299759 0.04444999073636812 1.066982303737679 -3.886722628677296 0.592790302423166 -79.10399025815141 79.20163690162364
3131 5 -0.007453329450775503 -0.002221813769425604 0.04438782732983697 1.066376176437357 -3.70670488745618 0.6432322797487081 -77.44879710076985 77.54011594809889
3132 5 -0.005698238892054152 -0.00383434546320464 0.05006621326259418 1.151208962443019 5.262079688318861 1.572892934156356 -96.10759317188447 96.26439082091048
3133 5 -0.003978705576785608 0.003159073009768898 0.0402247648315134 1.051697769016335 1.363238410568601 -1.370757744453625 30.14311381197992 30.20504438069912
3134 5 -0.007438226211030416 -0.001816938010745516 0.05297582778015324 1.174248694010772 0.1550075782583679 5.596916449818359 -39.36525747960429 39.76145114971417
3135 5 -0.0042512494679601 -0.001625142493217129 0.03472672443417054 1.079158636409358 0.05667282285598894 -0.1382111539349715 23.37879526082142 23.37927248610034
3136 5 -0.002704836797028134 0.003139848719177146 0.03896276531932079 1.058169413370169 -1.173377939640285 -0.357134291305206 37.14024129416818 37.16048821100573
3137 5 -0.003415021148421575 -0.0003543028734361675 0.04491571003368925 1.073236075728524 -6.939552538686601 3.627899290921754 -84.03843713386972 84.40247602177104
3138 5 -0.007864379695648016 0.002055703665383323 0.04467113257077944 1.070411384457053 1.276810335823171 0.5293336166183114 -81.35779929701987 81.3695394184182
3139 5 -0.005435716561839517 0.001453989389153684 0.04616420552307992 1.091262812502646 -1.13480025912948 -1.033483904698729 -115.6246649974819 115.6348520835708
3140 5 -0.007820021249941599 -0.001653548413444114 0.04930012111879876 1.140992515395654 -4.311107027617207 -0.5246081483945281 -113.6248794505488 113.7078453215286
3141 5 -0.005876702916626254 0.003156870052764321 0.04989782992624247 1.149300286058734 -1.088539836489981 3.288546016289756 -103.0923801168919 103.1505612783692
3142 5 -0.007988674421628242 0.002546444430246804 0.03869062545643508 1.059390392302477 0.05325852322575639 0.8192995799618068 38.34398726600448 38.35277627144527
3143 5 -0.004152367144849921 -0.003699981982725039 0.03808683585728793 1.063460627674669 -1.027458070441164 0.2219360386606001 39.80296084145719 39.81683836567571
3144 5 -0.006612882709033333 0.002508471576730591 0.05294297419782591 1.174235174737887 4.095913865426954 -1.511963176106393 -38.22232523803718 38.47088106141049
3145 5 -0.005181179092844308 -0.003847067418339824 0.04464636970015046 1.070162310981208 -6.049291807235312 4.619611974670869 -82.38654679422613 82.73740290124424
3146 5 -0.00345726157520832 -0.0003157038843407686 0.05291287234074429 1.174146897885037 6.936656504842389 -2.393703543246581 -43.14535035875424 43.76492062941253
3147 5 -0.006324228144114731 -0.000721776367602558 0.04496517503598401 1.073591208675887 6.294536051061641 2.300609776059494 -80.94188582676303 81.21885785107149
3148 5 -0.003976765000358124 -0.0009793670854319151 0.04043015178868837 1.050978373360503 7.117536980393202 1.753181852484792 12.70413889860652 14.66724665471451
3149 5 -0.00407829307397671 -0.003183817046330922 0.05255776149302973 1.172891139130514 -3.072507295389501 5.1376230523306 -40.69397152247533 41.13191935687045
3150 5 -0.006494718394573628 0.002837653226587595 0.05068399216912937 1.158466312520026 0.7662870124425836 -2.117490470593001 -95.08737074096182 95.11403175193243
3151 5 -0.007567973646626414 0.0007006415980454739 0.03706956663490077 1.069461736614459 1.103113224645556 2.086803699657501 35.18230455936978 35.26139762651991
3152 5 -0.008503167244547128 -0.0015323054698112 0.04373206674956769 1.058939401599662 0.3114334013785677 9.508465754310659 -59.79827178556003 60.55031973742251
3153 5 -0.005218946395842819 0.003172593835086212 0.05066012021091413 1.158152481504986 -0.9446791429035095 -2.712472852956882 -97.19723926111507 97.23966910496721
3154 5 -0.003806988133195303 -0.002494537798044471 0.04523449335264443 1.078150449230134 3.884132140930258 0.3446782302193707 -94.78683820273527 94.8670120855617
3155 5 -0.007419070934808871 0.002376995334935187 0.03916223001253565 1.056472783136368 -0.1440311961770253 0.8420508558989135 37.68409490336448 37.69377671864645
3156 5 -0.008933420737819399 0.0003208024552760574 0.03840684680334989 1.061089973341295 0.04635978171310105 0.1228986928708753 40.23248538763611 40.23269980730131
3157 5 -0.008285944592618121 8.550732608594443e-05 0.05138464170004214 1.165340994619391 -2.84437965900389 3.708316386330876 -72.66226620425216 72.81240990382952
3158 5 -0.003800336654834174 0.0006819542916800809 0.05291287234074429 1.174165316572616 10.30750161714766 -5.544014826607279 -38.43967281559335 40.18195037768836
3159 5 -0.001240762409923039 0.001066731679786556 0.04431185972538158 1.067160123539295 1.119939981748024 -6.97561047058525 -67.94873398577019 68.31503390373906
3160 5 -0.003050351011044242 0.003381737277360132 0.03954865160246381 1.054904463222286 2.252288535866557 -2.154809731340707 30.81801662164629 30.97525071922976
3161 5 -0.006552816731558947 0.00353692466290496 0.05015435184096308 1.152347677534939 2.573347405099655 2.230662251859846 -104.1080268971166 104.1637136212029
3162 5 -0.005343229244137321 0.003876896902359027 0.04873330388212382 1.132930668053812 -5.660521178547293 0.7965634721583634 -121.2549100515976 121.3895762617161
3163 5 -0.008004741014414642 -0.002437703779966075 0.04949185503674025 1.143576508721743 -4.346025943604228 1.476925710997362 -114.5656039319921 114.6575198378213
3164 5 -0.008199026072139494 0.0008303718453470826 0.04942124282284185 1.142348300932431 -6.197235032624289 -2.231353750821242 -110.7687357836213 110.9643973926439
3165 5 -0.007513466100637862 0.001518373278363472 0.04515106552903914 1.076439832972765 1.228596688694509 -0.04655645599230285 -82.86247257822394 82.87159331824132
3166 5 -0.006191549848190432 -0.0006609676161134059 0.03868253481592162 1.05926873980937 0.8625852843368038 0.7351358177858887 40.74472104521373 40.76048050619164
3167 5 -0.004127032321017096 -0.003819498029941802 0.0406401187190621 1.05038975496365 2.650955561011877 0.2832752834681521 16.44094609101091 16.65570528798497
3168 5 -0.003313483994664 0.002825629106342108 0.0400250583218357 1.052406392191431 2.338969849747576 -1.794564153909066 30.02218753607215 30.16658722679133
3169 5 -0.005038585989945167 -0.002828063493381498 0.04539936528296984 1.080345013660684 -5.725193981433022 -1.418100342293974 -95.25017287357463 95.43261647440934
3170 5 -0.006219881975242746 0.001016878345183053 0.04599857833641904 1.088419109809513 0.3852972488271391 -0.02857398558598211 -114.3618765523651 114.3625291737683
3171 5 -0.006321855696031834 -0.0008301950783735361 0.04988410997479822 1.148569384724938 -10.90747168477896 2.927232647859665 -99.86812646505129 100.5046482167289
3172 5 -0.007542922234423814 -0.002255814833850652 0.03611646618122459 1.0745883792899 -1.57522611423985 1.027473126935951 31.62274667120691 31.67862284520725
3173 5 -0.00203877142259242 0.002370271932892378 0.040982522560029 1.049518399981253 -1.951520141857244 -10.98237631944099 5.717881543465984 12.53455981799927
3174 5 -0.001158064758679919 -0.000725101774966175 0.04315482511410384 1.055970043356169 -4.264623593291809 -5.348141461638384 -38.68771587180829 39.28777151816992
3175 5 -0.008310503159393773 -0.0001408362265221425 0.05179580067075839 1.168657619471811 -3.984346968314519 1.132295277717163 -68.12514613067226 68.25095346356201
3176 5 -0.007136158617611191 -0.003288978990664608 0.04879964726316123 1.133633628475482 -3.818841220614608 1.331899527055114 -121.834323314433 121.9014349468628
3177 5 -0.00472738011202055 0.0004835912793459742 0.05124474494129279 1.163856388287568 -7.076376926837717 -13.56659835526826 -83.63926723830794 85.02737632965597
3178 5 -0.001257211607400918 0.000575537803128399 0.05111233463333454 1.163013727324411 4.012401456135795 -6.467371315398034 -85.85601819017128 86.19270338403047
3179 5 -0.002321209491761748 0.002615527606975802 0.05093318863139908 1.160846704841772 8.91089111026271 -0.09223827023072043 -92.87671131338138 93.3032474926068
3180 5 -0.003330676646673481 -0.002950739911033123 0.04733677320606922 1.111130864250836 -1.484282613185905 -0.2752769361540912 -121.4783135027204 121.4876928899903
3181 5 -0.006713016099493074 0.000833973105857976 0.0512667883455676 1.163788952138228 -14.5377000992298 6.685509966564274 -87.90263408869615 89.34715354962005
3182 5 -0.002288502146193647 0.002583229749223785 0.0432319005210143 1.056553180939324 -11.33271398563466 3.557464559119088 -40.39729049115616 42.10732762116878
3183 5 -0.007419737792148797 0.002877062821044374 0.05132765490274672 1.16461705126723 -1.084760065067283 6.072126176259687 -77.99892758039242 78.24244451952204
3184 5 -0.006459896617665479 -0.00302010189159311 0.03736375541756426 1.067553588690664 0.4039984025589999 1.293052976804929 37.97598883671256 38.00014380020438
3185 5 -0.005667510905647842 0.001272088603277183 0.04910276326830365 1.138421686254631 -3.118304155853448 -1.757685718746283 -126.3701213740929 126.4208086352768
3186 5 -0.003833962329802243 0.0008499948522016978 0.04605144170243929 1.089936391821874 -5.44991868669971 -0.6460497441964136 -112.5363275101946 112.6700670251216
3187 5 -0.001810379380719018 0.002048560043835428 0.0509879473435372 1.161532260276308 -4.448143385299662 9.896726343042101 -89.98130672789613 90.63314367462365
3188 5 -0.005626166788102046 0.003689821154615652 0.05191314472428794 1.169292296817343 -5.029162095929743 4.704662851361558 -64.02285756779033 64.39217821348868
3189 5 -0.008749909592330279 0.001129855006762763 0.03978473431530041 1.053169763943932 3.983920075773589 3.723759614665743 26.83473519617294 27.38322511843136
3190 5 -0.003085857316654943 -0.002653545063567023 0.04363620569601668 1.058460478404074 2.119018643979883 3.222738403501978 -55.34777511264097 55.48200152076726
3191 5 -0.008732982727931361 -0.0008282493983431739 0.05182810342778414 1.168666082262637 -4.329102563434322 -1.584377584788297 -66.66904217611327 66.82823180375404
3192 5 -0.006761597568396909 0.002839947987219574 0.03880599883392928 1.058762726725887 -1.644359114766807 0.1580902472003562 38.47061608314809 38.50606720039777
3193 5 -0.002832671420716936 -0.003166329150756378 0.05063731884330257 1.157872217373258 3.27214674621386 5.341990877766401 -100.6949619961127 100.8896386268951
3194 5 -0.006531702263315322 0.0002403304638504951 0.03849484961087992 1.060493405349332 0.8623578173394666 0.2893589225398194 41.08194630929854 41.09201506559721
3195 5 -0.004084550582162224 0.0009745342585912949 0.04442953440399414 1.067245210086489 -7.805793513602158 5.906805865904002 -65.48759483071832 66.21514815075774
3196 5 -0.008396142030932665 0.001939982914903359 0.0488047428882675 1.133475696385874 -0.2994649513565888 3.390495262410063 -122.2366411968949 122.2840201681313
3197 5 -0.005143490126514614 0.0037305403528136 0.05140459951508609 1.165393521820865 4.493776407392533 3.265399343443643 -73.0084578772847 73.21947678651532
3198 5 -0.002862247202055143 -0.002545568223758642 0.05257756654585527 1.173088360767484 -4.721146189733601 4.463690420062148 -39.73530916057215 40.26299228320269
3199 5 -0.005375331295768495 -0.001569074456233299 0.04605765471066409 1.089805640298645 1.128860028566131 2.690588449189591 -113.3878292227732 113.4253649190506
3200 5 -0.008227737458844251 0.001215042009627956 0.04491927126616437 1.073236871113868 -4.984118648384751 -4.027523641072232 -82.0931116550682 82.34282826447041
3201 5 -0.002132682683250948 0.001551016403883666 0.04388125244522328 1.062431608440672 -3.689408311784826 8.621362409595022 -65.53441215156269 66.20195465044468
3202 5 -0.008066491999651589 0.001525089472263665 0.05095144980481456 1.160463413376806 6.669282239926301 -2.266855649956559 -84.30692481520943 84.60068281007496
3203 5 -0.006278098906568632 0.0006482129462624013 0.04892421418501621 1.135733860122143 2.701424046403758 3.985665808412441 -123.7435672145749 123.8372062459536
3204 5 -0.004251458380766571 0.00115633478135104 0.05355053770740975 1.177016887165763 -0.9201153120109978 -0.07351523439071243 -33.97103304306199 33.98357107029651
3205 5 -0.005745848609120381 -0.002629871853159658 0.04642915040195418 1.096060677090936 -0.1971033568622132 -0.6906039338799558 -114.7738125953131 114.7760595298115
3206 5 -0.002549943875786784 -0.002938335646040869 0.05186523273718817 1.169305828148819 3.375448224590298 -2.522568933008575 -66.76199930935451 66.89485448463822
3207 5 -0.005736138761211193 0.003205854812520391 0.03927077591940765 1.056073027121053 -0.7109076777065114 -1.347889810354371 35.55126329065122 35.58390813595781
3208 5 -0.001890100948833127 -0.002318435107922585 0.04662314018929893 1.099713241943378 -1.805978482770021 -0.1100426256988125 -117.106575255485 117.1205517222673
3209 5 -0.001782996252318944 0.0005459455401424168 0.05048588963790694 1.156502179824047 -2.611224310375448 1.439518926014646 -99.63742627313547 99.68203158780402
3210 5 -0.004217919214513545 -0.001162286075251695 0.05291690516247131 1.174160482256135 -7.199513349455529 -11.33054075754473 -38.32560776177699 40.60869804163821
3211 5 -0.002446452507174349 -0.002889423282374844 0.04508961017649778 1.076489133622423 -6.947290668788249 -0.4278190803991432 -89.1292587820495 89.40063001925509
3212 5 -0.004157411788362675 -0.0005795972540086168 0.05355053770740975 1.17703844938696 -0.09951637179728012 0.1664381593837563 -34.51654715144283 34.51709188832297
3213 5 -0.00182121891778697 -0.002120339936552192 0.04810211614889769 1.123599395186692 1.496747035476621 0.3670717605438243 -121.4126246338404 121.4224049088282
3214 5 -0.008864408366249544 0.0002886915656102076 0.04935389346740029 1.141155088989957 -1.813127397049192 5.089890594381178 -109.9637935216739 110.0964590842867
3215 5 -0.003546088194500858 2.813816630897205e-05 0.04589278346650995 1.087417178633271 -4.8988050137674 -1.82904253423118 -111.6837619630673 111.8061106262892
3216 5 -0.002386780825886487 -0.00290331176601968 0.04307093861143593 1.054700721355559 -8.381937385185445 0.07233170486481381 -35.55847222003784 36.53309530860889
3217 5 -0.00520456469253648 0.001650260862394497 0.04533361939630415 1.078441460486367 -5.318660419578892 -6.474504271000155 -96.56278724174669 96.92563765128828
3218 5 -0.003667276273881954 -0.0004340483915396544 0.04883912076862165 1.134774260302953 -1.471343618407172 3.773670053721611 -123.6605658576383 123.7268806118908
3219 5 -0.005648839162828493 0.0001382532100008382 0.05126261931257623 1.163871025252619 10.44789231413559 -5.326093629352049 -85.04503665203337 85.84977569162366
3220 5 -0.004319215673334823 -0.000384084095971095 0.05121598866785386 1.163672913528412 -14.62930395123142 4.850049165129304 -83.59920039247584 85.008033839532
3221 5 -0.005500966782487835 0.003606859269095878 0.03489813698614022 1.079009921192302 -1.060823235680895 -0.6308859114927199 20.10916602648545 20.14700774932688
3222 5 -0.002026877574186352 -0.002531451636891614 0.0393397588751753 1.055935289098806 -1.108132972952145 2.782792663308285 34.73297992591997 34.86189593563531
3223 5 -0.007405835095918726 0.002167608333231835 0.05177504685763205 1.168631245318677 -4.738814441051566 -0.2194927745367202 -71.27919463825958 71.43688212445785
3224 5 -0.004080666326313393 0.003826055489313053 0.03972229619889164 1.054315241709028 1.266719170316043 -0.02839362701075796 29.00097268040017 29.0286375853883
3225 5 -0.005156603035622733 -0.00141764820390558 0.04882811674218258 1.134394076181386 -4.175706874826136 2.437449472677183 -124.9292843470051 125.0228130194293
3226 5 -0.001808162243955631 0.002033193036119799 0.04308266161774299 1.055637460577781 4.800806486479166 -11.19482056166649 -40.82109557872094 42.59969007605104
3227 5 -0.004884271494935351 -0.001313111581114387 0.05246432505857888 1.172494460161917 10.56317768017926 -3.710600043538306 -37.46963514446401 39.10655742002096
3228 5 -0.00591086900540912 0.003306934197976904 0.04478202661501299 1.071496859495121 6.373109025599808 -4.252880080771472 -82.69690698135371 83.05108025737096
3229 5 -0.006525733194467586 -0.003537366846669352 0.0395411947945979 1.055002483973003 -3.918872429982874 1.574836189016775 29.34628439573553 29.64864377977697
3230 5 -0.00721215225947984 -0.003074493593042602 0.04096249175635437 1.049088928066159 7.050625899145152 0.9989656669902636 12.30168793598845 14.21410510893899
3231 5 -0.006293835056662111 0.0031401038971521 0.04454743738247626 1.068285503379554 -5.571767554239965 -11.78103238168201 -93.01166464652246 93.92021655625523
3232 5 -0.006517631474118714 0.003686535715680998 0.04490308032737475 1.073442441377083 -2.410316008725781 -2.128500271071501 -83.25968803920391 83.32176059740591
3233 5 -0.00786627743590255 0.002769890012037128 0.04492402892509177 1.073538614448031 1.368275120033699 1.074664213291725 -82.38046004570262 82.39883055794566
3234 5 -0.003853622381672558 -0.001121566184622009 0.04467157211551934 1.070039086181624 -6.762433799783931 3.74030545826943 -82.97092015215787 83.33003052149553
3235 5 -0.001170901396610213 0.0003622232596058622 0.04086559117605512 1.04990261742831 -5.915353435084793 6.3473694222276 6.718426933592504 10.97350287311306
3236 5 -0.002639744224875342 0.003070906771385072 0.04702637999834782 1.106200756015181 -1.071636410438433 -0.6345895810576399 -121.4998820541204 121.5062650553367
3237 5 -0.007459609847689492 -0.002120500822366104 0.05055778683847286 1.156826965503331 2.887313507041344 -0.3391356028623431 -94.73652863464957 94.78112391182566
3238 5 -0.007936814016610918 0.002607639555112907 0.04882250631365433 1.133802360904072 -3.202369403979754 -2.590137227677828 -122.5431853504143 122.6123821499433
3239 5 -0.008113678358002314 -0.002239312165231842 0.04373948860526324 1.059210740481767 5.803196897346112 -2.965441320699827 -59.74558012171111 60.09996073655692
3240 5 -0.004950528468710027 0.001475341932800578 0.03976030587721754 1.053184646888707 -2.727564084752438 -3.220836234240163 30.43557309277869 30.72682055420151
3241 5 -0.008111836395294718 0.001871819117430503 0.03522740265247628 1.077844766353629 0.8953482414139528 -1.02183744384495 16.68354268683919 16.73876927431142
3242 5 -0.006765855815295469 -0.0002431786833387512 0.04218200407321328 1.050275411676441 -3.9449912503425 9.883765437091483 -20.65986961931143 23.23966410832288
3243 5 -0.005689271393473631 -0.003280601720406453 0.03719918797477906 1.068601217628797 -0.3966445687084711 1.611889169527166 38.22180056065602 38.25782993986054
3244 5 -0.003833188227246685 0.001500237190899758 0.03745250777518088 1.067348312155116 2.416645097547874 1.17694464049237 40.2740898870288 40.36369270077704
3245 5 -0.007858669498198042 0.002667061089234027 0.03625660395796619 1.073858021588566 1.015580878227277 1.279287425139786 30.97751796535906 31.02055125445847
3246 5 -0.005836910084322395 0.0007721926814166745 0.05250897745441932 1.172747269980599 5.059526660756511 10.06276386934458 -37.27121593734617 38.93586475435443
3247 5 -0.007855531225429545 0.002781895931795402 0.0463583298825212 1.094438671941639 1.083688515939978 -0.2496571038258555 -114.7855144384397 114.7909013570602
3248 5 -0.00173478019994664 0.000515750019396771 0.05246095651611517 1.172464085677539 -4.950181037056663 -3.038238914085907 -39.8627841190087 40.28370322745159
3249 5 -0.004279394910858467 0.001318119556637463 0.04522416455216233 1.077049942592873 -2.577740741986285 -6.88126126297217 -97.2434037882612 97.52064440019349
3250 5 -0.003514079447707379 0.002440646824007895 0.03488910729597333 1.07918286774881 -0.3629615409722124 -1.242269126534731 19.37376086035731 19.41694063278968
3251 5 -0.003548350555899552 -0.0006442988887174492 0.03458367969880732 1.079874308839852 0.06037627251551778 -0.1328513667797851 21.19671507130005 21.19721737855743
3252 5 -0.006462196592824987 0.0008345958351028858 0.03912843209230175 1.056461544345237 0.9492498567533776 -2.170589476125981 37.93490267660956 38.00880654596056
3253 5 -0.003104781438158779 -0.002741081329244952 0.04568324727282736 1.084589836478668 -0.04718022062767271 2.249291249424352 -102.8998845982281 102.9244761338459
3254 5 -0.00776457037934265 -0.002785008796999712 0.04491867572132853 1.07322878245606 -2.306719336852729 6.403894117544988 -85.78113781572772 86.05076652144714
3255 5 -0.003772155735377879 -0.002508985680921792 0.05296071804989549 1.174401351307535 -2.693062225516658 5.53004734988195 -40.63983775269867 41.10268142601056
3256 5 -0.005448655412214795 -0.00128078158125401 0.05184453406319686 1.169629070798085 -0.5009285829587231 1.260332767118375 -60.81785052807144 60.83297059148055
3257 5 -0.00413815788886011 0.003751539854170043 0.04378122286344239 1.060369854381727 7.713853198768015 -10.4907279418629 -51.4547784949304 53.07686062574423
3258 5 -0.003047003412972349 -0.003350628418054197 0.0479414466775074 1.120991608628278 -1.737595139220895 -0.9280576518062578 -124.8294366488374 124.8449790017165
3259 5 -0.005573759073408335 -0.001570614789124262 0.03722026099167722 1.068740553177178 -2.786572539009384 -4.787545162672452 39.01003813269093 39.40137878696366
3260 5 -0.008107299578009111 -0.0005202756618127109 0.03476652625540663 1.079160198521804 -1.621249681666113 -3.20744653622941 18.25704172888133 18.60741079525001
3261 5 -0.007579576704728731 0.002203525862324624 0.03684843991102666 1.070690608144151 0.8328833309314809 -1.254151471216056 36.35929492147215 36.39045091424792
3262 5 -0.006040953104023195 -0.001036928323186664 0.0488553165927107 1.134759608409208 3.607441277595119 -1.822128778600153 -124.7547011639232 124.8201476058929
3263 5 -0.002852778301115499 -0.003287536540714626 0.04668651275324502 1.100580041626041 -1.189947937283311 -0.2065470163817997 -117.4181002385932 117.4243113729169
3264 5 -0.002613219652548189 -0.003139162487429664 0.04069677959147777 1.050705499091634 -3.750381492833712 -4.77322542122806 10.66260205128466 12.26947940084286
3265 5 -0.005520714662155549 -0.003352853491608274 0.04601378066829994 1.089321100517628 -0.5663760689526848 0.1889295936039557 -110.5518105953984 110.5534228423691
3266 5 -0.00310474392634781 0.003405666573451942 0.03828483641197424 1.062328853800921 -0.6980451384515807 -0.8769506247061863 38.86416745313326 38.88032691784717
3267 5 -0.008578651053854407 0.001752372396647807 0.04443933830790468 1.067208422598157 -4.914018850757637 -3.846941929076831 -80.23756727615697 80.47989653240805
3268 5 -0.006502859337830662 0.003691954858397598 0.04634284381431412 1.094455983080398 -1.981941585117194 -2.670909104577845 -114.2357530955892 114.2841595900681
3269 5 -0.008605347167892307 0.001480443663606615 0.03801370491126133 1.063665481399373 -0.2074035451371887 0.09132192655229042 40.66565983962381 40.66629127565971
3270 5 -0.002146353682185055 0.001744725711445212 0.0373307322273097 1.068180801248055 -1.543678578768856 -0.6262076874309018 39.65202507381449 39.68700255847953
3271 5 -0.007837644699249103 -0.002552703709990247 0.04095556802046148 1.049154386029202 -1.23168841315783 5.420165919322342 12.29747938949165 13.49530489744721
3272 5 -0.008524816416645056 0.0001852588395980315 0.04049046189542425 1.050743647984605 -4.043095620253069 1.642881373292854 18.2163749910654 18.73184452253261
3273 5 -0.006949653102452216 0.00336609079046955 0.04954832309550255 1.144395703735884 -6.015342036936246 3.630491631318855 -113.4383805535839 113.6557565278862
3274 5 -0.006032589761566217 -0.003774868549527408 0.04565754051205641 1.083946469698938 2.918493124473484 2.978320510776655 -102.9773521744642 103.0617439016347
3275 5 -0.007310454278876695 -0.0009809000820834471 0.05338020900461798 1.175754505824842 -1.695407238664931 -0.6548654424918403 -41.95114778034031 41.99049957479238
3276 5 -0.005644855023770264 -0.004099256793920376 0.03478473349839726 1.078815240125845 2.500997984645212 -3.999535403754127 12.79197785422661 13.63400057899757
3277 5 -0.001938790554405729 -0.001523222663233612 0.03526269184385824 1.078037432110641 -1.690882709474691 1.498720272075964 20.63624061552378 20.75956824052286
3278 5 -0.003187785102046089 -0.003385209204724138 0.04394599045965049 1.062185658386122 3.018627685251513 8.058200039419271 -62.47763469265386 63.0674364293188
3279 5 -0.002257508958028867 -0.001719228859933656 0.04912690929556222 1.139357816180381 0.4481840200409318 -0.7543850165243048 -119.1677621260231 119.1709926777209
3280 5 -0.005754706128576472 -0.00379771456028088 0.03950331867838722 1.055248220173712 3.694782917626357 -0.9169903809377975 30.0402994940549 30.28055293186753
3281 5 -0.005079490797507938 -0.001703236962586687 0.04526087793021411 1.077794896905385 -4.222189887664203 7.586837649358643 -92.51527080435523 92.92180758556304
3282 5 -0.00427237239827238 0.003857214809627803 0.0380269095276325 1.063848750225767 -0.8639255773620474 -0.6896133942889965 39.25572153962753 39.27128222548355
3283 5 -0.001253518051172241 -0.0009103623939993 0.04011222462237726 1.051881158033352 -1.62854510382107 4.249717299907315 27.6219980991721 27.99441078635123
3284 5 -0.003617278393075767 0.0002400125534384894 0.05291287234074429 1.174135025948317 3.581862580208979 9.883167602821823 -39.32934786143621 40.71000300435785
3285 5 -0.007673705530104543 -0.00282429930313002 0.03671282292009915 1.071313151972414 -0.07536002696991292 -3.487395905590398 35.4554118091413 35.62658888936451
3286 5 -0.008533166438389379 0.0004086485340529777 0.04300382005993873 1.053509284553234 -4.335423136450143 4.438668113860925 -33.8359671419388 34.40015030239599
3287 5 -0.005596897510023095 0.001316683714379464 0.05011941434339169 1.151992921226396 0.5646447897726095 2.673512818294888 -93.14783228273545 93.18790239886729
3288 5 -0.004867188648314184 -0.002803454469460422 0.05251083079430337 1.172683306617078 8.475424768443617 5.036813301740475 -36.65937725334559 37.96198432439023
3289 5 -0.001486975241927437 0.001769126236546694 0.04435902282936788 1.067614816423342 -4.525760709217501 9.016136950640083 -67.54876272902885 68.29793980591531
3290 5 -0.005640669120063749 -0.001355919485181609 0.04460549833557056 1.06889220762969 3.741038817157377 3.881216041611482 -78.1270641681654 78.31281737321022
3291 5 -0.001653946950395028 -0.002004137348565174 0.03632140196708228 1.073807941974405 2.230617441242316 -1.023509430790643 30.3040770842008 30.4032944538791
3292 5 -0.00154038994878039 -0.001683343830684126 0.04969495405399334 1.146592887328531 6.065852268580552 -0.0935188077277517 -103.9588884027361 104.1357469241191
3293 5 -0.00495397751663958 0.003872421689454029 0.04380436297262003 1.060600135549468 -10.10084967313309 -4.456120221690173 -51.33288082560976 52.50665505824612
3294 5 -0.004915448512469444 -0.003302418875263255 0.05176808221386824 1.168496021704214 -2.213362653886498 -5.445817773909715 -69.42602332842817 69.67444740120803
3295 5 -0.006462260066297642 0.003450394533286395 0.05185711374053825 1.168952856985959 3.567738165469966 5.758482460272587 -61.96400892174939 62.33319563055672
3296 5 -0.002175794965889327 0.0006377711271070021 0.03546564880741771 1.077356359237545 -1.027312585263532 -1.988163476953287 20.64342593207743 20.76437331999448
3297 5 -0.004260557097620343 -0.001462352439939667 0.04532417688103815 1.078846307561269 -2.951705842899047 7.902081996993411 -92.92862939568781 93.31069407431983
3298 5 -0.002793669239401365 0.003256962518650285 0.036377819832546 1.073567696471988 -1.121645905947166 2.733046506927614 31.48745797090941 31.62574334647557
3299 5 -0.008940581885343432 0.0002877829846654744 0.05160682921720877 1.166720196516431 -5.437633227108169 4.265546120495389 -69.51085993525491 69.85357820296144
3300 5 -0.004908946455553045 -0.001913729924686171 0.05291378735116913 1.174185811143271 10.1106581275492 -2.66061508811585 -38.15833909706544 39.56467013720599
3301 5 -0.006889461537451074 -0.002065465470024034 0.0525232476762608 1.17266549374786 -5.06872562619244 8.320751922978808 -37.85340548478337 39.08717435211713
3302 5 -0.005365129390295215 0.003855892430949753 0.04453281675889827 1.068152702260022 5.711407823754315 -4.436351928024982 -81.59002110836022 81.90990747291319
3303 5 -0.008654623739376793 -0.001265705370070521 0.04927461232478074 1.14036828111588 -1.908486166426646 -2.764980128666128 -113.3595685313268 113.4093435840625
3304 5 -0.002111470515546823 -0.001800519592634308 0.04452643265060056 1.069011293605802 1.68961716589685 0.221978163451418 -81.64419688494419 81.66197992615581
3305 5 -0.001170984401591014 -0.0004874097864360358 0.04086583220608686 1.049847418320941 -4.453502348377962 -7.387587346578214 6.71681165862418 10.93278047103116
3306 5 -0.004305188078815145 -0.003221068406548883 0.03933202063654663 1.055707423586412 -0.1170745647077664 0.7049253231623447 35.69449379825217 35.7016458119006
3307 5 -0.006937632715489004 0.001948291662643702 0.05250629021633498 1.172693665352251 8.349043915601413 2.623372534234821 -36.54868386805885 37.58184282662739
3308 5 -0.008574654393454898 0.001529121138351418 0.04960590871591133 1.14480241626315 -5.865850130662928 -3.842095322529645 -111.6845902077011 111.9045020724588
3309 5 -0.008348995710172051 0.001194363089501219 0.04251769977117908 1.050878001393281 -5.872024955608609 -2.593650858354852 -31.3719778732481 32.02200333417482
3310 5 -0.001191653282533674 0.0008182827157544669 0.04987715510480557 1.14922811162203 -1.297489321385218 5.261247677895487 -103.6111414200191 103.752748551672
3311 5 -0.001684940027483463 0.0004772228290746674 0.03737006511383416 1.067961943911038 -1.455703893711599 -0.3655624914607333 40.10628211984189 40.134356544458
3312 5 -0.008109720193726844 0.001909716321212571 0.05271443613859822 1.173784149934041 -0.4336707691553193 1.438122194822028 -30.59783334325957 30.63468085495827
3313 5 -0.004364297062877001 -0.003815930246260147 0.044659789854509 1.070454900402301 4.081440122815919 3.539019970235526 -82.2802212629647 82.45736854222481
3314 5 -0.007161298152507694 -0.002493089981336144 0.05171268099502567 1.167777600562315 -2.098599922057114 -5.314329809458759 -73.77701306713303 73.9979315931498
3315 5 -0.002417838461705046 0.0009576917576383628 0.05296095651611517 1.174430720781539 -5.130062531850174 -2.746284524738374 -39.97092232410411 40.39225484806555
3316 5 -0.00284185935072954 0.002487196993338363 0.0458764837594611 1.087496223512207 -1.291641187486384 -0.2639742659814247 -106.9851638092521 106.9932862130275
3317 5 -0.005929965024412521 0.0002545312663935314 0.05311385372591883 1.175439245841169 0.8496390693698913 -0.5737031073720779 -33.86175924656253 33.87727499483645
3318 5 -0.006686927533811399 -0.003583913411593426 0.05125090514860162 1.163446607856553 3.60677821735478 1.213496857074849 -85.61707946177985 85.70160861556825
3319 5 -0.006032642136863473 -0.003768300688109906 0.04945119562906747 1.143367136696547 -3.79417236697827 -3.00343434680719 -116.2013959126008 116.3021099286806
3320 5 -0.006021409044668445 -0.003838311567842559 0.05131872324940162 1.164155732433132 -3.715253321793155 3.265638715589642 -85.31244535252638 85.45572441617738
3321 5 -0.006475533355659013 0.0008486950489416311 0.03698807330198533 1.070092543197272 -4.058865454825795 1.463726155708996 36.36235261689357 36.61744899463358
3322 5 -0.005170742256768532 -0.003950453381258909 0.04656772521316916 1.098409548593154 -1.751395208738613 0.9951376220109174 -116.565185124988 116.5825890400734
3323 5 -0.009015976509553748 3.50330776662042e-05 0.04255797605085435 1.051148786506901 -1.752642648908573 6.060819836567624 -30.51636344611493 31.16173504992114
3324 5 -0.001240762409923 0.001066731679786461 0.04581185972538157 1.087067636669278 -2.874525896838862 -2.540024447759565 -105.9437974384359 106.0132201143007
3325 5 -0.006747730597203513 0.003315311486115631 0.05130370304451475 1.164529988800247 -6.312970756033741 0.985153442303173 -79.72686134302404 79.98247649755038
3326 5 -0.002156386561027274 0.001650387959291558 0.05245582331961694 1.17253911711329 -5.187872657320653 -2.238718021430701 -39.983818756586 40.38108026598065
3327 5 -0.0075262590175548 0.001855689391495835 0.0348405824545512 1.078974080916605 -3.423388324978843 -2.126919757274168 18.46514477298692 18.89986631605765
3328 5 -0.008128408904670502 0.0005816313327494229 0.05316571254029369 1.17551811276163 -1.623038353818617 2.145054514092172 -31.38781438221132 31.50286342633865
3329 5 -0.001157429076589707 0.0006418133869871618 0.04506185972538157 1.076215311836839 -4.250170051119487 4.139064373550628 -89.76154208054848 89.95738010874875
3330 5 -0.001752961841769309 0.001047247309560736 0.0362439508338967 1.074392351825932 2.614152299698397 0.1778588038637653 30.99145134327656 31.10201733590297
3331 5 -0.008582715628834644 -0.0007541763139826895 0.03476652625540663 1.078948051640389 -1.044444418504828 -2.541286966105413 17.92069416146618 18.13009329309287
3332 5 -0.003050590190473272 -0.003348869970998182 0.04929230689304565 1.141115542994057 -4.404783915323975 -1.336074912503704 -110.0242669933849 110.1205091930843
3333 5 -0.004957017562405956 0.00389955648309294 0.03832851286160437 1.061898717308358 -0.2307060505356411 -0.632379897841329 38.75392852370722 38.75977432387288
3334 5 -0.008028343394594989 0.001520091463311285 0.03687917635758524 1.070514445290972 1.522039013672517 -0.610666788178859 36.02884418268886 36.06614936232865
3335 5 -0.006986223751245269 0.0002541718548230429 0.04283465725659406 1.052717090428909 3.019219926831 0.193854096853106 -33.53991639507043 33.67609330319885
3336 5 -0.002523488862527558 0.002922972185076332 0.04115908327270783 1.049760603218991 -5.309669350476437 -4.373472006728509 7.046677386589291 9.847614340320993
3337 5 -0.00426617520914466 -0.003332754405796656 0.04524925474829521 1.07839812549936 -0.09886877538016803 -2.497194235331667 -95.18424946504874 95.2170525709988
3338 5 -0.004270266855104926 -0.003753000407276793 0.05135424643876656 1.164839325182971 3.323600822836545 -7.167310552708485 -71.64601656727913 72.08029101597303
3339 5 -0.003719093249084242 0.003715627176484491 0.03927530693499958 1.056486714749908 -0.267828545571301 -0.2046651862950483 30.58102466392527 30.5828822949033
3340 5 -0.001595493177811715 0.001775543439367912 0.03804586462052682 1.06372609939561 -0.609414905480429 -1.049176214536599 40.58974961835964 40.60788016305823
3341 5 -0.004568325068775969 -0.003799891918641842 0.03871584802332233 1.059535408975319 0.2848943038517702 1.437599230436031 37.47548456909274 37.5041304391933
3342 5 -0.003785327179090933 0.001574817002655953 0.03453486760678289 1.080134019255486 0.283314640638855 0.3166348158008023 19.52562460965559 19.53024682868513
3343 5 -0.007727628240815259 -0.002774578960854641 0.05005016481741209 1.150946181221582 -0.1389674067970514 -5.264723084525797 -102.858550356353 102.9932910558124
3344 5 -0.008584932205150466 0.001740410381991567 0.04300518381924793 1.05374519575972 -4.594937642663221 -5.378993692742891 -35.14176443822175 35.84676600361598
3345 5 -0.008464568532035277 -0.001387384643064645 0.03479832126253 1.078802391834697 0.03060062397858961 0.6467394377227578 17.08669923589185 17.09896192978746
3346 5 -0.008776047017722008 -0.0008850779008026539 0.04856180447933793 1.129964396238349 -6.004430751754829 2.36133734039673 -120.5173796280111 120.689966008322
3347 5 -0.007524060986786103 0.00189377019385782 0.0531111664878345 1.175261938774035 -3.203975024488082 1.000932591361735 -31.67419886989174 31.85156504882366
3348 5 -0.001853149211467991 -0.002282549305586681 0.04513173516877102 1.077150669102866 1.256553381520202 4.743689735775438 -89.53087404613632 89.66526041993653
3349 5 -0.008208205780085532 0.0001577270857006302 0.03678827446107779 1.071235031290233 0.681953171306885 1.242357679914037 34.72778022697153 34.75668615138002
3350 5 -0.003126183550912514 0.003350948274311605 0.04967576819990774 1.146534415453648 -2.451408978031953 8.187420125450808 -104.3069398586877 104.6564902763899
3351 5 -0.002319133865190135 0.000871323393951364 0.03690493272061704 1.070754489442467 -1.693570486603666 -0.09901451477451695 40.33634117483939 40.37200025067218
3352 5 -0.007047387595017537 0.003301574582407686 0.03809240155238688 1.063235731517692 -1.281970402714318 -0.1351131897160837 40.03770098977438 40.05844735176404
3353 5 -0.008761287095130708 -0.0002373341165775962 0.03735447246819032 1.067970954799874 -0.703464946003397 -0.4157088787721246 40.44372665833178 40.45198020883529
3354 5 -0.005230583526302651 0.003866785709257727 0.03902236232616261 1.057668150483081 0.3344854467418974 -0.4530162670606758 35.76745286798139 35.7718854537411
3355 5 -0.006925766499582587 0.003390883576554558 0.03990092285457564 1.052676011474252 2.750734187167197 -1.906759962261733 28.33338997253142 28.53039185601345
3356 5 -0.00394423588676286 -0.003720043092057737 0.04395016266219387 1.062343136145309 -6.021010606397778 1.776131199708321 -62.69961526874055 63.01308566963703
3357 5 -0.005909197747558464 0.00225571735430035 0.05339512372850048 1.175947459356837 -0.09509861650117339 0.4336629685582647 -40.32319190720485 40.32563592681993
3358 5 -0.005385490873711204 -0.0009630976208204608 0.05309795760351731 1.175369910781643 0.08836906443047306 0.8669711644028404 -34.06779947600005 34.07894378099773
3359 5 -0.002932014138397727 0.003235354136376754 0.04075426282858076 1.050091601095775 -5.533109146193039 -4.167530149251917 6.831632917293802 9.729070494413174
3360 5 -0.003894829676011961 0.003733675791493872 0.0457779266929725 1.086159132740122 1.358798462625271 -1.344126621940172 -103.8117627956967 103.8293556966807
3361 5 -0.001296801078989945 -0.00113610416745109 0.0459195675628265 1.0886946641469 -3.69814747868118 2.935499501592679 -107.9149640525143 108.0182064216648
3362 5 -0.0086906216347274 0.001261643526307857 0.04565509057501264 1.083416340477703 4.415662077812643 1.920011843935592 -102.1147405754089 102.2281994356222
3363 5 -0.003657521958792404 -0.003602165822448745 0.05169134561403562 1.16758804126856 0.9526749553484528 -7.444985293212 -73.72666989608626 74.10774082073453
3364 5 -0.006303526783181676 0.001238516076086485 0.05295843974700957 1.174426181634603 5.55447588107462 8.083162417668595 -38.3135529702897 39.54893245324131
3365 5 -0.002170084337479838 0.002653951698731429 0.04534370413429262 1.080034085760221 -8.140977428609903 -1.240063117482357 -95.4707887635344 95.82528255716173
3366 5 -0.005297210905098444 -0.003654318213088329 0.0344807542365103 1.079704301406922 -0.4955459906621872 -5.502183900389436 14.19666729525782 15.23367834092637
3367 5 -0.005730239657889468 -0.003565018989872155 0.05262296995491677 1.173247726855686 -5.355578396028855 -4.134797239386027 -33.15489151004031 33.8382268922204
3368 5 -0.003988963200396089 -0.003789683878441469 0.03488513546097516 1.0787038716127 0.1552109288486858 -6.189172737006342 13.275861163824 14.6484961426785
3369 5 -0.003626458380766575 -0.0003525486951321444 0.05355053770740975 1.177022759928028 0.4106843702689483 0.3133402938250753 -34.85219742231723 34.85602543256895
3370 5 -0.003597235720519335 0.003568798039803544 0.04095396933825846 1.04938297792068 -6.802322733505119 -3.557101628391778 7.271893063707783 10.57378812419983
3371 5 -0.006330723320120529 -0.0001081659284955887 0.05249406273053681 1.172582080549671 -3.737382476366553 -11.64550171317199 -39.02134174219171 40.893163845404
3372 5 -0.005369115207391886 -0.003124554710202105 0.05314446333924182 1.175444368678926 -2.380773924373456 -1.966809687222139 -32.0322925677989 32.18080471296192
3373 5 -0.008403843036984269 0.001912937598621654 0.03741740766875343 1.067424567526545 0.1583810517222719 1.122334111417666 39.09883862898122 39.11526429094287
3374 5 -0.007080806534072256 -0.003328840356007074 0.03661499293395425 1.071867489579449 -2.453425714695204 1.217152938726128 35.86230593185636 35.96673109644296
3375 5 -0.008832066901329417 -0.0008672078536514988 0.03912030706366895 1.056696521451538 2.462065871236768 -1.164951916516498 36.22748973675861 36.32973842390081
3376 5 -0.001118768004062638 0.0006531467446840395 0.0362090832271138 1.074526763887898 -0.9236558484774606 3.429355642631106 30.20912250953786 30.41717776267778
3377 5 -0.001541601128182656 0.0002436705622303055 0.03543078120063482 1.07749077129951 -1.761601287076428 -1.143718211465374 20.79424401307361 20.90004580179466
3378 5 -0.007146660018237726 -0.003307029014969923 0.04492922002559561 1.073517910755281 3.938428628508218 -1.241693169971027 -85.77128601365976 85.8706383254907
3379 5 -0.008414605241088564 0.002341140281681398 0.05315112012008914 1.174972401299252 -4.880585533155664 5.398365524275667 -26.71671923309575 27.69017067589517
3380 5 -0.006559167464112904 0.003558171551675092 0.03931200402986258 1.0557516346955 -1.75543304585032 -1.187722991119645 35.52198794072451 35.58516345814749
3381 5 -0.002224220350139815 -0.0008623576338671088 0.03492939729835445 1.078910130311487 -1.837338004640644 0.7606678514116165 21.20161249822251 21.29466597644239
3382 5 -0.00208126582199666 0.001828428098097298 0.03523462408817285 1.078310805725481 -1.417613591723827 -1.560390670183869 19.37612999244239 19.49048128761993
3383 5 -0.008623565884185943 -0.0005705833374323017 0.05360239652178461 1.176771797188324 -7.89026634790563 2.007698377308402 -23.62770049155283 24.99110614466004
3384 5 -0.007930929216323374 -0.002427111390819905 0.0512671065814916 1.163671816656539 -7.581629578841316 -3.064152283492093 -73.6145393413194 74.06733786711828
3385 5 -0.008929996602105358 0.0003435085624724833 0.0397926836148768 1.05324950779054 0.3065757414119043 -3.359781297572745 26.90821717104759 27.11889139284646
3386 5 -0.001108319949200357 0.0003933644229551079 0.04912715510480557 1.139180590477382 3.583735981019555 -4.389259828788946 -118.3575097423053 118.4930752315348
3387 5 -0.008390497203185167 0.001929362985925118 0.05025365274499067 1.153168117047386 -3.115354614636335 5.508232566906472 -101.4288387528491 101.6260566544699
3388 5 -0.008244889502872841 -0.002015123864727026 0.05167329203826157 1.167007846727958 -6.688882250881293 -3.833772987876605 -75.26534542013721 75.65917777970692
3389 5 -0.001277009553897608 0.0009912244130111116 0.03803638541502684 1.063784046637695 -1.254045621700801 0.2791833018698709 40.54749209641646 40.56784057657377
3390 5 -0.005949874790990649 -0.0009307676209600836 0.05247816660813529 1.172504521417811 -9.369246830329102 5.034630002114787 -39.32130592384438 40.7344496094201
3391 5 -0.001068430682799169 0.0003203928913166846 0.03686198172528631 1.071072553014062 1.297565662386464 -1.488929897060683 37.57895891403403 37.63082170175431
3392 5 -0.007698142635551955 -0.0003707659871593765 0.03642338145030381 1.073057575453274 1.373652160604274 -1.043285629003179 32.49077679883753 32.53653242362954
3393 5 -0.001318113533279956 0.0009406683121961299 0.05171095651611518 1.168432538174165 2.477774653323204 5.468426461223531 -66.22011997382272 66.49170884059106
3394 5 -0.005783841873064144 -0.003787684185829265 0.03786553329363319 1.064626082017502 -1.009017193282664 0.7853303824750952 38.86050819557686 38.88153747891761
3395 5 -0.009026304524033626 -0.001028162060893127 0.05319801529731945 1.175222235997948 -9.646137808686785 -3.310270831671936 -26.63862720196633 28.52406574821575
3396 5 -0.008531009849852833 0.001039519198345765 0.05276898219105741 1.174038702821936 -0.8965621233437224 0.5739380304890581 -30.57106588386211 30.58959459978661
3397 5 -0.003952066449528169 -0.003784841505457557 0.05319139403796817 1.175283107588735 1.606943992494843 -8.512029227705355 -22.68521510856051 24.28283128240995
3398 5 -0.008623565884185938 0.000585697536559197 0.05360239652178461 1.176679003954734 -7.887494323256323 -0.5421358359208197 -23.67090645918296 24.95632766581213
3399 5 -0.007589841354693852 0.002926280335253777 0.03991109160690753 1.052423364002621 -1.886232294065641 -4.67934425486391 28.36726313608428 28.81242358349173
3400 5 -0.005599386505944096 0.004100404321839418 0.05327321621272237 1.175757809421366 0.3472802615464032 8.918052670643137 -23.56060729819058 25.19433434873753
3401 5 -0.009016193358905619 2.523142503789719e-05 0.04113002807184869 1.049017666911822 1.056336258115269 5.173441737055559 11.48105825363138 12.63705045966798
3402 5 -0.001900951739799595 0.002422923288881424 0.03698756343661451 1.070385044545441 -1.077201450355539 0.3950353615711568 38.84098276290339 38.85792529059803
3403 5 -0.00655446709725599 -0.003527184357015922 0.0380301007364184 1.063578453079368 0.7979674239307497 0.1831379305789349 38.38352645299201 38.39225695994973
3404 5 -0.0086020497163264 -0.001362595151494654 0.05132755238857303 1.164388171380262 -2.885111044240393 -10.75535518042276 -73.46626879589053 74.3054115228809
3405 5 -0.008880738116316983 0.0004732233527734161 0.04566086089526808 1.083522289574744 2.729658931880317 -3.435270372246988 -102.1316902744477 102.2258982779342
3406 5 -0.001541162088381406 -0.000420415895625516 0.03542939729835445 1.077464733175439 -2.01043783495747 0.4635396075011177 21.04115359290168 21.14206408504217
3407 5 -0.006237668380030403 0.0004094954865275544 0.05188918645903729 1.169890104689101 0.09576774252196954 -1.04474774700115 -60.29238184803599 60.30150892162443
3408 5 -0.008479428966467395 0.00115317920870157 0.03519126443182074 1.077923975001715 1.301376257597249 -0.1768170930194563 16.70670524568395 16.75824706269678
3409 5 -0.001524622183942436 0.001813798022380857 0.0459092257510658 1.088534035543876 -4.136403182467453 0.9298427575858063 -106.6468428134137 106.7310803885669
3410 5 -0.008461945674754019 0.002301103500456277 0.03476044274789767 1.07886386868639 -4.210580223313192 2.542642888837085 12.33982901632244 13.28402795951526
3411 5 -0.002367589420728547 0.001168796156485642 0.03488196910861039 1.079203099684524 -1.26792051484127 -0.3767411272975724 19.53537338233432 19.58010136582978
3412 5 -0.003017397148303453 -0.0004172503298409768 0.03458367969880732 1.079866876872436 0.2134103982339466 -0.08878136511282386 21.11918144204797 21.12044627632213
3413 5 -0.003957447564607448 0.003786398003849038 0.05319950022861025 1.175272702808775 4.25064442380656 6.690011137428395 -21.75989695866795 23.15852634967088
3414 5 -0.007828946034147822 0.002325194154326647 0.05354785046932543 1.176450190139246 -4.560779563876306 5.567818864380059 -26.60236072351053 27.55879012584903
3415 5 -0.003169169266548499 -0.003494237418414382 0.04594420789676274 1.088862579441401 0.05725155279921679 3.036476860144596 -105.3260149216078 105.3697911582312
3416 5 -0.006600147709463015 -0.003269259695267929 0.03520554004535808 1.077980833248854 0.7438314625755534 1.466480753085739 17.38597397244972 17.46356040487126
3417 5 -0.007894159201462067 5.593814881631849e-05 0.03523348615998524 1.077934801786891 0.4849748540728379 -0.07692365920477058 20.14302534119513 20.14900959735881
3418 5 -0.003771636062307584 0.003737649509634492 0.03850373938507658 1.060908921870817 -0.9569617970098725 -0.6841759452899429 38.71358534147728 38.73145443430823
3419 5 -0.003039081293925213 -0.003320101879321841 0.05138196836223428 1.165315720826916 -1.930402048959531 -8.84792721857972 -72.12573639872163 72.69204990364345
3420 5 -0.004242594175131238 -0.001762904418823479 0.05336636745506156 1.175851833237489 -0.3228302002571289 -0.1961789108149471 -41.39035181344345 41.39207567571199
3421 5 -0.008116924413363466 -0.001989521919556736 0.03520270248699475 1.0778640894042 -0.3592075270455346 1.349776858703683 17.10959704574295 17.16651504189112
3422 5 -0.001241398092013363 -0.001150020067765844 0.04390482511410384 1.062237327610592 -7.598936511880451 8.749250470954962 -63.48896469743067 64.53791024093276
3423 5 -0.005277044732828137 0.003871865271403577 0.05013047988274783 1.152033846519899 -2.965419114159126 2.269220914561842 -103.9118738326376 103.9789430485409
3424 5 -0.001049898281462219 -0.0003313326044884677 0.03484571759954713 1.079037053552437 3.766286794559288 2.290164957292744 15.38078954017468 15.99995183210344
3425 5 -0.00398158870839437 0.003793380234010962 0.0347586209136552 1.079204489952852 -0.1013781826895735 6.134907155183501 11.58197117801314 13.10684629142245
3426 5 -0.001050337321263468 0.0003327538533673538 0.0348471015018275 1.079063091676508 3.76666583489968 -2.857949023971931 15.38233746788726 16.09260544819859
3427 5 -0.006797351786383545 -0.003507227041166975 0.04564765842963997 1.083732452753109 -2.04397810821268 3.411253858857116 -102.9713644692555 103.0481266208012
3428 5 -0.006887918036095689 -0.003334606905354041 0.03883031399564126 1.0587304696713 0.9557104973860189 0.110724844449585 36.99841139821845 37.0109185043794
3429 5 -0.005698267711871579 0.001633681627726275 0.05339512372850048 1.175978481210397 -0.08796527753813671 0.4164593662104003 -40.32246543322069 40.32471196310066
3430 5 -0.001339065625982025 -0.001506199217794782 0.03601269184385824 1.07521096448792 2.378352327705044 -0.9172287635320291 30.36577617544649 30.47258162900978
3431 5 -0.005404977885931726 -0.001544217543614682 0.03449717955900637 1.08021021897498 0.0937038129790808 -0.1474696517087368 20.44026391873756 20.441010659221
3432 5 -0.005346265746012727 -0.003855454447778913 0.03862787043664538 1.060023834810143 -1.452116743971235 0.9117609412134501 37.55365562496727 37.59277858646099
3433 5 -0.003787578451963505 0.003685713416799235 0.04995581184365226 1.149834912691285 3.081579014004428 2.95665090741301 -106.3591884714461 106.444891310539
3434 5 -0.007706736261332199 0.002835823152366393 0.0379721914954418 1.06393106133605 -0.1845245769628025 0.2243946382909741 40.14016351435738 40.1412148450012
3435 5 -0.008879457199765449 -9.13702708814924e-05 0.04855169355346263 1.129789918082471 -5.189901267741189 -3.435253227237351 -120.3922328137272 120.5529998041477
3436 5 -0.008381405765793019 -0.0001129777478127296 0.03591765248919532 1.075468411801931 -1.146569713770915 -0.5151121495900844 27.35332861834904 27.38219401615919
3437 5 -0.008641302525612717 -0.00102247564953303 0.03734640100299066 1.068006187047818 -0.7179722193810323 -0.05923398547274469 40.44348965113146 40.44990541316525
3438 5 -0.003647914143086585 0.003111158898331131 0.05359561877553515 1.176688604497445 2.473832282685858 8.118222376010177 -23.13130325884266 24.6390456625608
3439 5 -0.008583848079704659 0.001604164311771747 0.03630053805247725 1.073627186052125 -1.583475573769661 -0.8175965568298854 31.31368085520522 31.36435026784568
3440 5 -0.008076909850485888 0.0006951077445253116 0.03480444423389566 1.079050918901297 0.1276398825083223 3.908188909101352 18.30042857163185 18.71352234065593
3441 5 -0.001687501682613541 0.002091274286341695 0.04520638885505212 1.078136403595484 -0.9864357793740668 -5.803795231490013 -93.91647949910279 94.10080879642476
3442 5 -0.004949940047012929 0.003893834785447629 0.04951056275142003 1.143978863009342 4.187182725284701 6.289411289531268 -111.0669880567682 111.3236948252532
3443 5 -0.009026166829368271 0.001043585402155539 0.05320566617254833 1.17519959401504 -8.803578861055554 2.274124728909158 -25.11596410547416 26.71116427625211
3444 5 -0.006790085578321116 -0.003492259326686386 0.0494366651201661 1.143061208112783 -0.7392341204533063 -3.603964190902861 -116.0501763026033 116.1084770584795
3445 5 -0.003645929110929338 -0.003110010140048427 0.05359435059483392 1.176793319765756 2.763534449312353 -7.649905639420756 -21.95273544392738 23.41112497116794
3446 5 -0.00562342363688537 -0.004091088878057177 0.05307555005880921 1.174551856484673 -6.708995976599979 -9.752995454419249 -30.11181108847616 32.35510337452243
3447 5 -0.002330892764124702 -0.002912692030715299 0.05321119909079371 1.175602326525102 3.550421620917314 -5.874573949751018 -23.93017683930206 24.8951697390807
3448 5 -0.003647914143086601 -0.003111158898331137 0.03440438122446486 1.08013473000024 1.98526193930745 -4.794242399955057 12.03939997721419 13.11004107425048
3449 5 -0.005280509064854414 0.003652688627025715 0.03440438122446475 1.080232040042558 1.854359959368977 4.330192954323173 13.29277589990822 14.10273423864187
3450 5 -0.008806741461977151 0.001042502685852583 0.03598519936868429 1.074985313724268 -1.831432476461254 -1.456309925675503 31.08883759667446 31.17676709711668
3451 5 -0.00180089713112982 -0.00229973912447971 0.04310125478488573 1.055171500519689 -1.046344996004428 3.862341052317365 -35.53879926855789 35.76337190067417
3452 5 -0.004229447245498275 0.003815304148804538 0.04938545820752766 1.142338886646984 -3.160361744327245 7.020755811216282 -109.6746288637361 109.9445456351246
3453 5 -0.008118610938090761 -0.001154318283941286 0.03674228501738909 1.071382162709309 1.33692636323633 -1.606630623942266 32.50057646666812 32.56771568176447
3454 5 -0.006699633277429959 -0.002660761273455035 0.05314303867164282 1.175409813756823 0.4406965982913321 -2.423987636100959 -31.87881001135315 31.97387147800005
3455 5 -0.002968532724251715 0.0004187919732773124 0.03511854730559021 1.078287067674422 -0.3531555010415758 -1.79274124024592 20.73895063566966 20.81928705386275
3456 5 -0.008935470220940076 0.0005792956701517836 0.04373335886529079 1.059091471970687 5.438813778363871 -10.13990800713361 -58.36498521351943 59.48840163160541
3457 5 -0.007121200822654749 -0.003303905945531987 0.04998386465289282 1.150193909282676 -5.231815824275088 1.99638582051236 -101.7542651262142 101.9082328594671
3458 5 -0.006694445329032788 -0.002641262852677473 0.03490156078347112 1.078863395420754 2.168634404348771 -1.868705033723307 18.72636997470136 18.94391633512417
3459 5 -0.00105033732126347 -0.000332753853367361 0.0531528984981725 1.175262310565486 5.220282637066845 5.833671556282336 -29.96973880339966 30.97528560936023
3460 5 -0.006416491489849933 -0.001348327702773457 0.05292762890072555 1.174187356095267 -10.15796812847513 4.712892153860189 -39.23818400008179 40.8047883535414
3461 5 -0.002602755848975495 0.002475278765619551 0.03524176227553578 1.078290362655682 -1.70752298484712 -1.051558864755761 19.44659182517075 19.54971468857347
3462 5 -0.0011091179782666 -0.0004545105558227458 0.04912355500457241 1.139007597104706 3.216002498394336 2.112332286601164 -118.2932980340681 118.3558573942818
3463 5 -0.006980398280738218 -8.378427206736812e-05 0.05294352502312706 1.174262613303377 -4.58801729412013 -12.0970320924095 -38.90303724374005 40.99798037615702
3464 5 -0.008946679218024263 -7.148831212047262e-05 0.03910249361736097 1.056805211007508 1.48173947823155 1.79995899447054 36.21446701706775 36.28943407651067
3465 5 -0.001545748409851221 -0.001893856857906081 0.05326974699413229 1.175723858234305 7.626662433028471 -4.999517646702733 -19.46405515013029 21.49443182441381
3466 5 -0.001060901925879038 0.0003651305090677301 0.05309862188278064 1.175041174485313 5.217030366448863 -4.114543408779147 -29.95106745785858 30.67920004127182
3467 5 -0.005265695269309797 0.003651032338495905 0.05360388145307511 1.176901434862895 3.882033093326415 7.196013807313011 -21.39890373891619 22.90776891973817
3468 5 -0.002332356533870611 -0.002913123275527662 0.03473767576996864 1.079341344546872 1.418845766606437 -4.690255566951418 12.28731412352705 13.22836758496539
3469 5 -0.005410165834328897 -0.001563715964392245 0.05354741989610757 1.177061261762997 -0.226790948524309 -0.2198024220626294 -33.12649496638437 33.12800048292934
3470 5 -0.001613188618559769 -0.00191826200883418 0.0459229603250899 1.088657315239181 -4.763101942352522 -1.264553094749948 -107.9004182436359 108.0128996545979
3471 5 -0.006817080947669718 -0.0007555604586691677 0.05338020900461798 1.175822939208329 -0.474544755173802 -0.1491585190159068 -41.81340570670483 41.81636447351627
3472 5 -0.002883375315394831 0.003261590624981687 0.04642321292243384 1.096334805319208 -0.4501087686120533 -2.602602929231673 -114.4347266362501 114.4652034472665
3473 5 -0.007876368297014101 0.002284973774521609 0.03437362254997259 1.079993183249366 -4.753172409359358 2.327266080321142 12.72371471574881 13.78048371899445
3474 5 -0.008234467592776497 0.002208134892420163 0.03588022566558629 1.075693832818164 -0.6428505092015238 0.5673818910499708 29.93302713035708 29.94530501053821
3475 5 -0.001544788107638616 -0.001891718095556841 0.03467901214505091 1.079449488714886 4.996722991288887 -1.412424114540749 9.41843094390172 10.75495346229153
3476 5 -0.005456516696794585 -0.003873768974510278 0.03652679850321459 1.072644306784631 0.4536475136645665 0.2708754585172679 36.14096886816333 36.14483089336886
3477 5 -0.008891468910326597 0.0004155153250472772 0.03628254549996929 1.07364586763889 -2.433563524447669 2.754907318653505 29.89371949001925 30.11886801840085
3478 5 -0.007634072095848114 0.002902166062562194 0.04954835865385355 1.144336943737583 -1.157801427891855 5.215730293106137 -113.6140273534981 113.7395777999825
3479 5 -0.005262299186387787 -0.003650624598387128 0.05359704344313426 1.176748498307914 0.1971962678637331 -6.371203686492267 -25.91178728432232 26.68429956080541
3480 5 -0.006396581723271802 0.0007208546610633422 0.05356331601850908 1.177118157495173 -0.2335598671610408 0.220289009617301 -32.5753061292581 32.5768882319074
3481 5 -0.002091969976717643 -0.002514727988835747 0.04870353415519885 1.132878142464715 1.078832880488994 -2.288400795436199 -121.1395653145449 121.1659809648792
3482 5 -0.004364520888294238 -0.003929421996544607 0.04658091610291941 1.098729695249669 -0.04445198098663272 0.6075064461315154 -116.6644938735497 116.6660840640168
3483 5 -0.007558313452890604 -0.00191714926261264 0.03483342315055432 1.079005871588739 -3.459656014966765 2.229925388400544 18.40493895431303 18.85957488629365
3484 5 -0.005618561303663944 0.004100696401385186 0.03489813698614022 1.078721318133911 -2.617211065384303 6.515115136341487 15.80992210497557 17.29884839999331
3485 5 -0.001544333344442062 0.001891906256680876 0.03469975648138996 1.079468831266527 4.621717321413891 1.623781178564774 9.446434972437316 10.64105586882266
3486 5 -0.008436643965299553 -0.002355850517502544 0.03477366056090518 1.078743814929466 -4.986470300410887 -2.724153598657048 12.44123041417725 13.67735767992506
3487 5 -0.00635135749117422 0.0007229942385063948 0.03446695990457861 1.080290837450899 -0.1413228814719832 0.2243254850622485 20.45568053789527 20.45739867012674
3488 5 -0.001556661632602184 0.001633364513849326 0.05170582331961694 1.168477278985616 6.865882887085702 -4.815402121797757 -68.27472608864655 68.78783808125898
3489 5 -0.001074597140253892 -0.0005140015839398116 0.03683367969880733 1.071210067270268 0.8318334476365682 1.082531143589112 37.59956683192985 37.6243438017224
3490 5 -0.006988635764570874 0.003083988902376432 0.05354785046932543 1.176535357038897 -8.719569867672886 4.434252223772583 -25.29577860512887 27.12139204946819
3491 5 -0.00790924291990013 0.002634751269926346 0.05017833925754606 1.152375980003621 -6.847033526415977 -1.969965983263394 -100.5075282527222 100.7597432983968
3492 5 -0.002356334428926916 0.002944954447814347 0.05309048557903691 1.17495510074619 6.090427198218269 4.132813723944379 -27.13148321073431 28.11211187278497
3493 5 -0.00881435604927161 0.001230420000818734 0.04182500379569996 1.048636425714834 11.54804631306518 4.618893806910624 -7.91193206492441 14.74076736971976
3494 5 -0.001475374436118235 0.001795962542309441 0.03601292611465183 1.075356697176691 2.628458468881618 0.2683249554618959 31.09337411021992 31.20542750488212
3495 5 -0.002340790079115106 0.002917216129404923 0.0347068946687529 1.07954782875216 2.283920984825436 3.460501397244773 11.42930133062482 12.15813694163219
3496 5 -0.005853578177241793 -0.003819793446366392 0.03596994654292261 1.075308776622016 -3.380927530014981 -1.71929337873779 28.09304189742066 28.34793896803818
3497 5 -0.00661881598968595 -0.003284283814883496 0.05262154528731778 1.17322168823748 2.087025427789691 -6.284794976255641 -33.16712595988977 33.82177652739434
3498 5 -0.008463829906432779 -0.00229911484577768 0.05319123755107009 1.175180323107619 -8.49430793805494 -5.121306511735223 -26.85215458991141 28.6255000629534
3499 5 -0.003556915474113145 0.003626969884407313 0.04646441086791814 1.096950353888729 -2.683864901633001 -0.9575286433432785 -115.1215115956796 115.1567732440747
3500 5 -0.007878033004826691 -0.002283477860558448 0.05359561877553526 1.176732186221745 -3.646166378259088 -7.254406462295004 -24.1561065196287 25.48408178777063
3501 5 -0.003657241491328889 0.003116484839963247 0.03435423968919044 1.080356371403976 2.018530196484466 4.505501372996616 9.980805314785119 11.13510132454289
3502 5 -0.007036058027437155 0.003043768522571394 0.03437362254997259 1.080305964884707 -4.462715605810837 2.485653290992845 12.81939248451795 13.79967849384494
3503 5 -0.008617291062098912 -0.0004592465030994658 0.03433748432931705 1.080264425459706 -1.319436383837772 -3.354019365011524 18.83337629489207 19.17515113204768
3504 5 -0.001841221547789519 0.001264650970769597 0.05359862188278064 1.176871976513085 7.003727329955026 2.275412321939473 -22.34829096835206 23.53031676270677
3505 5 -0.001830217903372703 -0.001230853066190337 0.03434571759954713 1.080322186915733 4.996128494351831 -2.069848738940708 9.690871859341412 11.09768314236553
3506 5 -0.001830656943173949 0.00123227431506922 0.0343471015018275 1.08036112522557 4.625994771507702 2.065262535550332 9.637287956777032 10.88772042847372
3507 5 -0.001830656943173954 -0.00123227431506923 0.0536528984981725 1.177033072418103 7.716290567005321 -2.712726897646918 -18.69843524929278 20.40910355962915
3508 5 -0.001186284854145928 -0.0008639867382748049 0.04984525297809111 1.148641727160317 -0.3737353569663409 -7.445647471203963 -104.2863346935106 104.5524602684671
3509 5 -0.00864342018598894 0.001582881374957806 0.05162657986163823 1.16676568874169 -4.948630668630829 0.07973709151768656 -70.21744689518273 70.39165541437482
3510 5 -0.001564712720625373 -0.001939276404644111 0.043861883027386 1.061617984782165 -10.89123257924135 -4.308988098296217 -63.32481445913524 64.39890101399472
3511 5 -0.008749017049391837 0.001368354451359768 0.04372454748185434 1.059271818524161 6.689986802988041 3.535383869272325 -58.53389335762214 59.02094148799006
3512 5 -0.008246689096638603 0.002226734945216525 0.05198319277989528 1.169827760706216 -5.215722321442301 -0.2809635031267756 -71.13619854025849 71.32770459354174
3513 5 -0.003942082512880748 -0.003836513019309131 0.04587686102337557 1.087694359012819 -4.228617202387362 -0.1350352808943796 -105.0797047075359 105.1648409849715
3514 5 -0.008950806719251917 7.557099563449169e-06 0.05360239652178461 1.176427047250376 -7.255600087256737 0.7312728381548471 -24.41755077433492 25.48323524215963
3515 5 -0.007566598476620331 0.003067172636526221 0.0456371983980951 1.083422542374483 -0.01591715953456737 -8.410093866223036 -98.65828632379807 99.01609663354323
3516 5 -0.003200011615451865 0.0007063359481082969 0.05336233463333454 1.175852891197718 0.1146254648502849 -0.576358995290196 -41.05203435603677 41.0562401281202
3517 5 -0.006932168528005093 0.003674834558689271 0.03486737831164807 1.078802706322113 -1.601220554439784 6.810916493747612 15.76504214988727 17.24787073051296
3518 5 -0.007955076347118012 0.002596371997634993 0.03738667122219485 1.067600730379723 -0.8999204773170535 -0.7665709061327922 38.70847804229027 38.72652527880718
3519 5 -0.006891526505153163 0.003523840693399019 0.04562825337216334 1.083429372446027 5.909166064776422 -4.374606554602596 -98.74374641354919 99.01708378796047
3520 5 -0.006880385262963582 0.00371641914747835 0.05321718522897269 1.175387628291662 -8.285557527431902 5.041167389559059 -25.47363977700038 27.2574788943936
3521 5 -0.001796144517153601 0.002298236204136279 0.03633073921067698 1.073923078090612 2.475351326499299 0.6849777204572737 31.20871719787509 31.31422341052176
3522 5 -0.006952002694104264 0.0005528760251903219 0.05356331601850908 1.177103650237179 -0.3615673190496331 0.1832702481324386 -32.50812754701425 32.51065479997291
3523 5 -0.00700436083091409 -0.002146178301113595 0.03533060270956069 1.077695124834928 0.5191107543797584 0.9478229850365484 20.11803293146439 20.14703683963878
3524 5 -0.007878033004826691 -0.002283477860558449 0.03440438122446475 1.079885597114004 -4.946397437320277 -2.76302136203415 12.4604313358184 13.68807816056114
3525 5 -0.001579769647111746 0.001957347172422792 0.05309348868628241 1.174980372844835 6.775117875402594 9.435626170063173 -23.89904379630475 26.57249626633661
3526 5 -0.005497990457190301 -0.003898969033227891 0.05188022137448164 1.169169598195011 4.712349035612958 -1.056817932126915 -73.40739765333764 73.56608680506493
3527 5 -0.00653139078331295 -0.001429040533863018 0.03492622148509594 1.078870291203707 -0.3940901028577941 -0.2459538579476121 20.30356018772205 20.30887383893705
3528 5 -0.008324252339355229 -0.002196860405709615 0.03598856595865865 1.074963279925322 -2.387902966158387 1.303492034802308 30.98092905793884 31.10014690244438
3529 5 -0.002893157178775621 -0.003321048068710497 0.05359435059483393 1.176437067209336 1.563063818321203 -7.462417220020317 -22.52811519803823 23.78333058345449
3530 5 -0.007037722735249751 -0.003042272608608241 0.05359561877553526 1.176693775435219 -4.965911768207836 -4.941023329977607 -25.39255317228123 26.34114173387588
3531 5 -0.002290804989515922 0.002868364542572153 0.03590667687338844 1.075948473044132 1.05371206554527 1.978155020398368 30.00794485359912 30.09152971748776
3532 5 -0.005946154164974392 -0.001778609143757361 0.05354741989610757 1.177040832356419 -0.2789727937616319 -0.248646221379579 -33.100772454502 33.10288186620289
3533 5 -0.005940966216577221 -0.001759110722979798 0.03449717955900637 1.080196223942816 -0.2339510882735897 -0.3286059041139741 20.31353972142856 20.31754441279701
3534 5 -0.008858250684918485 0.0009291800656915127 0.05196021974212577 1.169366273738502 -4.353278267333929 1.396630705177117 -71.57185611456777 71.71772581924135
3535 5 -0.002895142210932885 -0.003322196826993207 0.03440438122446486 1.079789513685452 1.415745411355895 -4.702752101081363 12.30446178494379 13.24839583538862
3536 5 -0.004669057721572202 -0.003934242431473282 0.0344807542365103 1.07943749845351 0.7003311482153854 -5.781170303021409 13.63784444860238 14.82913331904371
3537 5 -0.006943425115679977 -0.003670269451198698 0.03470836048635171 1.079091801681265 -3.605308367495407 -3.634318031753672 11.7967266381997 12.85959856904844
3538 5 -0.00289514221093287 0.003322196826993198 0.05359561877553515 1.176343747225861 1.312383896874901 7.936327330421849 -23.68357805611286 25.01238718172194
3539 5 -0.002605196320741922 -0.003133287788940811 0.03934486892342236 1.055924416308919 -2.18726584367706 0.5224015503061976 34.72544103675722 34.79817941283684
3540 5 -0.007055261290500824 -0.0001818559464914394 0.03489600183066818 1.07895258141199 -0.4841606656906489 -0.02922717988239164 20.33385452947391 20.33963878253624
3541 5 -0.00371330630160171 -0.003720417284753207 0.03991285301244871 1.053039307767352 -4.911911967482629 3.273352777494857 26.58500069598674 27.23240679021683
3542 5 -0.002954554304847097 -0.003378570234406858 0.0399589102985155 1.052907566022212 0.2194751351602706 4.868711146169572 26.61998577994929 27.06244926987377
3543 5 -0.00899789002267681 0.0004401423625758883 0.04183812999239065 1.048830022169643 6.95696893967826 -6.698714891381846 -7.807025183503625 12.41860862735954
3544 5 -0.007037722735249751 -0.003042272608608241 0.03440438122446475 1.079974363853165 -3.157286034826173 -4.35116619650927 12.2943733839616 13.41837245270889
3545 5 -0.002706606969264377 -0.003130612586768433 0.04860890263624879 1.131487298804027 2.883817754922264 -0.1785389595701125 -120.6584753334314 120.6930650484606
3546 5 -0.00695690544750574 -0.003665795150036701 0.05307412539121022 1.174505649915877 -0.2601043012468956 -12.06561400785891 -29.88246980573463 32.22745254165787
3547 5 -0.008617291062098907 0.0006970343708920329 0.03433748432931705 1.080044480971667 -5.298979275741009 1.587141393095326 11.2544612239931 12.54037864694578
3548 5 -0.001891095789078991 0.002428254592017129 0.05349486680350177 1.176033394539586 6.955009312660748 3.478074791747545 -26.80071057397629 27.90604318183128
3549 5 -0.007052085278129735 -0.003363835701990099 0.05181097860608264 1.168434435000227 -5.642420694382245 2.173899761147116 -74.87524263916497 75.11900366576846
3550 5 -0.007618270818388265 0.002955232948758368 0.05354785046932543 1.176182099018472 -4.65853967484257 5.347597623362905 -26.73198005852537 27.65678126776283
3551 5 -0.001158163286031112 0.0008227092325280048 0.05359862188278065 1.176554437826607 5.239286082921193 3.820871953612952 -22.84408573462343 23.74660889886013
3552 5 -0.001147598681415542 0.0007903325768276286 0.0343471015018275 1.080086705155589 3.781566708728855 2.802011247281571 10.00634867844936 11.05796218465066
3553 5 -0.001147159641614294 -0.0007889113279487444 0.03434571759954713 1.080037893515615 3.780856151371496 -3.132401414899218 10.2348591093413 11.35161454813776
3554 5 -0.006906778462006682 0.0005550156026333746 0.03446695990457861 1.080271325894702 -0.4277754087462243 0.1414919221269944 20.34446104990095 20.3494498003089
3555 5 -0.006707242790327616 -0.003535364656676532 0.03589357353087706 1.075579588354967 0.9674420772733685 -3.040999192649875 28.62318222869974 28.80052397370452
3556 5 -0.002904469559175175 0.003327522768625313 0.03435423968919044 1.080033791635669 1.144498080324305 4.369047021541763 10.44070991063491 11.37571409496296
3557 5 -0.007665693081254544 0.00291501256895333 0.03437362254997259 1.07991617287127 -4.705453229330744 2.42543870912219 12.65358561643256 13.71631408132362
3558 5 -0.006321728036528135 -0.003948594353663944 0.05347850661567496 1.175680008245873 -2.989165073524445 -7.930487784871299 -31.76508844310717 32.87626177261022
3559 5 -0.001124495421716112 -0.0008453341884282783 0.03617939729835445 1.074638240020032 0.2703713490856763 -3.897171544551083 29.43336347592745 29.69147911809254
3560 5 -0.001147598681415545 -0.0007903325768276377 0.05365289849817251 1.176722427246165 5.241756720245164 -4.882415162021409 -19.79688568654546 21.05304429802779
3561 5 -0.001867639156434037 -0.002397140933200791 0.0536168484959598 1.176560891197103 7.708497860882288 -2.618434905692174 -20.80358250149089 22.33978929002939
3562 5 -0.005941673396879071 -0.002430224924015408 0.03449717955900637 1.080023403652458 -1.601415392021722 -3.630113844435888 20.0405457111295 20.42953083605299
3563 5 -0.003160327179090935 0.0009498170026559524 0.03453486760678289 1.080133808121401 0.3390898337357527 0.2894380253242232 19.51808062202474 19.52317155212503
3564 5 -0.00868372697153246 -0.001529738373676594 0.03626835106340398 1.073647339252274 -0.126425614129684 -2.779084999596019 30.34799543055493 30.47523787477089
3565 5 -0.009019810178080413 0.001155105835068291 0.03472430452724213 1.078917537072085 -5.565586889530445 2.439140540134746 11.48262804674136 12.991378327924
3566 5 -0.004652355881328172 0.003932612845410662 0.03440438122446475 1.079854710486638 2.146173388395938 4.394035581219642 13.10219352185013 13.98503071094571
3567 5 -0.00766735778906714 -0.002913516654990172 0.05359561877553526 1.17643294763723 -4.697498877947751 -4.997371444716601 -25.51905333067685 26.42465326089859
3568 5 -0.005230659360698527 -0.0002023517408431513 0.05355053770740975 1.177020001152699 -0.1229188387922481 0.1391984896048094 -34.52342804785143 34.52392749146036
3569 5 -0.005946861345276242 -0.002449723344792971 0.05354741989610757 1.176926443798541 -1.571105939240903 -3.368267819229229 -32.6715986327048 32.88231985719577
3570 5 -0.004668932555771804 3.032312010600092e-05 0.05355053770740975 1.177022517663798 -0.08134918967907746 0.1564185432666263 -34.52232350202416 34.52277370707267
3571 5 -0.006298655824840054 0.003956137848353375 0.03449375576167547 1.079596208489489 -2.001028039820701 6.227496491518057 16.11378277692789 17.390797024577
3572 5 -0.00766735778906714 -0.002913516654990172 0.03440438122446475 1.079685818792605 -4.324086685388112 -4.081291261367041 11.63944466762925 13.07024621779042
3573 5 -0.007445376025311238 0.001016015971427583 0.05356331601850908 1.176979947798393 -3.340875554951067 1.417328509763386 -31.9820063218539 32.18724899629294
3574 5 -0.001866224091024877 0.00239519033197559 0.03435265497956246 1.080064632020599 4.632581575642168 1.618563773121419 9.473359375411748 10.66888459954188
3575 5 -0.004637542085783557 0.003930956556880852 0.05360388145307511 1.176422034141278 3.708265246107985 7.146203900588968 -21.47634352327557 22.93584078367362
3576 5 -0.007400151793213655 0.001018155548870636 0.03446695990457861 1.080046352132924 -4.621694499267876 1.878700983099173 20.04731638461852 20.65876258766374
3577 5 -0.001867117894022683 -0.002396423419730444 0.03433329454550378 1.080048415956895 4.995745273955528 -1.884953387839114 9.149571673147452 10.5936387477881
3578 5 -0.004634146002861545 -0.00393054881677208 0.05359704344313426 1.176379404704287 3.413641121961914 -7.130567882338449 -23.86609146327377 25.14136563052085
3579 5 -0.008811474025104592 -0.00169697756928559 0.05359561877553485 1.176326526311881 -10.06419720262801 -4.471426275564188 -26.15467353560444 28.37866568436998
3580 5 -0.008811254501238402 0.001697470310001057 0.03438682019792508 1.07950142898263 -5.436264428179724 2.023837966290141 11.72568347440046 13.08206956061302
3581 5 -0.007430541520736883 -0.001081111333950571 0.03442904192608957 1.080156320900651 -4.695861089459588 -1.899033809470675 19.48248009467657 20.13018806222342
3582 5 -0.008944531897164886 0.0001188939338962851 0.03433748432931705 1.080032590795163 -4.523249000625615 3.163290495152152 11.83309856279634 13.05712104084332
3583 5 -0.008811336330439228 0.001697286711421141 0.05360326965076373 1.176293277535513 -9.254076574630144 3.536743643691408 -24.56217351240467 26.48484201394797
3584 5 -0.006294294822664823 0.003957502057337417 0.05366933475964727 1.176760635588117 -4.281663010460177 11.23709893932594 -20.90978983666805 24.12103525392244
3585 5 -0.006937168189529906 -0.0008557717105362917 0.03442904192608957 1.080383914213053 -0.5375305141971277 -0.1765565490076272 20.34930334537169 20.35716723688848
3586 5 -0.008784288083971366 -0.001753713241010453 0.03436927933644043 1.079682117359963 -1.605192112469733 -4.20275851166002 13.90308556559609 14.61285766267338
3587 5 -0.006308247704702372 -0.00395306865482594 0.03430397926188696 1.079833846593772 -1.93438451675029 -6.217678674533611 9.832534315539652 11.79322274124669
3588 5 -0.002005929055613043 -0.001136571857928709 0.03795809021252927 1.064197158435425 0.1015111994633816 0.9190514296299637 39.20847481247527 39.21937604264541
3589 5 -0.002835633204637404 -0.001044771446464508 0.03743842223040941 1.067613384240225 2.089113645457994 1.593114161663016 39.96071565574407 40.0469874556746
3590 5 -0.002724839911102525 0.002092126046877011 0.04911726838046213 1.139259797420004 0.5101131051958029 0.01927350528915939 -121.8726802300937 121.8737493200023
3591 5 -0.003115996126834592 0.001394112919137601 0.04861168615067488 1.131426356414779 -1.245952389692316 -1.701285470606648 -123.6400463837651 123.6580278000157
3592 5 -0.001754999000557449 -0.002124638216185048 0.0371080421304622 1.06955540156684 -1.04995537365632 -0.7509513576368252 38.26580503423718 38.28757199335652
3593 5 -0.002583903465828332 -0.002030872119481349 0.03708476656463274 1.069822185986104 2.331164502562789 -0.2132280915543513 37.894181113451 37.96641616502752
3594 5 -0.00531680804987955 0.003231139188207249 0.03984680800246004 1.053154996432613 -3.674390761877626 -0.9283689894500219 29.51834505804495 29.76064030590321
3595 5 -0.004805638733637817 0.002588236491031126 0.04010619511471777 1.051947663872085 -2.820483802232265 -1.973380508685733 30.56005320190894 30.75331219908223
3596 5 -0.008127947030006983 -0.0009696577590165047 0.05041278667865391 1.154630296929297 3.926437849801082 5.47302497514222 -103.0394502518786 103.2593783865477
3597 5 -0.008773664758086473 -0.0009165235168350787 0.04989336791253442 1.148498057715747 0.7648015471117829 5.610682673840255 -104.120213843254 104.2740792922093
3598 5 -0.001690306801184709 -0.0003552059609423308 0.03783815550364557 1.064950016781708 -1.442139390495397 -0.3778266326548252 39.62696783579518 39.65500093109453
3599 5 -0.00115713078983512 -0.0009369541915030758 0.03758007211509772 1.06667955539806 -1.563303028907886 -0.2934170252520849 40.01943307226771 40.05103036548017
3600 5 -0.004632059775656125 -0.0009596601877462028 0.04657483284517636 1.09831467506002 -1.843752667837794 1.245520886709345 -119.0786849610396 119.0994708562129
3601 5 -0.003947738752741936 -0.0008444252184426346 0.04614470171587133 1.091327422217486 -2.653263726508956 1.261538955999262 -115.4636081656831 115.500978781906
3602 5 -0.00387962410545254 7.515592517449781e-05 0.03602284573692598 1.074789459394073 -2.837208133102239 -0.8159457802965029 22.28895237342774 22.48361437607075
3603 5 -0.003601580144553623 0.0008004086861502571 0.03583098890953833 1.075769333399515 -4.205925299750524 -2.714103658237705 22.53456919590465 23.08382496770749
3604 5 -0.0047957015290953 0.001288370048283634 0.03471244160394812 1.079215907254937 -0.02768270696763842 0.144562632399876 23.47381201597712 23.47427347647597
3605 5 -0.004235316337634433 0.001514491977287306 0.03524730921073101 1.077626183843402 -4.330248370007184 -2.229150462396903 22.4704746656394 22.99222465158811
3606 5 -0.001794588653091217 -0.002175004032704307 0.0399698241662916 1.052739244532598 -2.561055909568461 -0.8664741421127015 27.70285028003631 27.83446960962241
3607 5 -0.002065963699436031 -0.001455452990882272 0.04008922845778051 1.051937714697008 -3.068590464866831 2.243735915171814 27.61862445167055 27.87900670577267
3608 5 -0.008774925406717402 -0.001156934859064808 0.04185610095762264 1.048822420655408 -0.6960582755121397 6.338261460009946 -7.807634203527521 10.08053606285148
3609 5 -0.008071747399603233 -0.001280669940839828 0.04164929178332625 1.048741239949273 -0.40004275759688 6.199697080476671 -7.804994961268376 9.975681653050152
3610 5 -0.005746483096377192 -0.00355368848495779 0.03528191305740363 1.077710021515903 1.266702430351635 1.332128124822814 17.36105051761494 17.45809770459487
3611 5 -0.005398838977705373 -0.003108749904125744 0.03497793379551667 1.078599082796981 -3.002953385308987 -1.212791617682976 19.05933298203169 19.33253129474312
3612 5 -0.005334847692596144 0.002930956459818253 0.05299900518157559 1.174570511263564 -2.820011988189752 -4.200741232227591 -37.59292233128616 37.93186660210363
3613 5 -0.005668538929230444 0.003380328443161766 0.05266833994122286 1.173426885822036 -0.07062584519367805 -5.838310017633679 -35.97878855726038 36.44947294433847
3614 5 -0.0056183038370897 0.003670189032393871 0.03710921287272359 1.069429821427067 -3.185122873681161 1.133954122418478 37.76459490381254 37.91563645676096
3615 5 -0.006274006495801619 0.003462193739377466 0.03709479712862045 1.069487276163733 0.8758216038742119 2.931242710237644 37.32551519990297 37.45067866202589
3616 5 -0.008803639880606673 -0.001212060754867921 0.03548248759174009 1.076538878105273 -2.929941803823006 5.045914702562783 21.08244838557654 21.87499586490996
3617 5 -0.008921786977406039 -0.0005788524257859663 0.03545069258461671 1.076684537910964 -5.297780580230814 -6.979788571851133 22.19603792254021 23.8631101712006
3618 6 -0.003910807325978588 -0.0004352096529457259 0.02440696469187045 1.082425459494948 -0.006370836667560133 -0.006203714339760004 12.28035663625452 12.280359855771
3619 6 -0.005213767692594899 -0.001176746106507706 0.02439363684120256 1.082426403589467 -0.004651104913354485 0.00118017373872779 12.28021104176474 12.28021197927249
3620 6 -0.005897110512608496 -0.0007828387912373483 0.02446245718515427 1.082421367662823 -0.009895445387466733 0.004223642339004722 12.28009667656729 12.28010138984337
3621 6 -0.004436282551345452 -0.001052234627508525 0.02438318896024728 1.082427169936945 0.000986830337440343 0.002113209003639324 12.28019343633284 12.28019365780681
3622 6 -0.005915028005258324 0.0002895647635575742 0.02422439875291615 1.082438720037031 -0.002008540623760388 -0.01731354177723349 12.28073385642854 12.28074622510353
3623 6 -0.005295935904871964 0.001117526693416222 0.03017575041688436 1.082005114616377 0.07970528993914017 0.2837953848814084 12.17619652349504 12.17976414108652
3624 6 -0.003898196155963385 0.0003843757495967994 0.02438244682927417 1.082427266118992 -0.006408440337445445 -0.003965792869758229 12.28033043404196 12.28033274650479
3625 6 -0.005937063502689333 0.000647716419457554 0.0301050972846148 1.082010346941177 -0.2397076910327603 0.07309710717214429 12.17834151039613 12.18091970698661
3626 6 -0.006169526255437888 -0.0001097189629144594 0.03020490442207951 1.082003283367884 -0.2236025509829522 0.1309491987139289 12.17975105143659 12.18250719139622
3627 6 -0.005883524645750027 -0.0008009583158224592 0.03018766540809766 1.082004897702677 -0.1341475934015392 -0.1019565882175557 12.16933159030684 12.1704980209331
3628 6 -0.003905011840953538 0.0003999997663543838 0.01228344005152546 1.083300267258812 -0.01864110516991993 0.02075815779186975 12.12667721686143 12.12670931101521
3629 6 -0.005428144638632639 -0.001737002804186502 0.01168300245377399 1.083343356117255 -0.01854807778204618 0.01974940911623856 12.13342507256568 12.13345532245103
3630 6 -0.00612790004250922 -0.001383195685801267 0.01168412558893117 1.083343185993396 -0.007450980310295503 0.01460300971917306 12.1338465979653 12.13385767297254
3631 6 -0.005159594233153451 -0.001173281806050923 0.0122862671854821 1.083300077267349 -0.02295935600816454 0.0151905483055781 12.12673681737806 12.12676806584255
3632 6 -0.003905798318268421 -0.0004114825851892954 0.01228147092286156 1.083300493562444 -0.01861508350838368 0.01479410110688738 12.12671751959327 12.12674083118675
3633 6 -0.005859349637030032 -0.0008194746876656876 0.01228739032063927 1.08329990714349 -0.008580830092982019 0.007876980128022385 12.1266937840676 12.12669937823168
3634 6 -0.004461308650728544 0.001006304151179978 0.02425075094386937 1.082436874804586 0.00524005880269434 -0.01763138164291453 12.28071080421504 12.28072457881044
3635 6 -0.005269322454643021 0.001134610824433195 0.02404765825518281 1.082451654207272 -0.001445531532291695 -0.01697079090038735 12.28087275353005 12.28088456446449
3636 6 -0.006176083303786218 -9.045221950704387e-05 0.01228632305460738 1.083299922770984 -0.01044735633686787 0.0120279906395613 12.12667893761939 12.12668940296217
3637 6 -0.004400546476827129 -0.001022759492818851 0.01228158350475658 1.083300489355611 -0.01720737767276571 0.01645001781271336 12.12669836161796 12.12672172726827
3638 6 -0.003885473674138177 -0.0004332207378853742 0.03031302767190261 1.081995636833054 0.1779099435538484 -0.1222754587027522 12.15955527640762 12.16147144698489
3639 6 -0.006778837744057489 7.264814669381646e-05 0.011667069320072 1.083344298412214 -0.001259515232381647 0.006390921228191175 12.13791434832487 12.13791609616427
3640 6 -0.005524869449258195 -0.001718897933119914 0.02366607560987249 1.08247924750341 -0.008236713180516692 -0.001820988364947816 12.27670230346339 12.27670520161276
3641 6 -0.003428497883779661 -0.0008154563677735317 0.01165497464490576 1.083345446308703 -0.0094604828340811 0.001360697260726103 12.11088624921384 12.11089002070572
3642 6 -0.006208212269271792 -0.001324990617849557 0.02373489595382421 1.082474211576765 -0.01132636265193206 6.271636067361626e-06 12.2766388601402 12.27664408496209
3643 6 -0.003428036275090879 -0.0008112603717666335 0.02963839782857515 1.082044021938079 0.06214560590709728 0.04346166190972407 12.35993547561819 12.36016811996644
3644 6 -0.003923246042338369 -0.001426733275403087 0.01165508722680078 1.08334544210187 -0.001890667243475148 0.01050827229751372 12.11094619951983 12.11095090593935
3645 6 -0.003444388787808889 -0.0008515229766315789 0.02363369015074037 1.08248165415259 -0.008264138038350761 -0.003511254459015358 12.28403773426402 12.28404101595675
3646 6 -0.006355284720248116 0.00110855712798109 0.03076222219596402 1.081961507775675 -0.3070241676177636 0.3358319999766291 12.4952262709277 12.50350856893342
3647 6 -0.005198307307113177 -0.001179873347437242 0.03007254477212686 1.082013427447322 -0.1073886021773663 -0.1189157200824554 12.1680844967186 12.16913939354973
3648 6 -0.003407464765719103 -0.0004067475198091053 0.01513413803285786 1.08309561755929 -0.002265883335381024 0.01287644662707561 12.16470301893524 12.16471004487971
3649 6 -0.003969864013175754 -0.001468547951194378 0.0236099144191172 1.082483364594587 -0.002346491314126352 0.003447763421861685 12.28407760756791 12.28407831552068
3650 6 -0.003423431590765262 0.0007995135762071247 0.01165286870472057 1.083345553665831 -0.03303409057275235 -0.0008817787320029625 12.15346944558408 12.15351437212379
3651 6 -0.004403625558335716 -0.00104901979614177 0.03019467824192118 1.082004441868667 0.2287332530772309 -0.0614136854965979 12.16024509383299 12.16255118319832
3652 6 -0.004475029434786127 0.001003177257917615 0.03052878634835969 1.081979431309907 0.09701848026672522 0.2831733383795554 12.17538811460913 12.17906710164812
3653 6 -0.005714157122430746 0.001578367401939758 0.03083287532823357 1.081956275450876 -0.2393503977043895 0.4034762067211344 12.51846733489614 12.52725453070756
3654 6 -0.004033140197422892 -0.0004070676980012161 0.01451470937966274 1.0831401337039 -0.00794492459675806 0.007780790085209839 12.15380750963429 12.1538125970316
3655 6 -0.004422798563354481 0.001015735353361069 0.01238934488800361 1.083292505024047 -0.02892846517709196 0.03283832354187743 12.12657620633817 12.12665517361311
3656 6 -0.003946188159288418 -0.001427059430023029 0.02952004839859371 1.082052826973693 0.007160614239149748 -0.02186039241868126 12.3597448326758 12.35976623889017
3657 6 -0.003885473674137537 0.0003791831025789615 0.03031302767190261 1.081995420797951 0.1713692066135031 0.2028468603298928 12.17071549447983 12.17361203182081
3658 6 -0.00340927963595426 0.0004035244185167627 0.01512958517974847 1.083095925512032 -0.002204012524250472 -0.004668911436398867 12.16470647760979 12.16470757325497
3659 6 -0.003555634129112323 -0.0008107989323708896 0.01588414973000039 1.08304164282738 -0.005341044126446253 0.002078811751914475 12.18372813700714 12.18372948504316
3660 6 -0.004031120093420863 -0.0004091080456076052 0.01650766042144642 1.082996720598303 -0.004354387741193686 -0.00207456457744466 12.17709514630791 12.17709610156488
3661 6 -0.004032180656547608 0.0004002430550626233 0.0165057207265319 1.082996857518863 -0.004373290308705919 0.003196250741262695 12.17709867308255 12.17709987787222
3662 6 -0.004034955067658049 0.0004032042403246519 0.01451015652655336 1.083140441656643 -0.007934797861693663 0.0002483622359862768 12.15377809403953 12.15378068675983
3663 6 -0.006507583343274987 0.0005030472713686622 0.02495010917627011 1.082385989881772 -0.007911811059072902 -0.01530004566808367 12.28657398024577 12.28658605391279
3664 6 -0.005939780885618485 0.0007152654277798184 0.02744098227080018 1.082204589763656 -0.009728858940581002 0.0305034875413865 12.30478640979443 12.3048280647927
3665 6 -0.005890605574782706 -0.0007766720651619163 0.02742352266356318 1.082205937433844 -0.02282967685126566 0.002766644914832338 12.30470438438198 12.3047258740493
3666 6 -0.005961905814934321 0.0006811852286111216 0.01228452506310012 1.083299912008093 0.0011148462715976 0.05198514236194957 12.12635423847665 12.12646571821028
3667 6 -0.005882480615664976 -0.0007802313135641505 0.01861622398033118 1.08284477312076 0.001678548657714006 0.007424196823739617 12.19674890332331 12.19675127839141
3668 6 -0.006179808674218858 -4.048574714097179e-05 0.02743168731876335 1.082205306428832 -0.02051935601691306 -0.002992226524611332 12.30470931011877 12.30472678298525
3669 6 -0.005199484661353159 -0.001160177600456771 0.02741402035121333 1.082206649240345 0.006656056205127982 -0.01368324152229145 12.30489404997794 12.30490345818955
3670 6 -0.006564660255205589 0.000844285594811982 0.01166527132856473 1.083344287649323 0.01138779926628262 0.05212897136521153 12.13696189419482 12.13707918457998
3671 6 -0.004003901008443252 -0.0003848148796598174 0.009509825152273211 1.083498925052105 -0.02438870894643665 0.05093301492776814 12.07267531638962 12.07280739000242
3672 6 -0.003373778121878647 -0.000379854392894462 0.008858925576216557 1.083545817629795 -0.09021858317410893 -0.001829359292702865 12.19418630558048 12.19452017893742
3673 6 -0.006785180335663294 0.0001021576907657921 0.02953663840826137 1.082051080669552 -0.02424148685177245 0.04580541901649712 12.44148892857365 12.44159686478857
3674 6 -0.006552717582914739 0.0008595930731378055 0.02943683127079667 1.082058144242845 -0.009497689538389534 0.0904185155631224 12.44546451582645 12.44579658875874
3675 6 -0.003558509562474225 0.0008088241066252069 0.01587765718197648 1.083042087700683 -0.00441856194653727 0.003003134657074146 12.17789583286301 12.17789700476112
3676 6 -0.004074900217837376 -0.001426790279717994 0.01587878048789319 1.083042037447008 -0.00128680034423204 0.008251255447456961 12.18373221540481 12.18373507737937
3677 6 -0.004418631696921852 -0.001021330014544304 0.02739880163462878 1.08220773784141 0.006674917197655874 -0.01367976340699663 12.30490655008956 12.30491596464126
3678 6 -0.006202945256846832 -0.001321964122381329 0.029509988796063 1.082053505423238 -0.08038218106988548 0.01528934942908223 12.33224302227301 12.33251446460295
3679 6 -0.006270496744911534 0.001243142166731914 0.02683814834888257 1.08224846667162 -0.004357968958267382 0.001811940294689843 12.33827976594628 12.33828066862561
3680 6 -0.003897076871970691 -0.0004063575897865422 0.01862679672425221 1.082844026367085 -0.005270284460917511 0.01028758909562719 12.19671195505314 12.19671743236367
3681 6 -0.003904257680386272 -0.0004061984092901681 0.0273960864059152 1.082207904737003 0.0228898426771183 0.00534600790154823 12.30502165467425 12.30504410584133
3682 6 -0.005182943580121866 -0.001162538328215577 0.01863147351886543 1.08284370320475 -0.005793866832208193 0.01157817896449507 12.19670191747372 12.19670878912947
3683 6 -0.003883779196791129 0.0003664145803487707 0.02138002112155881 1.082645133684248 -0.02271596881990125 0.02322574240783593 12.23594319797522 12.23598632699571
3684 6 -0.003901409159172151 -0.0004244179681025145 0.02138002112155881 1.082645161849038 -0.02196657764218304 -0.008977163630856046 12.23499431065485 12.23501732331249
3685 6 -0.003941218313166205 0.00141524916321381 0.01175877354119872 1.083337791431066 -0.04807681680628335 0.01730026743340265 12.15300850853397 12.15311591683658
3686 6 -0.003994013512214553 0.0003985775515158705 0.007450942123998591 1.083646392745811 -0.133346671482194 -0.2256723406017096 11.97211548732724 11.97498470070041
3687 6 -0.004550386182145916 -0.00102509939295471 0.01650229117933922 1.082997115217931 0.004215948880372679 0.008816404115752952 12.17476154677606 12.17476546895518
3688 6 -0.004403173402400753 -0.001019942926088047 0.01863309049147124 1.082843598970791 -0.00386327940159031 0.01195025018966852 12.19670405790708 12.19671052413619
3689 6 -0.006468351470812282 -0.001004642498292761 0.02685402934464757 1.082247377630828 -0.007268531395812351 0.002364556702494499 12.3229895653432 12.32299193581796
3690 6 -0.006757554570248432 -0.0002684561802718165 0.02686219399984774 1.082246746625815 -0.009270582045194372 0.007478312245040849 12.32302883249853 12.32303458874622
3691 6 -0.005167127408492092 -0.001804141039136796 0.03073579353964916 1.081964810405292 -0.02964229234224369 -0.2797271117316436 12.35364411261894 12.35684623129128
3692 6 -0.004424987121662463 -0.001041133924039592 0.02136390413532113 1.082646234076938 -0.02016030375849606 -0.006824155141229679 12.23507277146016 12.23509128408394
3693 6 -0.003423075257038314 0.0007904271888313752 0.0236220012333142 1.082482608343 -0.01891784099812256 -0.02185157127159344 12.30282072345665 12.30285467399292
3694 6 -0.006172479053297032 -3.60036091114709e-05 0.0186018797438857 1.082845779974493 0.001980421566271087 0.006658576544924165 12.19676401758832 12.19676599592894
3695 6 -0.005200932661534765 0.001774295119377813 0.02477861620560946 1.082398557657397 0.002308033472549884 0.001246856407332205 12.2982719435637 12.29827222334567
3696 6 -0.003992505242601064 -0.000412055906791233 0.007454723616292716 1.083645815119443 -0.1275083253319367 0.1155545382902255 11.93717152337033 11.93841175377663
3697 6 -0.005073984760265561 -0.001775351538792227 0.01924550292715334 1.082799420648338 -5.608136378681042e-05 0.00232903158494402 12.20899847325501 12.20899869553095
3698 6 -0.003273405777897354 -0.0004039784584557028 0.01924873317969679 1.082799122611056 0.01132909333628339 0.01672483149632725 12.21682577020277 12.21684247127035
3699 6 -0.004549617052002169 -0.001022573771820145 0.01451919616590763 1.083139856215849 0.001387965383557683 0.02119142797428529 12.15636650193076 12.15638505199353
3700 6 -0.004392918857620288 0.001645988446124596 0.024981708894296 1.082383778254711 -0.0009495319363507944 0.001608655234997515 12.29813980082718 12.29813994269345
3701 6 -0.005246481156997143 0.001765675417940086 0.02951933256151239 1.082052052748676 -0.08197555459375266 0.04108992822469834 12.44889315680328 12.44923086793944
3702 6 -0.006502444558421545 0.0005025450930823839 0.02342488416580808 1.08249678015148 -0.01561702828416475 -0.01279519695051177 12.2646512448755 12.26466786207697
3703 6 -0.00551772791820998 -0.001700879153996112 0.0293948681600922 1.082062035167883 0.006674073093235707 -0.0306744894187977 12.33801227090173 12.33805220707363
3704 6 -0.003522269852265157 -0.0007842859309697678 0.00811270706851068 1.083599387201003 -0.09806592839114613 -0.02552014542653799 12.15062414052775 12.15104667131641
3705 6 -0.006176265586610484 -3.408728210652719e-05 0.02138950634004382 1.082644359562583 0.0009760286838758782 -0.004105486230441908 12.23516463329128 12.2351653610154
3706 6 -0.003275220648132582 -0.0004061103605934043 0.02075328603280618 1.082690479122237 0.01121130387209829 0.004471959910627672 12.19374630100035 12.19375227503493
3707 6 -0.003257590685751559 0.0003847221878578809 0.02075328603280618 1.082690450957447 0.01121169476705187 0.007143201635740352 12.19374598380246 12.19375323044253
3708 6 -0.00429421458254445 -0.001632756136664697 0.01924711989975916 1.082799316414379 -0.006073627066350978 0.001250253426679967 12.20888700708988 12.20888858184755
3709 6 -0.003275120898925215 -0.000406051439234996 0.02676044559595998 1.08225414269129 0.01277489063237014 0.001132592196806162 12.31846330214005 12.31846997831982
3710 6 -0.006467445404066505 -0.001001445913558199 0.01921901389873277 1.082801281560061 -0.0062615616988974 0.007585621823784584 12.20518272845531 12.20518669188624
3711 6 -0.005090916129369412 -0.001776244075145193 0.02679586260346975 1.082251651746754 -0.0004397742332642136 -0.002322852847903042 12.32120208051044 12.3212023073165
3712 6 -0.005053361126198221 0.001294848823035972 0.0053262861402406 1.08379377308191 -0.2880109939784225 -0.648796144135959 10.84109754024698 10.86431234116763
3713 6 -0.005896130664190246 -0.0007820183094012878 0.02140224673628498 1.082643420025185 0.0006536116989459837 -0.003189831536243305 12.23518053770342 12.23518097097179
3714 6 -0.003284618814939018 -0.0004169020454366157 0.02528022960311783 1.08236196779535 0.01249293910792009 0.00152480535123783 12.30273524770818 12.30274168524074
3715 6 -0.005210161423315813 -0.001177533978181101 0.02134631639680863 1.082647457452737 0.0007846085144969107 -0.003265516506771598 12.23522413466972 12.23522459560155
3716 6 -0.004313510884839925 -0.00163801865843797 0.02072926199941183 1.082692172549753 -0.01907693036116251 -0.001708501791428753 12.24192850933939 12.24194349260063
3717 6 -0.004443207709023432 -0.001638244940975138 0.01513325557699554 1.083095734690866 -0.004353914743420788 0.005747518848245735 12.17738517060491 12.1773873053219
3718 6 -0.004310063164938104 -0.001637396489232726 0.0267806438868852 1.082252740347819 0.01000800682698638 -0.000552185594703701 12.32107715478845 12.32108123174908
3719 6 -0.005108147431032641 -0.00177465194374219 0.02528438481466156 1.08236167644199 -0.001459683402169549 -0.002925840189343052 12.28481546696739 12.28481590210687
3720 6 -0.003986187751803473 0.001412355590414554 0.02349030534790941 1.082492217028593 -0.01740789365895918 -0.02353933250933582 12.30290793299023 12.30294276758901
3721 6 -0.004425574686911305 0.00165132598244148 0.02987236849298772 1.082026369442206 -0.04669321588332272 0.03641620325305259 12.45121787314837 12.45135867770575
3722 6 -0.003904257680386174 0.0004062054311739012 0.0273960864059152 1.082207910724391 0.02289157297399487 -0.007840085460455172 12.30501546027653 12.30503925100191
3723 6 -0.004600837294151829 -0.001036833610854441 0.007272606662338034 1.083658432453567 -0.172889184312085 0.05696892218757565 11.93435555117165 11.93574373677355
3724 6 -0.005051039941350378 0.001302640093133659 0.03268611782836578 1.081825864258831 -0.04544353157439598 1.315750996857183 10.30607363374293 10.38982288320758
3725 6 -0.004557098229946007 0.001017177822996427 0.01658642400205987 1.082991002788451 -0.009580111892993761 0.009706180989423033 12.17844544405822 12.17845308002603
3726 6 -0.004330662289783193 -0.00165014046474301 0.02527393693370628 1.082362442789469 -0.0006337009025801046 -0.002785820128803277 12.28481646664635 12.28481679886013
3727 6 -0.004372445659714631 -0.001673287487841324 0.03085792700944348 1.081955824826637 0.1309000422516218 -0.2840573587557058 12.38415882311798 12.38810773122093
3728 6 -0.005244750797906209 -0.001161395190513839 0.009594020174917868 1.083492703623503 -0.008625115500462879 0.0123891868704365 12.06768907987899 12.06769852180603
3729 6 -0.0058745725442332 0.0009451544497752219 0.005296958307519814 1.083794615931749 0.3013236245240951 -0.4216151955048795 10.84205230520743 10.85443013191529
3730 6 -0.005859346552462748 0.0009610259275350662 0.03265739904424129 1.081826924001125 -1.136100475321893 0.8738384735405424 10.28838456317908 10.38774156820085
3731 6 -0.004083427135872624 0.00142575887455901 0.01595836045750445 1.083036232970271 -0.009008373178099091 0.009848705208404022 12.17784949954658 12.17785681396314
3732 6 -0.005909548798107952 0.0007252661685539485 0.0213082411916005 1.082650185600344 0.01099718875868808 0.02382146578379386 12.23607020832973 12.23609833825991
3733 6 -0.003982083549167799 -0.001387061581829213 0.008278061219965443 1.08358713100256 -0.1052734687923178 -0.03523129824321855 12.1504965576665 12.15100367646528
3734 6 -0.004907701976111401 -0.001417155476230183 0.005386811693320123 1.083790326362952 -0.1313053470770961 0.523530422673586 11.14412278607625 11.15718592964999
3735 6 -0.005253911114252728 0.001124622580923064 0.01213681348488465 1.083310449394564 -0.02737923937935204 0.03256403842211665 12.1267693768104 12.126844006488
3736 6 -0.003426053536161501 0.0008086234667844736 0.02963229480111034 1.082044181260352 0.03402500898426362 0.006121808815040406 12.40850803535085 12.40855619486595
3737 6 -0.005098685186493275 -0.00177441871257948 0.02071167426089934 1.082693395925553 -0.002372818105845529 0.001286003734622422 12.24225275079264 12.24225304828981
3738 6 -0.005278095856604858 0.001145566932233851 0.0274501077499488 1.082203957530455 -0.03565771598927946 0.01383163524345764 12.30460473776656 12.30466417825006
3739 6 -0.00675744384169856 -0.0002572182091055192 0.01920466966228729 1.082802288413794 -0.003920207598018147 0.001467836777499821 12.20530441054971 12.2053051283758
3740 6 -0.00675871295804578 -0.0002393734059223046 0.0207436247142482 1.082691089031111 -0.001635356553298311 -0.007248610855421413 12.23155232571313 12.23155458285694
3741 6 -0.005328764012665589 -0.001165514089183501 0.01451194004618155 1.083140373084391 -0.01347078309757174 0.01774933514082763 12.15237781328306 12.15239824140361
3742 6 -0.005938452479161336 0.0007153598913404793 0.01858846576996288 1.082846587882163 0.01973867299788875 0.05973241536076984 12.19660739767866 12.1967696374805
3743 6 -0.005321731678663877 -0.001172306537960512 0.01650545804811285 1.082996949820146 0.01766982435265674 0.01339435846251915 12.17109688766923 12.17111708433383
3744 6 -0.005222354669686851 -0.001781185258338495 0.01512599945726946 1.083096251559409 -0.0001025514488523226 0.007416094122035463 12.17741682669608 12.17741908534274
3745 6 -0.00619124217963103 -0.001324700200315543 0.02816278731751594 1.082151996414189 -0.02072100176623155 -0.01732227847657265 12.33192569011314 12.3319552645847
3746 6 -0.003272007644923815 0.0004026833571059095 0.02525571174052153 1.082363774419394 0.0124899034524885 -0.01117238844833702 12.30275578238503 12.30276719526791
3747 6 -0.00444218207428849 -0.001607712165199319 0.00785284168085988 1.083617352453136 -0.09909119568170043 -0.0321231866308068 12.15701237600597 12.15745865197753
3748 6 -0.005500121266201481 -0.001708205735610397 0.02815328500516609 1.08215270822069 -0.01057598920868935 -0.02284521091978777 12.3317948657051 12.33182056166243
3749 6 -0.006478578035625541 -0.0009873044332170651 0.02075636511048937 1.082690149493713 -0.003400099472914203 -0.00264353816945922 12.23151911571317 12.23151987395791
3750 6 -0.0033746133380718 0.0004293831303456053 0.008863490730321466 1.083545251630145 -0.08674855994936648 0.1018929107889851 12.19417993597398 12.19491417718192
3751 6 -0.006463758438033861 -0.001016534720812596 0.02889433980692076 1.082098446315767 -0.04210514113594294 0.005962630080353941 12.38751023359608 12.38758322609035
3752 6 -0.006751961704820886 -0.0002832107511768689 0.0171074114078243 1.082953533109148 -0.004361629706628236 0.01904519562396028 12.19040280279103 12.19041846031486
3753 6 -0.003942410291626073 -0.001426391977020319 0.02814111305728874 1.082153574206219 0.02159966868210094 -0.01526231046904484 12.32450132350899 12.32452970124957
3754 6 -0.005608811715897909 0.001673443671185947 0.02684727382803118 1.082247834438419 -0.01219900438652191 -0.003157570301210639 12.33814582158335 12.33815225633939
3755 6 -0.004004736224636406 0.0004244226435802499 0.009514390306378118 1.083498359052455 -0.02439624155430091 0.04942325217235359 12.07258787308969 12.07271368781391
3756 6 -0.006277537659375332 -9.475303486481456e-05 0.009562385422695644 1.083494844729075 -0.003533671060982195 -0.009167457448322997 12.06562723128598 12.06563123145478
3757 6 -0.006759991907162463 -0.0002836522605734749 0.02890375040513728 1.082097635896874 -0.04544271566157239 0.01421734021959647 12.38760517126404 12.3876966806706
3758 6 -0.00326846891676598 0.00037430482371723 0.006835119132932926 1.083691635114867 -0.3975194775208019 -0.08740889573478701 12.35578247305536 12.36248448215504
3759 6 -0.003275120898925116 0.0004063524012290733 0.02676044559595998 1.082254148678679 0.01277374568570403 -0.003623983600347728 12.31846337028844 12.31847052628588
3760 6 -0.005074441608244246 -0.001759210354607929 0.009108474750315978 1.083527340002751 0.003904647653989289 0.002933645005658554 12.04725617309369 12.04725716305128
3761 6 -0.003428036275090494 -0.0008112603717661837 0.02813839782857515 1.082153741101813 0.02721858740917356 -0.008604192654817721 12.32447383517609 12.3245068947026
3762 6 -0.006776678748195783 0.0001443685779445234 0.02818036257093263 1.082150554990284 -0.04604281971863819 0.02927623288299947 12.36276143614092 12.36288183903707
3763 6 -0.00653665095959541 0.0009001197528653135 0.02818965752296947 1.082149838325108 -0.04973754250448448 0.01755415497936174 12.36259055048174 12.36270306568721
3764 6 -0.003426731410209708 -0.000813381568234805 0.01014807723005663 1.083453410190639 -0.009464585340990065 0.006766950884651832 12.13303192105485 12.13303749962621
3765 6 -0.004541945880331192 0.0008272809467156759 0.004974742193770714 1.08381702939698 -1.032089075706629 -0.2948703328368208 11.05902149149047 11.11099062742059
3766 6 -0.006780422935901817 4.375442534529443e-05 0.01020788004389948 1.083448752762581 -0.01278221957325112 0.001449861874975827 12.08415591824281 12.08416276552246
3767 6 -0.005435458277994279 0.001150050760008352 0.009516201352882631 1.083498523716338 0.04569897526286396 -0.04512653607819251 12.05492382505994 12.0550949074902
3768 6 -0.004886692673599592 -0.00140852191455487 0.03268245405641708 1.081825427924844 -0.02461991442807731 -0.8562828406565426 11.18945734843349 11.22220041684346
3769 6 -0.004138760434081809 -0.001171355079765572 0.005330727283467018 1.083795502224029 -0.8298920757599447 0.2417004452582062 11.13368737573006 11.16719009165413
3770 6 -0.00645107033872113 -0.001024512530216342 0.0171223553600187 1.082952552655674 -0.005235467845772126 0.0212454979320028 12.19034846753579 12.19036810524022
3771 6 -0.006477804679059559 -0.0009926485869142551 0.02540186958744125 1.082353078205921 -0.01208341437538172 0.004340766727734693 12.28201052340652 12.28201723448666
3772 6 -0.003278036275090242 -0.0004050584515340916 0.02888839782857515 1.082098827111357 0.04245579150390045 0.0299392848284885 12.39457066141053 12.39467953340089
3773 6 -0.003274888954388933 0.0004049602531197392 0.01313254047546881 1.083239405403005 -0.006298532463492567 0.01269043157060385 12.14627913616122 12.146287398712
3774 6 -0.004422201142833593 0.001020586078067121 0.01862746970917839 1.082843930201072 -0.009842518330868851 0.003692055462300581 12.19672560361513 12.19673013378264
3775 6 -0.00494601667283143 0.001758655612599288 0.03190187650482286 1.08187649039931 0.08640320187420739 0.4889493830424345 12.80633925012214 12.81596122035684
3776 6 -0.003275675431703816 -0.00040652209842394 0.01313057134680492 1.083239631706637 -0.006303659868869157 0.0227075695964919 12.14628167363309 12.14630453533418
3777 6 -0.003271840457466557 -0.0004064305438926243 0.01712807524169799 1.082952053966526 -0.00186371151082201 -0.0004392538037071613 12.18071165888491 12.18071180938369
3778 6 -0.006305607774802019 -5.460993124177185e-05 0.01649595235888795 1.082997557221208 0.002165040354675792 0.02796133209179849 12.17531299598062 12.17534529586684
3779 6 -0.003272901020593302 0.0004029205567776041 0.01712613554678347 1.082952190887087 -0.001871481292576689 0.001597473272956148 12.18071319889305 12.18071344741557
3780 6 -0.003929540582001904 -0.001426320718152552 0.01018738160609106 1.083450564009522 -0.01611082881927762 -0.001252143574510729 12.13299559034758 12.13300635135672
3781 6 -0.003898891742205436 0.0004039143485388446 0.0186313495773616 1.082843677314887 -0.0052338922343727 -0.001680481864185936 12.19675540794349 12.19675664670104
3782 6 -0.005045948201168124 -0.001783827393104496 0.01313985439567034 1.083238937923491 -0.01979044766701356 0.01226846292134958 12.13183352408107 12.13185586928144
3783 6 -0.0061767748274436 -0.00133158143077016 0.01786611651344121 1.082898934937017 0.0008441397131641479 0.01412474029756075 12.20663505119623 12.2066432525061
3784 6 -0.006427742500082421 -0.001062918478120467 0.0131437163512383 1.083238472871063 -0.01537575872011019 0.009241183486735865 12.13527098317273 12.13528424259039
3785 6 -0.005932543274870741 -0.0008143879396297944 0.00957889598180719 1.083493703968334 -0.01537458781001442 0.01460683347491495 12.06902502978784 12.06904366166516
3786 6 -0.003423860561468612 -0.0008105921165180639 0.01388512419991431 1.083185447090951 -0.009514085608978581 0.01352446061489738 12.16251950361047 12.16253074423925
3787 6 -0.006744476166838607 -0.0003338960099618234 0.01314264908520641 1.083238488498557 -0.01407767081974756 0.00627619934840835 12.13533457309056 12.13534436150623
3788 6 -0.006004716408702262 -0.000795911710281245 0.01651089631108235 1.082996576767733 0.006849542499872564 0.01855739201237053 12.17403320667881 12.17404927747334
3789 6 -0.006773014278956488 0.000105153391292328 0.013887415115423 1.083184997468876 -0.01460593594782869 0.01444319436785952 12.14834063096792 12.14835799708152
3790 6 -0.003940337416047889 -0.001426098190336993 0.0138896109861592 1.0831851696029 -0.002637719144198139 0.02160218818742092 12.16245752263731 12.16247699286842
3791 6 -0.003420025587231354 -0.0008105005619867486 0.0178735223885886 1.082898353581127 -0.002018190042133369 -0.0008769734806109726 12.18090679442149 12.18090699318229
3792 6 -0.004286900444841801 -0.001633305079872424 0.01313517071494482 1.083239350011753 -0.01904759084065951 0.01240701000794022 12.13187130385203 12.13189260082047
3793 6 -0.005599256575144087 0.001638558040240874 0.03157744951890736 1.081900931898288 -0.2350343394638632 0.4298918059992036 12.59947337104272 12.60899588917401
3794 6 -0.00593043929925745 0.001342669199116924 0.0190630063406569 1.082812291621602 0.03001625292074028 0.001979126987956497 12.13231885972613 12.13235615230815
3795 6 -0.004297203076621672 -0.001636007227541234 0.01712899976680982 1.08295202118986 0.004114950420845124 0.008590236751614444 12.17458852034207 12.17459224633948
3796 6 -0.005418401354142846 -0.0009552705246220799 0.004996645209837474 1.083813353418389 -0.4589431547909398 0.7060761419833125 11.0344758859854 11.06656362273316
3797 6 -0.003278497883779635 -0.0004092544475417031 0.01090497464490576 1.083399164076702 -0.01291424044020897 -0.001185410635519523 12.11775608769016 12.11776302720748
3798 6 -0.005478532133037631 -0.001719560820932421 0.01388703854715862 1.08318527438318 -0.02353438175365811 0.0128144671664212 12.13724636456744 12.13727594610499
3799 6 -0.00453810909817706 0.0008356727986398074 0.03304457956916731 1.081809903686382 -1.0050227649065 1.742391443889486 10.01286114355669 10.21290296545831
3800 6 -0.004087733007186529 -0.0004767952672083171 0.004940560799984369 1.083820960789851 -0.9262322013701334 0.03066086495185581 11.18993107746746 11.22824134483965
3801 6 -0.006160571028075347 -0.001352459024333627 0.01388977736756941 1.083184979454612 -0.01414017469191661 0.007929383728788401 12.13768807425819 12.13769890084839
3802 6 -0.00547723779190049 -0.001713888445421587 0.01788136605197546 1.082897865021007 -7.940338082553601e-05 0.01462719686388823 12.20660240012088 12.20661116427609
3803 6 -0.005908142514216153 0.0002613837720920626 0.03301586078504283 1.081813518561597 -0.2563322310524541 3.253046823226015 9.614223259296235 10.15289656828877
3804 6 -0.004414187962929706 0.001647895385843565 0.01910201027987241 1.082809633940511 -0.01448710541260257 0.02376649706997982 12.2198113304333 12.21984302984258
3805 6 -0.00630651249182826 -6.982234511739585e-05 0.01451338388047781 1.083140080542593 -0.01245067384905714 0.01190932663770694 12.15262006266684 12.1526322761315
3806 6 -0.005068548573139634 -0.001783214372547036 0.01713216663558346 1.082951855792076 0.01967636525298891 0.01149680577986815 12.17417246216499 12.17419379155881
3807 6 -0.004593736228956166 0.001048384982436549 0.009268452558686996 1.083515933902693 0.04139831880731706 -0.04433467586629416 12.05592790638819 12.05608050190085
3808 6 -0.006010802907703305 -0.0007984122925847075 0.01451467886659233 1.083140078155822 -0.01547637572510476 0.01849815986293657 12.15184107054138 12.15186500516774
3809 6 -0.0064094539349396 -0.001092403351371069 0.0109536220911294 1.08339547001337 -0.02534396324529049 0.01691556558785394 12.10727402053346 12.10731236324216
3810 6 -0.003926122117661416 -0.001424085898288253 0.01787981615580764 1.082897926184833 0.007805454110351594 0.01075206795628747 12.18090273632077 12.18090998258283
3811 6 -0.006241622240667123 0.0012243674461804 0.005964358463447543 1.083751139614805 0.02913264683653783 -0.1241055093536662 11.89769881269782 11.89838173560736
3812 6 -0.00674365796973168 -0.0003655819870346287 0.01093763308830212 1.083396566804694 -0.01204623469837266 -0.01194490895532666 12.10790697509024 12.1079188595753
3813 6 -0.003266960647152491 -0.0004363286345898735 0.006838900625227051 1.083691057488498 -0.4000195027117788 -0.0389304896047008 12.35577588734792 12.36231082621445
3814 6 -0.004410722427577759 0.0009836745499008518 0.02118409572144189 1.082659169574111 -0.02007520047422386 0.0199014027167512 12.23600781043518 12.23604046317823
3815 6 -0.006742698178944158 -0.0003490290018795843 0.03101256990390324 1.081944591047576 -0.200995883897587 0.1474577221292531 12.13970920563722 12.14226843397034
3816 6 -0.005406269330053348 -0.0009502452757051724 0.03301586078504283 1.081812759425944 2.759742539525021 -2.428321202873325 10.27320622796076 10.91108101660875
3817 6 -0.003942513536701863 0.0009907845353341815 0.005330030096899071 1.083796244902028 -0.2775955610374528 -0.4841163911314519 11.36679588616479 11.38048666329356
3818 6 -0.005909252856230415 0.001356181683739387 0.01967753263644158 1.08276818172403 0.02793370578217835 0.003332949823966117 12.13730684017597 12.13733944211233
3819 6 -0.0035246133380718 0.000835585050577403 0.008113490730321464 1.083599398827722 -0.066885292409589 0.02301508292521195 12.33577628684994 12.33597908297481
3820 6 -0.00621212552231505 0.001253741030130405 0.03195016476554573 1.081871585601866 -0.7596537614172653 0.06909768619937005 13.01114668703887 13.03348711738789
3821 6 -0.006077726802279944 0.0006779550442876558 0.009533621773223316 1.083497145885765 -0.02456668987285613 -0.09161353908686636 12.06489939842115 12.0652722330173
3822 6 -0.004608732640780641 0.001023492988741228 0.007241431001552306 1.083661398230326 -0.1729931430233409 -0.1783886164877172 11.95927764838696 11.96185901092441
3823 6 -0.006456696569256297 -0.001040268354787584 0.03099533088992139 1.081946205382369 -0.11362085352318 -0.09761569131813037 12.1381076625113 12.13903192796947
3824 6 -0.005924884103292894 0.0002449117125057732 0.004945414361049928 1.083815440736434 0.2948059261900612 -0.4415804443631862 10.83629184992161 10.84929144597187
3825 6 -0.003938118052114411 -0.001425372720595018 0.01999082613254012 1.082745605686225 -0.001799840560234851 0.001892207252896063 12.21518156177897 12.21518184093463
3826 6 -0.003424888954388887 0.0008111621733514834 0.01388254047546882 1.083185528740063 -0.005280125076866907 0.009805154736037608 12.14034906853179 12.14035417632372
3827 6 -0.006586802957981834 0.000827182917478874 0.0314537320505348 1.081908833126949 -0.6508923436005604 0.2130216419229441 13.17645427679312 13.19424065156101
3828 6 -0.003982935680963163 0.001429900343710678 0.02940326380768576 1.082060979591316 0.006062957896337609 0.03971895687842451 12.40828686367678 12.40835191499209
3829 6 -0.006580612078806431 0.0008164625044977649 0.01017911639442716 1.083451053919271 -0.03951623660168875 -0.09542928681071181 12.08649498627447 12.08693630888217
3830 6 -0.003275220648132099 0.0004062934798696839 0.01925328603280618 1.082798773558858 0.01132543566582898 -0.008226864807892051 12.21682183205707 12.21682985160323
3831 6 -0.003423405777897378 -0.0008101803786875286 0.01999873317969679 1.082744984486608 0.01132373511269978 0.01731040221709149 12.21528690604796 12.21530442003263
3832 6 -0.004117662213910155 -0.001162579431227711 0.03273869223019295 1.081821509901046 0.6480247670830768 -0.5829732275781611 11.19640811577615 11.23028711021424
3833 6 -0.005504702417700477 -0.001088462506707188 0.007331862234788735 1.083653692714767 -0.03669654823429758 0.06956188446923688 11.96044878138473 11.96070735970706
3834 6 -0.004075512065437187 -0.0004716279314288615 0.0330720989588187 1.081806286269226 -0.2180893022676205 -2.41103749351907 10.67120580478425 10.94236254503475
3835 6 -0.003284890871794835 -0.0004344704501978672 0.02286390614358254 1.082537626824742 -0.01086829503128105 -0.005333586526349682 12.28913028416287 12.28913624743868
3836 6 -0.003256336892677119 -0.0004330737678302021 0.03117738686194739 1.081931571795622 0.45607852428045 0.02354296785678317 12.56265792827256 12.57095605411278
3837 6 -0.003749438457076005 0.001283211756028314 0.006080030096899073 1.08374536435992 -0.06776105118890985 -0.3355864915431591 12.07882286711856 12.08367376705407
3838 6 -0.004548031649783865 0.001018101100400682 0.01451018011548834 1.083140388664832 -0.01410066502986134 0.008926047252714443 12.15216766487144 12.1521791238535
3839 6 -0.005021906054098486 -0.001793217720640349 0.0109676231490829 1.083394639792399 -0.003971803883690676 0.006310778448024904 12.10501424118086 12.10501653779714
3840 6 -0.003434890871794859 -0.000840672370429693 0.02211390614358254 1.082592028929026 -0.01750623884447384 -0.0229420984593029 12.25440935976801 12.2544433396646
3841 6 -0.006101224516605146 -0.001402701843756125 0.01024037960583831 1.083446515210515 -0.01415130041539072 0.005670712464044771 12.08149390283406 12.08150352151999
3842 6 -0.006767664631175412 0.000153948052721993 0.01783682832480133 1.082900922244225 -0.004062815107313849 0.01471664571366425 12.18258091413869 12.18259048050388
3843 6 -0.003274218068080119 0.0003942331448952741 0.01090089957605667 1.083399497737462 -0.01279511495342372 -0.01631824075426801 12.11775981958798 12.11777756212619
3844 6 -0.006153976100392642 0.0004851731378034571 0.007200975312888313 1.083663204092445 0.03116847990790151 -0.1393194981401963 11.99635450230535 11.99720395515903
3845 6 -0.004276055214130537 -0.001633470505089006 0.0109443916028352 1.083396313688752 -0.003984652132147441 0.006308055953253979 12.10503317811846 12.10503547753459
3846 6 -0.003938676754547731 0.0009991763872583147 0.03268929166603896 1.081829994615915 0.3962926425918766 1.430320728373438 9.445436071913704 9.561335044500625
3847 6 -0.003556779599590429 -0.0002497467083318447 0.00544056079998437 1.083789443419326 -0.5473865554000825 0.4712778715369257 11.47759821221035 11.50030415224603
3848 6 -0.005597672807523714 0.001680096486691557 0.02544311897905185 1.08235019175992 -0.00380652516993336 0.003633263876826303 12.30473307086373 12.30473419605023
3849 6 -0.00395846883428517 -0.00145738832636677 0.02209778915734486 1.082593101156925 -0.005986665670949169 -0.009271716446987628 12.25490678297924 12.25491175261585
3850 6 -0.006199839598110657 -0.001314580433766373 0.02612204369169725 1.082300709822391 -0.004907732033982199 -0.008782434339950044 12.30257607160466 12.30258018525408
3851 6 -0.005413432039640613 -0.00174970909464017 0.01025550379894899 1.083445514865685 -0.01850403679948676 0.007707392710090458 12.08139649948682 12.08141312848347
3852 6 -0.005625392675018757 -0.001716937742087154 0.01587469123694074 1.083042388917766 0.009801828373178039 0.008271234998255397 12.16070904237409 12.16071580551271
3853 6 -0.005503062531488873 -0.001704368176864057 0.01997162142142182 1.082746933295983 -0.01165195841879235 -9.273807298567175e-05 12.22704002207245 12.22704557438537
3854 6 -0.003434618814939269 -0.0008231039656687077 0.02603022960311782 1.082307362528238 0.01264451169183672 -0.003602286702086058 12.31129708743419 12.3113041078194
3855 6 -0.00522118280482097 0.001137197085184604 0.02139264392623724 1.082644006490428 -0.001047812144738307 0.01690003145288465 12.23577741409386 12.23578913009794
3856 6 -0.004462628715240257 0.001027643747504319 0.02717859525684853 1.082223796109397 0.008580091417350031 0.008955582154117481 12.30511213827735 12.30511838854064
3857 6 -0.005520361366382102 0.001064482700787634 0.007158831157480033 1.083666753276375 -0.02363338218421047 -0.1890164718835386 11.99059674905181 11.99210974606923
3858 6 -0.003408558548658464 0.0007725249409420213 0.02212673508875267 1.082591148330601 -0.02585499399266727 0.01090240982811169 12.21803778228002 12.21807000276544
3859 6 -0.005513525170097334 -0.00170267647532395 0.02607337926286928 1.082304272131816 -0.01233645653846199 -0.004558599220920377 12.30274081650278 12.30274784619397
3860 6 -0.006545622972514002 0.0008739641152799266 0.01387211493766007 1.083186059864685 -0.01572790621517414 0.01060060413839353 12.14843122114875 12.14844602716017
3861 6 -0.005521163430771515 -0.001719626883434635 0.02212591472863239 1.082590973789025 -0.0100116317008185 -0.008935994209957429 12.25058529645614 12.2505926465012
3862 6 -0.006287501365813535 0.001229534296719329 0.02881323821970942 1.082103982804991 -0.006900916798664732 0.07202255170759003 12.48605083647274 12.48626046346899
3863 6 -0.006258617938648636 0.001253894699558027 0.02543787145197916 1.082350558154536 -0.00735947795342881 0.001381158972377031 12.30468710076444 12.30468937914463
3864 6 -0.003544558657841087 -0.000244579372552389 0.0325720989588187 1.081838178711457 0.8300499363780243 -1.206956177117628 9.893863410247372 10.00171281786251
3865 6 -0.006759565470852292 -0.0002559096811793845 0.02547408321143473 1.082347832586627 -0.005675505646285767 -0.01203439788760388 12.28177008926963 12.28177729662019
3866 6 -0.006233780835878824 0.001277171439487395 0.02077366265339452 1.082688970824852 0.01734865525965826 -0.03140107305094144 12.30620629958504 12.30625859029358
3867 6 -0.006079121185385773 0.0006989883788702028 0.01449808370271488 1.083141142938401 -0.01251754421578621 0.01172746073180248 12.15261322274083 12.15262532804265
3868 6 -0.003556690681930045 0.000413359827514628 0.005440407036061278 1.083788674099732 -0.536193126136264 -0.1334556238129603 11.33230329108185 11.34576623032167
3869 6 -0.006432061944610976 -0.0001638500464212465 0.005341761704827939 1.083790440222623 0.415470893550366 -0.2445200316429928 10.7476901777572 10.7584966545666
3870 6 -0.005772507645035331 -0.001624333691821998 0.008034736333616932 1.083603889548843 -0.05594795212854398 0.02166801476278416 12.05665269412903 12.05680197494592
3871 6 -0.006144704228726339 -0.0004180789284027991 0.007346612221705413 1.083652531681228 0.04350786950594775 0.0001608233915096368 11.98396355091321 11.98404252955527
3872 6 -0.006089204817032364 -0.0009690050887996023 0.005392992553615484 1.083787270221315 0.1327557718256404 0.5230375810291731 10.77187690320814 10.78538476012752
3873 6 -0.003363615602304189 0.0007057870482087607 0.006190407036061279 1.083737793557625 -0.4681303187885524 0.1479279459426089 11.93156923759623 11.94166542589904
3874 6 -0.006506953155366741 -0.001043450468619466 0.009054795529264316 1.083530999841375 -0.03572601293010815 0.01307582550229832 12.04517547917867 12.04523555807106
3875 6 -0.006635465777750865 0.0006886307445636198 0.006445447549939655 1.083716860113636 0.0033550119967079 -0.1536702573859219 11.93065721070778 11.93164729966169
3876 6 -0.005513152669522738 -0.001765766688699953 0.03144261689272604 1.08191236716298 -0.1960934823565455 -0.3472027107055016 12.65603062348872 12.66231074957601
3877 6 -0.006775593922635023 6.55989231421502e-07 0.006174394737789936 1.083735335916769 0.002061969648603918 -0.1582206675680497 11.92899400135833 11.93004341634211
3878 6 -0.006851947539871332 -0.0003238155638544864 0.009038284970152769 1.083532140602116 -0.01516788902952804 -0.02520883910862519 12.04139326499023 12.04142920556272
3879 6 -0.003276188511039463 0.0003878943127225618 0.02287673508875267 1.082536774391108 -0.01022162722409269 -0.02745174234430714 12.28912060740997 12.28915551953385
3880 6 -0.006415872190015943 -0.0001460518728012592 0.03245916707682178 1.081848327007533 -0.9543951572553285 2.02861039075343 9.053879490272323 9.327318160009286
3881 6 -0.006480776415373035 -0.001004626899573928 0.02299447741894977 1.082527985396743 -0.007394325606322002 -0.0008074909857904793 12.28232768203943 12.2823299343848
3882 6 -0.003256336892676479 0.0003793300726341336 0.03117738686194739 1.08193135576052 0.4542136497622472 0.0656199733042571 12.5626554198713 12.57103524849678
3883 6 -0.004447273791478475 0.001635356046526596 0.01521031204421142 1.08309001778981 -0.0174385462827528 0.01778003114501835 12.16384375299568 12.16386924788721
3884 6 -0.006741753663929322 0.0001270321699902137 0.03160427262100932 1.081898979972143 -0.4161045880644183 0.8183769266921908 13.04532379911522 13.07758987145997
3885 6 -0.00395518706441658 -0.001439317410412302 0.02604771266532945 1.08230612708036 0.01611579931699457 0.0003631839220209957 12.31112477680735 12.31113533030199
3886 6 -0.006308377405057142 -0.001340542914407886 0.01588012949991023 1.083042015865353 0.008359948085473107 0.008710073834834166 12.16073081982851 12.16073681264606
3887 6 -0.005179964488002816 -0.00177104890875339 0.008387053420326867 1.083578839140852 0.02056059249506931 0.01431065239140138 12.10249932617712 12.10252525189901
3888 6 -0.006207132671645948 -0.001324111214654822 0.02218184506810874 1.082586936361473 0.002923549508888092 -0.01658391669961008 12.25057258924533 12.25058416312479
3889 6 -0.003276053536161504 0.0004024215465526797 0.02888229480111035 1.082099202468732 0.04246279196721143 3.535436187204389e-05 12.39457496073731 12.39464769758656
3890 6 -0.00558703197058027 0.00167261350693931 0.02299576086401822 1.082527975381768 -0.02645158993467421 0.002836498325214926 12.23576903868011 12.23579795927734
3891 6 -0.004973501225596771 0.001751785624388305 0.006116775017794318 1.083741835628715 -0.3849930327542757 -0.2143704366267487 12.0790704852711 12.08710544785295
3892 6 -0.00433394405965201 -0.001668211380697744 0.02282401342572168 1.082540409494638 -0.009511597242175655 -0.01151147103094868 12.26116240093172 12.26117149404856
3893 6 -0.003544558657840548 0.0004183850764315369 0.03257209895881903 1.081839210242963 0.7969782565475023 0.8899916592620843 9.394020680486706 9.46968236216915
3894 6 -0.005178264977294549 0.001730828594677953 0.0100582854347531 1.083459844382747 0.0684685060766666 -0.01278782358989282 12.10810225136274 12.10830258930673
3895 6 -0.004985080620066066 -0.001814884621416918 0.006204694739365442 1.083734918076104 -0.08558349141995673 0.1648090485566006 12.20606806427536 12.20748066335608
3896 6 -0.004260356085229903 0.001615019294370202 0.01116471148547096 1.083380357673356 -0.04827983231165069 0.0176460914567415 12.15306483858249 12.15317354840051
3897 6 -0.006196986139746705 -0.001312769566281456 0.0199603819315355 1.082747724291695 -0.002134390099421104 -0.005450415798354338 12.22723413906925 12.22723554014865
3898 6 -0.006236759786414942 -0.001306165361316168 0.006206029618360314 1.083733503824424 -0.1842217477694714 0.2623242766078829 12.0392188031746 12.04348542030761
3899 6 -0.006079383859144106 0.0007020988714905314 0.01648098954653157 1.082998515230575 0.0009923134005961056 0.02455783680864371 12.17564483815438 12.17566964470168
3900 6 -0.005087420185967462 -0.001778955287722233 0.02876971685860011 1.082107687866913 0.002602941893095303 -0.02527216497195373 12.35389241823924 12.35391854186589
3901 6 -0.006077624627424575 -0.000962653725848997 0.03245916707682178 1.081850024585299 0.3534711332724785 -1.630922019374822 9.147450507176083 9.298424557771847
3902 6 -0.004687076433155475 2.280768001964984e-05 0.004585119132932919 1.083840975965211 -0.9775510571298169 0.05894144725223006 11.17303251067366 11.21586981237168
3903 6 -0.005111464354485004 -0.001794049883624099 0.02286972673552171 1.082537058750939 -0.002150406566656877 -0.01025615877589503 12.26115360474011 12.26115808282695
3904 6 -0.004310562175823361 -0.001635989115044623 0.0287727636273073 1.082107465251377 0.006455411897949959 -0.02456181932830924 12.35392953592141 12.35395563913935
3905 6 -0.005248803238082199 -0.0002098671809295024 0.004585119132932919 1.083838544454825 -0.6010502604499143 0.2148921428785965 11.17730645861955 11.19551784057156
3906 6 -0.006620916503763385 -0.0006831347792554345 0.006627136574417757 1.083703208223736 -0.01769807532453262 -0.01788668089116217 11.83441512225769 11.83444187281956
3907 6 -0.00709499989643821 0.0007160276008934721 0.02415059458916203 1.082444049996221 -0.0362500790812359 -0.005809920565765035 12.27340331046284 12.27345821863954
3908 6 -0.004336542928256436 0.001629162817106151 0.009810536640557466 1.083477254569102 0.05911653679375727 -0.0103410612901579 12.11120563410508 12.11135432617054
3909 6 -0.004953696148843465 -0.001805888017433123 0.03198134363389461 1.081872768362476 -0.2548350111646362 -0.336009569324334 12.59974442325558 12.60679986534858
3910 6 -0.005369156092958419 0.001132305626936401 0.01425210554438108 1.083158851103855 -0.01629386763957126 0.009441089544170335 12.15179009406064 12.15180468549445
3911 6 -0.006117504491650092 -0.001380809035965524 0.03158703360702746 1.081902291884702 0.03112284596617091 -0.468336687598888 12.60558350517492 12.61431898242748
3912 6 -0.006329669623784395 0.001178763540236007 0.01090707144732253 1.083398857198493 0.01094166926685428 -0.01425912793729759 12.23600968358631 12.23602288407772
3913 6 -0.004321127994619857 0.001636527054239684 0.01720295895412823 1.08294658904286 -0.009039728281148742 0.008005225846424548 12.17458358470048 12.17458957259696
3914 6 -0.004269010900103886 0.001576644968762141 0.006515231071324434 1.083714211401678 -0.1871518848750323 -0.2522173065096444 12.1962096069778 12.20025279144055
3915 6 -0.004240010750032251 0.001584115538799565 0.03151033824562441 1.081906150645428 0.1464424024773248 0.4775103960235644 12.77622895695463 12.78598795228901
3916 6 -0.006236456927903295 0.001263815915878038 0.0228383877582749 1.082539316491938 -0.009778216338863924 0.0124649982144775 12.23636271481066 12.23637297070107
3917 6 -0.004578332470957649 0.001678260906427262 0.008408041860184061 1.083577831964898 0.02730743028138434 -0.07724498760656207 12.21329287387039 12.21356767315727
3918 6 -0.006533638057039715 0.0009053115531739433 0.01782341435087851 1.082901730151895 0.009321631971116531 0.05571955097416868 12.18189559569551 12.18202659107298
3919 6 -0.006763582390566111 0.0001789519687769571 0.02209715131608957 1.082593092099377 -0.00753495086644914 0.01143162316703258 12.25543851162775 12.25544615955622
3920 6 -0.004139332466637888 0.00146050048780276 0.007903979607875177 1.083614404312237 -0.05430008490728356 0.003986311769444482 12.33588181925036 12.33600197180651
3921 6 -0.005649307096426416 0.001621552548846954 0.006394552112884253 1.083721223196738 -0.004455829510151184 -0.1495328685423152 11.86454260209824 11.86548570814508
3922 6 -0.006255639199935334 0.001876175302902838 0.01915187685839741 1.082805955121179 0.02487016228207681 0.008336143971607325 12.13535523025884 12.13538357782064
3923 6 -0.005236671213992699 -0.000204841932012595 0.03342738686194738 1.08178978200412 3.588194995885062 0.4357358453245661 11.16512813631514 11.73563357282986
3924 6 -0.003946210421221 0.001425794206537143 0.01787225567860027 1.082898394335674 -0.002420170788093479 0.004450456181626873 12.18705294602798 12.18705399893986
3925 6 -0.005643334967480088 -0.001690159942325381 0.006627565320627624 1.083704178734649 -0.009596787986072624 0.1464833597244782 12.15574668416878 12.15663304219948
3926 6 -0.003422901020592844 0.0008091224770088667 0.01787613554678347 1.082898141449489 -0.003243148126308392 0.00540725465408029 12.18704711756282 12.18704874865563
3927 6 -0.003423286810703346 0.0007993435474422395 0.01014856731531246 1.083453177851749 -0.03205224245454282 0.02621269335791294 12.03934754100051 12.0394187428021
3928 6 -0.00675709121187296 -0.0002494947434369099 0.02292252406317176 1.082533201597249 -0.007864657618007054 0.0005422199272391608 12.2823926646053 12.28239519452098
3929 6 -0.006368708360545173 -0.001233579003513817 0.008343652411085393 1.08358167551007 -0.03601290499531263 0.01368262014413005 12.04755701900608 12.04761861405078
3930 6 -0.004674944409065977 2.783292893655726e-05 0.03342738686194738 1.081787226871199 -1.533642369009885 -1.685796174205836 11.09772680967885 11.32932072099885
3931 6 -0.006767119499798999 0.000179389165465984 0.01993329729884885 1.082749670682827 -0.00542960375435105 0.00483386209937911 12.21040703373242 12.21040919773952
3932 6 -0.005096586977297781 0.001729993321583417 0.01141414921101589 1.083362237668698 -0.02937830980154888 0.01260809104291472 12.15506737639238 12.15510941841681
3933 6 -0.006496865602063579 0.0009383054194374329 0.02201588616764626 1.082598918137137 -0.003579193186852808 0.02152009963438604 12.25532192870542 12.25534134577736
3934 6 -0.004269395205224393 -0.001641891451672672 0.006546950154755015 1.083710700123178 -0.1835093412352666 0.1429937591872229 12.15450299749502 12.15672924801743
3935 6 -0.005143505059937369 0.001751312544933112 0.01743251720666218 1.082929898305407 -0.05369466453252331 0.01521083015638405 12.17457338236473 12.17470129115853
3936 6 -0.003756298756872218 -0.001348738058964406 0.006084508775761145 1.083745010551405 -0.434277874909468 -0.05351781279932716 12.41958079250976 12.42728644920524
3937 6 -0.005383895206531567 0.001128990417952448 0.01632345820833777 1.083009856738936 -0.02251347690922813 0.01345689905058283 12.1821736228298 12.18220185851247
3938 6 -0.003935501779445095 0.001389784910494102 0.02193080968863576 1.082605184220464 -0.02698566657302831 0.01219829880186676 12.21810042939738 12.21813631973119
3939 6 -0.006302907371544223 0.001206552162143941 0.01312555091593621 1.083239540131474 0.001064220271363806 0.03238288999567467 12.0992685646396 12.09931194669372
3940 6 -0.004239519003615917 -0.001634665229846113 0.03164286971079917 1.081898278162069 0.1283145483349623 -0.2814683042886771 12.37136253192241 12.37522928781068
3941 6 -0.003937965536514702 0.001426059033427513 0.0138825640644038 1.083185475748251 -0.00517894681357178 0.009686420053466406 12.14034885407908 12.14035382297249
3942 6 -0.006523773452603016 0.0009141919620723831 0.02616908136788889 1.082297269909064 -0.01358645923066784 -0.00331588920356316 12.3216804635441 12.32168840024288
3943 6 -0.003362196250351082 -0.0007679529459448156 0.006194342292278498 1.083737985250849 -0.3914310596478741 0.008236649008954208 12.43651553427209 12.44267675185026
3944 6 -0.003426053536161657 0.0008086234667846569 0.02813229480111035 1.082154122446576 0.03277007950140139 0.02403277727444302 12.35026273733239 12.35032959615391
3945 6 -0.00374560167492187 0.001291603607952443 0.03193929166603897 1.081875615434481 -0.3741364735791251 0.8179688702946506 12.26789394485915 12.30082407873331
3946 6 -0.003736708806314692 -0.001341732792583781 0.03198869223019295 1.081872453835883 0.3488441066518852 -0.1077319549383112 12.5668895075657 12.57219194413709
3947 6 -0.005569591046558178 0.0016210339146955 0.01080366090798916 1.083406269831396 0.02682318721688779 -0.003215505007793883 12.23560170670569 12.23563153041085
3948 6 -0.006508904166134576 0.0009365805602152077 0.02004460038643848 1.082741726438807 -0.02015902700916967 -0.03832026763903616 12.21108066771339 12.2111574350135
3949 6 -0.003422007644923968 0.0008088852773378868 0.02600571174052153 1.08230917513967 0.01273079647495582 -0.002020207157462826 12.31645739407112 12.31646413928872
3950 6 -0.003407590685751101 0.0007909241080891434 0.02000328603280618 1.08274460726962 0.01132995404048382 -0.00763919966512988 12.21716182966601 12.21716947158704
3951 6 -0.004914233059345424 -0.002010258379715615 0.004801692560387203 1.083834796721545 -0.04905046095302155 2.25220453028341 12.68297520753649 12.88148637809062
3952 6 -0.006587378294762954 -0.001037688634060434 0.01513417654064973 1.083095583578428 -0.003276475821293219 0.01817696622115274 12.13716307558663 12.13717712900237
3953 6 -0.00677080348933954 0.0001583447899894426 0.0262024219708909 1.082294833198084 -0.009786055070755723 0.008352124255016011 12.32177650197338 12.32178321873245
3954 6 -0.006319951398027854 0.001429839513374321 0.03323001218229391 1.081773307281132 -4.909334802490208 3.896064340448211 15.46720721075095 16.68878019653203
3955 6 -0.006730768079020963 -0.0006202048476432594 0.007888292212286275 1.083614111174592 -0.01361410173652048 -0.02619484791111696 12.08700172628083 12.08703777792305
3956 6 -0.003351483578215867 -0.0007645559923225958 0.0318220989588187 1.081884015565126 0.4597926453722221 0.04660703464525886 12.52238889420632 12.53091397744629
3957 6 -0.006291711215027277 0.001224861552007385 0.0170790346215451 1.082955299026185 0.001342512804452161 0.04637101100351057 12.2036833501105 12.20377152288449
3958 6 -0.005805051470124393 0.001655224061851103 0.008979370150186353 1.083536776995203 -0.02696254049588433 -0.005170938058001049 11.95378525391359 11.95381678016994
3959 6 -0.005594912670862631 0.001649989514455883 0.01297783933772074 1.083250077517946 -0.01844589904930825 0.01932690297971216 12.09991618263005 12.09994567785505
3960 6 -0.005059892209432239 0.00195174591955054 0.004741167007307681 1.083837416565337 -0.4215560926200415 -1.9815684721197 12.34790537664022 12.51299685684386
3961 6 -0.00554541484259184 0.001689102356118051 0.02085806538803126 1.082682791714936 0.03221650903528961 -0.0222678758994651 12.30571450953163 12.30577682845942
3962 6 -0.00590160852831084 0.001596592612379597 0.00768778039790749 1.083629290175562 -0.1282882638389462 -0.06268122575440768 12.18776343013297 12.18859976550168
3963 6 -0.006883087878887908 -0.0003090986865931222 0.01513288155453522 1.083095585965198 -0.004636354211657486 0.02069145843142654 12.13710785907155 12.13712638209592
3964 6 -0.006904978355281853 0.0001293488120988989 0.01586389056160132 1.083042998705598 -0.005862929466348658 0.03562863790323217 12.16138251905736 12.16143612196416
3965 6 -0.005622392537713308 0.001665806367562942 0.02882508637815558 1.082103123635622 -0.06900751858473099 0.03190093800668246 12.4847592593554 12.48499072773093
3966 6 -0.00653522326232138 0.00101728304939542 0.007729924553315771 1.083625740991632 -0.06038906678408257 -0.02361883696121067 12.17367524168216 12.17384793640826
3967 6 -0.005273300694584046 0.001746266409359318 0.01544541825271733 1.083073006388781 -0.01956751636923234 0.01860014454389143 12.16360640940389 12.16363636976892
3968 6 -0.005069703048673893 0.001954511940731319 0.03325873096641839 1.081779710884891 0.08759360900405916 3.563600099000086 12.8341533271092 13.32000037273573
3969 6 -0.00398442457101574 0.001430061783115075 0.02791480365204368 1.082170007831582 0.02504941415022531 0.03324679945997738 12.35055936631247 12.35062951770607
3970 6 -0.003979806362855281 0.001430261964773395 0.0258634047797008 1.082319570289394 0.006344984214979896 0.005507478384758477 12.31648157625365 12.316484441972
3971 6 -0.005159074651453571 0.001759033927129361 0.02225766200802631 1.082581397917052 -0.006289566988262487 0.008323587566315552 12.21656582885671 12.21657028349415
3972 6 -0.003891638105452188 0.001404394109910482 0.01030647438824859 1.083441800022409 -0.01965203973680914 0.01137354665859587 12.03892356159065 12.0389449737945
3973 6 -0.003351483578214688 0.0007108122971256659 0.03182209895881903 1.081884831061529 0.5455566399043578 -0.2893327528717108 11.93057237367677 11.94654354417073
3974 6 -0.006323045365708808 0.001418993284531384 0.004711839174586896 1.083837329368866 1.16751305838812 -1.251298005622627 12.21205420177951 12.33138683472312
3975 6 -0.004366244236591252 0.001627082683857822 0.02254911380323095 1.082560418966564 -0.02493457892572108 0.01061848170032009 12.2151148799542 12.21514494452924
3976 6 -0.005719507564360154 0.001649738088192978 0.0148566404060821 1.083115314535827 -0.01847636896076477 0.01883505212319299 12.16517084652708 12.16519945831514
3977 6 -0.005596222562414737 0.001651753098469302 0.0169215032833513 1.082966640534547 -0.02994317625284347 0.02545917552656719 12.2042181390036 12.20428142693403
3978 6 -0.005209857102481558 0.001766693328162959 0.02821063116056425 1.082148346922538 -0.004015244657980103 0.04897613637430102 12.37217591714651 12.37227350606767
3979 6 -0.004905355780923112 -0.00200665006695721 0.0332550671944697 1.081778999461249 -0.3809732367849155 -3.09179683841371 13.38089024351526 13.73872526860383
3980 6 -0.005424932437376867 -0.001548373428107513 0.004411526076904555 1.083857823776981 -0.01407729096650159 2.243987035631401 12.7045270529384 12.90118923297563
3981 6 -0.006447319994410059 0.001183128346130407 0.008996790570527038 1.083535399164629 -0.03867544627072092 -0.01191688441309937 11.95416029425984 11.95422879750663
3982 6 -0.005424932437376868 -0.001548373428107513 0.03358847392309545 1.081766330962349 2.378985651294774 -3.74401184181101 11.70125537564457 12.51385531188284
3983 6 -0.005201143292464468 0.001770695253659945 0.02618345437411019 1.082296271281249 0.0004235384123250903 0.005854816686465876 12.31501982991566 12.31502122894959
3984 6 -0.00636874735978126 0.0007301973579313171 0.03358847392309545 1.081759901841604 -3.586821527455144 5.693455090905451 14.14601352825508 15.66494233259569
3985 6 -0.004391306715817249 0.001645136739809302 0.02843577265861909 1.082131886184702 0.008052534136903816 0.04758035602187788 12.37195048081351 12.37204459389339
3986 6 -0.00542897980702914 0.001773363318957692 0.008274442494288646 1.083587362782175 -0.1045993299821673 -0.04891189455016483 12.22077677097684 12.22132228031436
3987 6 -0.004548476963565209 0.001484178043230243 0.004389623060837794 1.083860672880407 -1.272262134241691 -1.852096977009789 12.88620045480496 13.08063745816271
3988 6 -0.004391290651710513 0.001649167404994999 0.02640064748607259 1.082280429213408 0.007279423467367569 0.005114056723104591 12.31484891686373 12.31485213020286
3989 6 -0.002938310682824448 -0.0002178496118172777 0.004855441667051451 1.083835967747983 -2.987950382078715 0.4448309968125347 13.14664546774419 13.48925532251683
3990 6 -0.00430575225891569 0.001635592700202455 0.01323846890088195 1.083231590176429 -0.02572177578331557 0.02118372457901932 12.10101705014572 12.10106292884447
3991 6 -0.005127663179405055 0.001750718715658068 0.01347842520111079 1.08321430541661 -0.01749658496940352 0.01969776190123334 12.10072250587261 12.1007511872793
3992 6 -0.004556772205500575 0.001487544646237467 0.03361719270721994 1.081763750312443 -0.7055158591665986 3.684293950017726 12.34167354691608 12.89917363540474
3993 6 -0.006704863065325346 0.0007219580402528196 0.00833400707003761 1.083582435767672 0.0005578143680834235 0.01108482293551829 12.06329504052839 12.06330014628224
3994 6 -0.00521824234189908 0.001775879369060444 0.02025212129848534 1.082726601161829 0.07365367818595972 0.01953032043961078 12.20690915157969 12.20714697759663
3995 6 -0.006429472656787508 0.00121642084012678 0.01510261856441591 1.083097606370373 -0.01241839076609825 0.02134510769765681 12.16504894286305 12.16507400767892
3996 6 -0.004036956196156079 0.00175814114559881 0.004389623060837794 1.083869470808793 -2.242437113359356 -2.387127769852883 13.41652952236965 13.81050931796473
3997 6 -0.003652322352178956 -0.000886839908935343 0.004355441667051449 1.083867076060943 -2.730140337766406 1.025042194844142 13.69423789281722 14.00130455458281
3998 6 -0.006678754439623938 0.0008860576148312022 0.01584892774924494 1.083043956714965 -0.01118146069434024 0.02242752271275995 12.16164873671979 12.1616745563346
3999 6 -0.005960920768022362 -0.00176326660747263 0.004411526076904555 1.083861194912421 0.2673010944948019 2.399556630839783 12.85011834598896 13.07497087590054
4000 6 -0.006909679753691233 -1.22777905796034e-05 0.008346737820191014 1.083581478361848 -0.007927751278495194 -0.03721951118831728 12.07531051184478 12.07537047459508
4001 6 -0.003703349779074236 -0.001581399721492598 0.004745608150534098 1.08384161749512 -2.096229589457925 2.05116591796923 13.21882258664258 13.54026331693329
4002 6 -0.006373356924768503 0.0007187505472619352 0.004360295228117009 1.083858154173551 1.248895556045688 -1.140739804244822 12.3096698546849 12.42533699109354
4003 6 -0.006537677638507978 -0.001379049730526625 0.004807873420682565 1.08382984317574 1.38445359489386 1.838766220962759 12.11470529408324 12.33141749087496
4004 6 -0.007059535297339461 -0.000119180025203595 0.0330317802148744 1.081792339624146 -12.0612489486558 0.09878869094088039 15.40703047336664 19.56681050693129
4005 6 -0.006538229472989688 -0.001377723616492927 0.0330317802148744 1.081797097012526 -7.823400903134069 -7.398201349007213 14.76582829030863 18.27480971147141
4006 6 -0.003507102881694289 0.00146462337009034 0.004744910963966151 1.083843161966136 -1.794083518488871 -2.605664011601693 13.72551560878042 14.0853824704743
4007 6 -0.003652233434519113 -0.0008866978220727947 0.03364471209687132 1.081759896228516 1.534828832156881 -3.377222535105259 13.10495006773618 13.61987694046834
4008 6 -0.002938221765164605 -0.0002177075249547294 0.03314471209687132 1.081791814203432 5.792425501659245 -1.150424841173481 13.28554668753862 14.5389621807827
4009 6 -0.002938221765164064 0.0004452569240291951 0.004855287903128358 1.08383519842839 -3.167605422989409 -0.09690570955493845 13.14663613629553 13.52320807103284
4010 6 -0.003121368944582856 -0.0006597913500588706 0.004355441667051449 1.083874398570615 -2.802556005630276 1.004202564668976 13.71868842719989 14.03798971071607
4011 6 -0.006924168330613722 0.0005622187220582969 0.03358847392309545 1.081740390285407 -10.85770057599233 3.591316595031103 17.57520687745182 20.96843135451194
4012 6 -0.006928777895600965 0.0005507719113889149 0.004360295228117009 1.083862493673862 1.996580934205775 -0.9245893602010664 12.72895118982982 12.9177164895697
4013 6 -0.005960920768022362 -0.00176326660747263 0.03358847392309545 1.081752335930185 -5.93987624927879 -8.343104619102224 16.00427915967755 19.00069672309203
4014 6 -0.007063593027844994 -0.0001319529499066748 0.004756642571895019 1.083832898858656 2.275992667340109 -0.1132008569648143 12.18244181581528 12.39374219723519
4015 6 -0.004045251438091445 0.001761507748606034 0.03361719270721994 1.081743962768784 7.194853360232912 8.041028389122706 16.60322868791429 19.80129428328139
4016 6 -0.003694383582992082 -0.001577649321871644 0.03331130536824557 1.081775119860336 2.236459622276838 -2.241419996680673 13.63187636372777 13.99477646979595
4017 6 -0.002938221765164065 0.0004452569240291966 0.03314471209687164 1.081792845734938 6.443074113081902 0.8115166572792364 13.28555935557163 14.78776016515431
4018 6 -0.003515398123629655 0.001467989973097566 0.03326190480409158 1.081773731245067 5.743199720714391 8.749183889345707 17.66093798435068 20.52903534627677
4019 6 -0.006924052327761503 -0.0008002989086733695 0.03344330629177895 1.081754608034504 -13.63775312624009 -4.479438031128981 17.24068316274512 22.43423346863358
4020 6 -0.004233114175875648 -0.001874775410137656 0.004390166483482649 1.08386798389335 -1.727126359524032 2.648847451432658 13.63149394154406 13.99346223638298
4021 6 -0.0057425266902083 0.001815662368146136 0.03364153825919846 1.081742349890324 -4.625845621504288 4.281072178832079 15.78262270392077 16.99462285926569
4022 6 -0.005741011092902011 0.001816262949972581 0.004351543946469886 1.0838648747517 0.5242900183118303 -2.125620249704414 12.94779684461628 13.13158728405329
4023 6 -0.003121280026923013 -0.0006596492631963223 0.03364471209687132 1.0817524642611 5.425236556760322 -2.256965506625259 14.41577797490984 15.56732923840183
4024 6 -0.003121280026922471 0.0008871986622707867 0.004355287903128357 1.083874431044038 -3.692715928479386 -1.679976390961396 14.48351273870804 15.04096449217773
4025 6 -0.006923500493279793 -0.0008016250227070674 0.004396347343778011 1.083859373712487 2.717885229623211 1.169564094574398 12.90824751755134 13.24302209720621
4026 6 -0.004224236897453337 -0.00187116709737925 0.03366659327137425 1.081746107825904 1.444648085691962 -3.523143349693465 14.63151482326591 15.11888796100536
4027 6 -0.003121280026922472 0.0008871986622707882 0.03364471209687164 1.081743622462469 8.611284045237182 7.35036206217185 18.8049778013986 21.95015319909785
4028 6 -0.005235794954767642 0.001761778644414175 0.01882964053463437 1.082829118266752 -0.05658174724438666 0.02179247484639006 12.20917224542515 12.2093228036833
4029 6 -0.005243808134671527 0.001134469336637731 0.01835509996394036 1.082863414527314 -0.05369510054032437 0.01082766063442248 12.19680818128067 12.19693118013756
4030 6 -0.004506710180235447 -0.0009977540295775644 0.009549129528307635 1.083496078870987 -0.06371316952603526 -0.0008172493201043396 12.07682915567172 12.07699724646611
4031 6 -0.004336400990573483 -0.001595569193671654 0.009063584103705745 1.083530715250235 -0.07858232032080943 -0.03284869806532566 12.03683711924748 12.03713844953714
4032 6 -0.004417821793088181 0.00164848362586737 0.0199099647479387 1.08275122673316 -0.01279233915821293 0.02497258242787889 12.22426634524868 12.22429854647675
4033 6 -0.003934533916537732 0.001408184077641224 0.02030736063268926 1.082722580369949 -0.01770595944003669 0.0279335163412532 12.21947178225627 12.21951653788692
4034 7 -0.00272508586074531 0.008037695418603576 0.003484917943321196 1.084021933363757 -2.54285643548284 -1.522430129087701 -0.7254153051387456 3.051252155158605
4035 7 -0.00512592315996989 0.009507127659329243 0.002496207653318465 1.084005113190988 -1.320369942886682 -1.008662103087844 -0.1259665271561953 1.666326375668333
4036 7 -0.004124857290496367 0.0046092299814836 0.001492836561657155 1.083970807438122 -1.057435206800885 -2.136487005776364 0.2819669260292666 2.400468972890022
4037 7 -0.003619933916601713 -0.0103984999065622 0.002990698658345314 1.084023146412218 -1.62250059749029 0.74633164496947 -0.2106388258367984 1.7983013729876
4038 7 0.0009805089471604804 -0.009123052630958833 0.002168033156667885 1.084046795610859 0.2745754000893829 0.6144878652986395 -0.9248637301255938 1.143835611543613
4039 7 0.006347018257046353 0.005942918574292846 0.002474283220561127 1.08402838839803 0.03477167234587984 -0.5208192688928187 -0.02328872990379635 0.5224979856308648
4040 7 -0.01061706161697337 0.002033860209846353 0.002492566308135963 1.083943441194579 0.2435758840087067 -0.2445440742142137 0.05020052924665785 0.3487851898239866
4041 7 0.006692266172102999 0.005391039171282331 0.002982891823462889 1.08402696445698 -0.02098794873084871 -0.4228939560727853 -0.08077586782825964 0.4310504992436827
4042 7 -0.005862017716136124 0.008954073134970167 0.002506859786058171 1.083996615133849 -1.172917920745101 -0.8955887476263682 -0.1090253908762126 1.479764234442666
4043 7 -0.004268390581737557 -0.009907940997715227 0.002504850669819376 1.084014434654776 -1.554148427614573 0.6943180748605713 -0.1948670177839345 1.713309101929639
4044 7 -0.003268378543150364 0.004178075259851066 0.001465762248507492 1.083973012374076 -1.904827447787599 -2.017603910326363 0.3083407745250444 2.791803570820117
4045 7 -0.0041646599424788 0.00449492306217467 0.002492836561657155 1.08396724444727 -1.05825652927159 -2.137033017298784 0.3515383808890202 2.410476349605855
4046 7 -0.0002712526750480641 0.00979004628349809 0.003503163597645245 1.084085661120609 -3.097689087209238 2.939213618762183 -3.835341684864443 5.739729977742082
4047 7 -0.005126997758123079 0.009518139654232453 0.001496207653318466 1.084004787542799 -1.3165068100483 -1.007936164425637 -0.005210878718088351 1.658056888564934
4048 7 -0.003308181195132797 0.004063768340542136 0.002465762248507492 1.083969449383225 -1.906314099878999 -2.017161153407314 0.2848135160818484 2.789998441783778
4049 7 -0.01020288933680947 0.001569403690060147 0.00299988260744966 1.083941606925443 0.4194697834545013 -0.3809346532235214 0.2869982905404404 0.6351646463957403
4050 7 -0.006022741954379844 -0.00790632729471589 0.003076135308689473 1.083989189234945 -1.057632408904682 1.222690926911484 -0.09864318635631565 1.619657338245257
4051 7 -0.00242714920474823 -0.01047885814081896 0.002577553932684781 1.084033513005621 -1.969725338042698 0.5620460607631023 -0.4458651393058367 2.096308518371032
4052 7 0.00116967404704136 0.007377846433668228 0.00350984695714963 1.084052843061092 0.87029989225253 -4.864141853340255 -1.460038250522196 5.152573101360043
4053 7 -0.00159363939396824 -0.007644869235228215 0.003523877556210437 1.084041471854993 -4.4505585714794 2.840821267103066 -0.9612209783310545 5.366719932973728
4054 7 -0.002247815825066403 0.00850140442930798 0.002971695103880042 1.084029133500482 -2.018945684371371 -1.013510235064463 -0.8330948062061786 2.407777321338067
4055 7 -0.01034511073828424 0.00317651587262296 0.002499669127452817 1.083947152553305 0.09648824543884367 -0.9755530192589887 0.0810675859504664 0.983659305036572
4056 7 -0.005863092314289313 0.008965085129873379 0.001506859786058171 1.08399628948566 -1.172430777161746 -0.89688129818759 -0.01934124978204373 1.476266938672639
4057 7 0.007221361354352125 0.005862995557997382 0.003509392708264721 1.084028278965262 0.04886651442199692 -0.3779339418364191 0.01669222581008204 0.3814454496074948
4058 7 -0.004608366303528648 0.008951325331537216 0.002985446217131314 1.084006541440539 -1.469540566532836 -0.9675311926040964 -0.2753236921759546 1.780861931992751
4059 7 -0.0009133248915411146 -0.007121119706145584 0.003523877556210437 1.084041962510453 -1.698413304069669 4.728255925873496 -0.9842547977421671 5.119547768980885
4060 7 -0.002407227996840805 0.001293550863467778 0.002458747039403487 1.083948262907631 -2.00192541329277 -0.5922609372480294 3.185798147914971 3.808909058698541
4061 7 -0.005127898311947349 0.008504922465241815 0.003496703183449469 1.084000054102334 -1.55927627760725 -1.094571402801634 -0.236132240566284 1.919684219025284
4062 7 -0.00782979359145965 0.004312277471058799 0.002515958514675534 1.08395195742146 -0.05972548554883476 -1.63694683057144 0.1999348579665064 1.650192718191428
4063 7 -0.003239589947104754 0.003482282564218051 0.0009625905740926785 1.083966056729904 -1.916591176402415 -1.985823620921466 0.3511985115596223 2.78211386995481
4064 7 -0.008154321884612846 0.003446982295368913 0.00252808262617852 1.083945652909167 0.3422426377196548 -0.9154950928824255 0.2591840199180806 1.011156587451223
4065 7 -0.006297456019971103 -0.007376097268908015 0.003561983297215411 1.083983769742257 -1.075293643374198 1.289815399331253 -0.02512627540153956 1.679437856411648
4066 7 0.006876113439295479 0.006414874961007897 0.003000784105362959 1.084029702906311 0.05401031287349554 -0.4022294192581671 0.01967847026262064 0.4063162091343786
4067 7 -0.003140616083096164 0.0005361374025626463 0.001461361444167694 1.083947913480657 -1.948524932789972 -0.5382462271909262 0.5242996060563268 2.088384182017344
4068 7 -0.00564875644153562 0.008270992956286935 0.00299609834987102 1.083994417190209 -1.161919568712474 -1.07478743756313 0.05175564234403016 1.583636248200623
4069 7 -0.007148241157242056 -0.008337476715889068 0.002508053775127873 1.083985800617976 -1.021256366359337 0.9937081962744512 -0.02222717891753101 1.425101607835431
4070 7 -0.005319465006176223 0.006894067706140971 0.00249125265367617 1.083985480950745 -1.130871373825317 -1.620913242190401 0.004495656198679992 1.976423541088907
4071 7 0.0009907736756431713 -0.008878599327015797 0.001677067658897123 1.084044326146325 0.1549065126998301 0.3956894352045543 -0.4645100271770521 0.6295520011542712
4072 7 0.0007767309283781207 -0.008428719041470776 0.001166936530402236 1.084041793432362 0.1317013129809117 0.5537738774759517 -0.5582447865055539 0.7972753507266345
4073 7 -0.004096068694450757 0.003913437285850586 0.0009896648872423411 1.08396385179395 -0.4222006958971622 -1.764712237825287 0.9125103921389022 2.031043555837214
4074 7 0.007159655231939874 0.001654966475972941 0.002454085866850191 1.084021467519579 -0.2435291556298568 -0.1798711890894254 0.08634145276144213 0.3148252543415015
4075 7 0.003021643925059742 0.006736187923079799 0.002484483319020966 1.084031683269639 0.2806098999622256 -0.9551149449263917 -0.2727546479569846 1.032173227690339
4076 7 -0.002359896653616473 0.001155292038164753 0.001458747039403488 1.083959404915741 -2.08874821075002 -0.6494404657832441 0.5243052503473354 2.249341681926059
4077 7 -0.00718569229724635 0.00406585080002944 0.003006658418951685 1.083948970843456 0.04982212603413591 -1.581355277281467 0.3027770338351564 1.610850920925497
4078 7 0.007064089596644829 0.004839745411192108 0.00248178044072624 1.084025826628777 -0.1169433740305021 -0.2662086842308221 -0.02658685343302671 0.2919754733963329
4079 7 -0.003377113365036994 0.003390741675583547 0.002962590574092678 1.083958272818347 -1.542112983862058 -2.736110427392421 1.083913207224025 3.322541281410382
4080 7 -0.00328682903334742 -0.01089142125292573 0.002498000263070507 1.084026697095181 -1.271541295954261 0.4816547165158727 -0.4500769998683463 1.432263187779927
4081 7 -0.01111092833928077 0.00175190191917421 0.002994880977093298 1.083943178820287 -0.1143492741923942 -0.4791126452407697 0.2666948088523965 0.5601346306083488
4082 7 -0.003244319019595247 0.007974067189697535 0.002981621126770665 1.0840142408381 -1.728953534355772 -1.697302243368054 -0.1189390086252647 2.425749722678806
4083 7 0.005866757370042415 0.009135484273750541 0.002461082376743345 1.084036708888647 0.2652792803494364 -0.2806751172947845 -0.08904296565652942 0.3963335309862967
4084 7 0.005038968648614329 -0.009756707712250215 0.002584311588419139 1.084039139133549 0.2748960886803116 0.2930669355519022 -0.2042987657869778 0.4507705336283628
4085 7 0.000728867020070494 -0.009567615545685901 0.001480573822408441 1.084046178612025 0.260846010969539 0.6181298213610015 -0.5381961669265408 0.8601047794245336
4086 7 -0.006528102051716134 -0.007471241336288045 0.002577392118831847 1.083983569645806 -0.7675782446859993 1.247197448074623 0.1660672896578407 1.473857585010639
4087 7 -0.0009036993031144407 0.008978353088032423 0.00317150147797149 1.084070654426781 -5.983078319944713 -3.052488586591752 -2.577149220991457 7.194206756906715
4088 7 -0.003164849626805851 -0.009756931868991743 0.003498222009680793 1.08402576386662 -1.677474906469254 0.5503320637036633 -0.4244113169124384 1.815740181881129
4089 7 -0.004576225368665299 0.003691516295109366 0.002989664887242342 1.083950918793657 -1.167061976160773 -2.201243703815071 0.8001867284300811 2.616831347286527
4090 7 -0.002615807697151566 0.008957358653830173 0.002460438137561886 1.084025710978004 -1.787554990411192 -1.061140330297548 -0.6623459038036454 2.181759322339064
4091 7 -0.005463401285387075 0.006122350154539933 0.00349515430380515 1.083976988469105 -0.9507208227787439 -1.83139597952291 0.1806225562793286 2.071353621310145
4092 7 0.007316174854987333 0.001949979804491956 0.001454085866850191 1.084022274250965 -0.2443844776743753 -0.1776428749625041 0.003094330015079774 0.3021429112710794
4093 7 0.003888321900293934 0.006604273059534677 0.002466027758969575 1.084030430923314 -0.01713491032650417 -0.8235235725433319 -0.1823470171015828 0.8436439499766918
4094 7 -0.002243665437301275 0.008997928014445048 0.003486777160558845 1.084036052029713 -2.624284957522375 -1.601515385601693 -1.448268472478666 3.398412075804351
4095 7 -0.007823725602812213 0.004170374744659295 0.001515958514675534 1.083952576737805 -0.05511557396205361 -1.621869261271736 0.4616548939672998 1.687193785039304
4096 7 -0.004315295499381699 -0.009264258046105025 0.003514152011474062 1.08401271920376 -1.881294988873904 0.7619917330629213 0.03899760111931581 2.030128825791939
4097 7 -0.0007836070210205921 -0.008005886971027616 0.003479477196142793 1.084057895244232 -2.401396704064356 3.151387793662535 -2.816349233512611 4.861046611733264
4098 7 0.002371622381657105 0.008150435256651777 0.00350984695714963 1.084048396927888 2.03204845147271 -0.4168600819777666 -1.655878755503598 2.654228266371845
4099 7 -0.003300776158902105 0.008527412436052878 0.00247036416045251 1.084016374265798 -1.602141249839969 -0.9347989833702677 -0.6573592629230227 1.967949929317197
4100 7 -0.008148253895965409 0.00330507956896941 0.00152808262617852 1.083946272225512 0.3435492114902886 -0.9143047547378151 0.2151149741292315 1.000126840628925
4101 7 -0.003347964244187945 0.0003462291891617447 0.002461361444167694 1.083930022723276 -2.042264460652547 -0.6295631954254877 4.393668881362163 4.885848972627891
4102 7 -0.007128480664757898 -0.00826778259477865 0.001508053775127873 1.083985532652622 -1.02269979020163 0.9933646876997325 0.02933884725519665 1.426025606924893
4103 7 -0.003813306291941695 -0.009266372960144773 0.003012374021154854 1.084017052109178 -1.543122832380387 0.4108313964110888 -0.424911881723699 1.652440806601171
4104 7 0.005288585761637783 -0.009211331893785072 0.003076956543475807 1.084038052804112 0.3380811983839585 0.4417124603932516 -0.00603506056177559 0.5562780027318873
4105 7 0.008422021440796035 0.002865820133709642 0.002465157123935096 1.084024034616324 -0.1031604851402027 -0.1329244091362408 0.08854018815209756 0.1901324516135779
4106 7 -0.000594162974193549 0.009616178464996093 0.00298994075820409 1.084072897658887 -2.786191949618186 3.585933755537392 -3.329906002440012 5.63116865884034
4107 7 -0.004533523296369928 0.004274974828984691 0.00349515430380515 1.083957502435839 -1.503117171890053 -2.734464061319949 0.6500052768986159 3.187344003253679
4108 7 -0.002043154407330471 0.0007019349807927705 0.002964236455966296 1.083939973083707 -1.524050873047291 -0.7816950074789826 3.764018711775877 4.135409896364894
4109 7 0.001060154240278744 -0.009831472215100702 0.003490965497770762 1.084072762120295 3.29379433434891 -1.337565326864395 -3.374661017651513 4.901683292979625
4110 7 -0.004233592112382997 0.003821896397216081 0.002989664887242342 1.083956067882393 -2.120404901251072 -2.760491777127041 1.160911924253952 3.669352571327889
4111 7 0.0005903315950290477 -0.009607929806874436 0.003490965497770762 1.084086551569535 4.854676283803633 -2.08924329400138 -3.541524173674288 6.36201326898762
4112 7 0.004123923597932793 -0.01006709163089918 0.002583800456280979 1.084042053442768 0.5747975696993639 0.3257611956427144 -0.1772981980333223 0.6840667027013734
4113 7 0.006558100398770638 0.005590664036571647 0.001474283220561127 1.084027452826026 0.031469652569882 -0.5241655680538746 0.09166537425097565 0.5330501126561006
4114 7 0.004762441628239365 -0.009871949830683114 0.001073669327786093 1.084038992714574 0.3010784564024577 0.2852712992891558 -0.04001770301780504 0.4166885739525755
4115 7 -0.004486428430173187 0.003603860607489853 0.0009896648872423411 1.083958148430533 -1.136456775807562 -2.183026791706939 0.5146667658705317 2.514363111501766
4116 7 -0.00585926054791776 0.00662343806220695 0.002994549470226701 1.083979563325749 -1.020937231422702 -1.57270116452213 -0.08188758781419342 1.87680775798491
4117 7 -0.0007928039833271158 0.008711967265503367 0.003684724317412645 1.084080758235137 -5.028868517297302 -1.070964171682499 -5.082743590823578 7.229852365805937
4118 7 -0.007483568538455101 -0.004826932683484893 0.002489100706455436 1.083959094597062 -0.3142531236509477 1.236253029061993 0.165352300955673 1.28624179726079
4119 7 0.001838368674267205 -0.005556686001526091 0.003500184171939087 1.084023966422036 -0.4109725922624267 1.409887298291581 -0.252678984212056 1.490143393951491
4120 7 0.007633104176259155 0.002267013265485336 0.002973785488389346 1.084022474635721 -0.2224466581747859 -0.1733280619688933 0.1034852910965025 0.3003903098842411
4121 7 -0.009611553948137683 0.003136534055409901 0.003006985426766513 1.083945784795715 0.2990883438685013 -0.9274026540608705 0.2982267726010522 1.019052858341111
4122 7 0.005919449975457946 0.009021620704853153 0.001461082376743346 1.084036076755245 0.2654174185767019 -0.2812745528249475 -0.03161697288886851 0.3880224389458035
4123 7 -0.002519586451693217 -0.01024799169921144 0.001577553932684781 1.084030249024418 -2.064352460962266 0.577204691691638 -0.01454435518438848 2.143578288157335
4124 7 -0.004403923705895383 0.004301626060674107 0.00049515430380515 1.083968295063566 -1.005095816741858 -1.850963560277422 0.3614434757436267 2.137036520152261
4125 7 -0.001983813585930762 0.001238810857508635 0.003472879509169025 1.08393916813899 -4.437517082131245 -1.988492113101816 0.4807056494804237 4.886382778653052
4126 7 -0.006802816117307391 -0.006941011310480167 0.003063240107357785 1.083978150153118 -0.7477118796495342 1.158449006880714 0.06608160692703233 1.380378185602051
4127 7 0.000278939756913497 0.007799824795679339 0.003486741492695512 1.084063268734093 1.041463783590069 -4.921622715924641 -3.607278251239355 6.190272478033551
4128 7 -0.008699333449542955 0.006715465939404253 0.002990746270084598 1.08396839045907 -0.5706764503128671 -0.9996117809595761 -0.07329098494296424 1.153371966040782
4129 7 0.004038227374322268 -0.009995179137711042 0.001583800456280979 1.08404139634328 0.5705663254777509 0.3202403114332771 -0.1007534042429614 0.6620053151619031
4130 7 0.007051238385921395 0.004835412725113094 0.00148178044072624 1.084025732511045 -0.1182532601561759 -0.266110035947588 0.0005572349637366673 0.2912021553498456
4131 7 0.006259469623365082 0.002085199176357001 0.002476016223574797 1.08402034281479 -0.3397680799783856 -0.1403586926497391 0.08780738995482612 0.3779590566519361
4132 7 2.787524885489029e-05 -0.006974894142004757 0.003484699105247369 1.084044887029973 0.2665853334742536 4.868289829830347 -0.3230663236042062 4.886275212951098
4133 7 -0.001400301945077693 -0.009270608674931119 0.003572030318278796 1.084062288625959 -6.163189686673141 2.583919981971719 -4.053044166621191 7.815927110952927
4134 7 -0.001617193612550793 -0.005680333977527072 0.003523877556210437 1.084005434675182 -1.690611901346699 2.33945583486966 -0.4951243450426251 2.928544061702792
4135 7 -0.001143584355003013 -0.007744801401570417 0.00300335475235323 1.08404422215239 0.5546722101190865 3.599282023344798 -1.831439909225143 4.076354313029476
4136 7 -0.006508341559231976 -0.007401547215177626 0.001577392118831847 1.083983301680453 -0.7350994319323073 1.273074425082808 -0.1247656303482491 1.475349493897401
4137 7 0.004237953870067611 0.007125695387391008 0.002977741826050862 1.084033484325528 0.006515264169889828 -0.7970458100297588 -0.1480986977786318 0.8107143123424702
4138 7 -0.00249906489130773 0.002226197140706945 0.002435470083261703 1.08395194895936 -2.144074531068408 -1.136918032057071 3.075439021886569 3.917647684993554
4139 7 0.002095046934100704 -0.00836084584326223 0.001690977890164327 1.084041215862637 0.5096929872787644 0.6160734728440957 -0.510963650531534 0.9489032181354677
4140 7 0.0052870974626036 -0.009477747992429968 0.001584311588419139 1.084037539344491 0.291840410185193 0.2844736770503651 -0.04403914301112757 0.4099213876693574
4141 7 0.008669642215988793 0.002587283704410224 0.001465157123935096 1.084024265218744 -0.104303962099385 -0.130918689828743 0.009468385134993563 0.167656405106304
4142 7 0.00641598924641254 0.002380212504876016 0.001476016223574797 1.084021149546176 -0.340949625386462 -0.1377726288895989 -0.005360847475208805 0.3677725968692778
4143 7 0.0002873626770059925 -0.009228018800128936 0.002970442693913554 1.08407607259345 4.854629358612924 2.236665121551597 -6.631506941409615 8.517451578344069
4144 7 -0.004035217017423065 0.0008377786872405165 0.001440788097670912 1.083939224191544 -1.655599679499594 -0.5353771186020002 0.6578821722425587 1.860227918948731
4145 7 0.005835568842092971 -0.009881624984192393 0.002999722008576424 1.084038115739578 0.4565422098292931 0.2787830841851623 -0.05496478334664218 0.5377470825508484
4146 7 0.0002082938031676981 -0.009912594779431256 0.003490965497770762 1.084087547247738 1.495953034791849 -4.767741180209772 -2.175850135628467 5.450096811661736
4147 7 0.001481979615951943 0.008129341367800632 0.00350984695714963 1.084064199265568 3.041755656451018 -2.542687865688678 -0.8235734185714834 4.049174265408903
4148 7 -0.0006712338973812139 -0.008864411331525757 0.003479477196142793 1.08408092696299 -6.500794269600197 2.583964406503854 -4.182202798317515 8.150338547324303
4149 7 1.717441627730609e-05 -0.008315424020697683 0.003479477196142793 1.084080033077519 -0.6391747807789393 7.089484977618977 -4.226210618918195 8.278296796064144
4150 7 -0.0105780794880615 0.004115454772921617 0.003032943171534019 1.083951273501399 -0.1515355533212532 -0.730624078054844 0.1024474742739888 0.7531733215794281
4151 7 -0.005450268436720133 0.006567588192705883 0.00149125265367617 1.083981885910358 -1.130242183820507 -1.621441020699735 0.1337477922389286 1.981011572309444
4152 7 0.0004626568072142237 -0.007239679451754316 0.003172158439506812 1.084046719144477 1.71975396687766 3.352534594023022 -0.9349669308114507 3.882164998093659
4153 7 -0.001566317275430305 0.008434049738514731 0.003684724317412645 1.084050384956267 -6.898170956962125 -0.8045180918683094 -5.518893263018456 8.870749391128671
4154 7 -0.01039920960153668 0.001926514350505893 0.001492566308135963 1.083943709005583 0.2430788118123792 -0.2429060008686982 0.2002260421280791 0.3977198787544034
4155 7 0.001296326134642869 -0.006758415627113754 0.003172158439506812 1.084034865367853 0.05920710032090384 2.03494986417219 -0.7939292711249346 2.185143042908586
4156 7 0.001487445430105884 -0.00596571491411504 0.002984883277186456 1.084025817373913 -0.4103730101482527 1.465624453363578 -0.2452210750995594 1.541620712571159
4157 7 -0.009234258353685881 0.005676478351855267 0.002487545015949793 1.08396116760955 -0.451461297501046 -0.9436125132686207 0.03914419214593668 1.046782759753526
4158 7 -0.0009315693756448545 -0.007575725097487836 0.00300335475235323 1.084044082186327 -3.575187166733385 0.5181299489830925 -1.873966294565511 4.069664801230674
4159 7 0.003805279780612914 0.006650291272278614 0.001466027758969574 1.084030007767978 -0.01828523477261721 -0.8226251011178706 -0.03023981696713898 0.8233837825279793
4160 7 -0.002707488549427951 0.004786231480533131 0.00247210287450695 1.083983769286565 -1.448313453423114 -1.793840101940649 0.5048160536751991 2.360151143199313
4161 7 0.004084123964164769 -0.006590424229150946 0.002548965516290006 1.084030193200462 -0.06960513257249158 0.7498202925456305 -0.1856798132167684 0.7755980522344439
4162 7 -0.002673118541440178 -0.007807883778995587 0.003498222009680793 1.084020625547242 -2.453899451139077 2.506825285107855 -1.211619546054941 3.711309398411715
4163 7 -0.0007067823927512304 -0.009710862315962181 0.003572030318278796 1.084085296809497 -3.510742315490748 -3.624986449963747 -2.553784859331747 5.655763032160221
4164 7 -0.009997073134705431 0.00360747647100158 0.003509300095723848 1.08394826514255 0.2999525726382516 -0.9803369245449781 0.2489271816097342 1.054986622286168
4165 7 -0.007234061107710734 0.004157618197017659 0.001006658418951685 1.083953798355814 0.0268381374588429 -1.588221498577947 0.3782549235573302 1.632863926162496
4166 7 -0.003379266280292407 -0.01066055481131821 0.001498000263070507 1.084023433113978 -1.278398714410494 0.4849535407848225 -0.1964613083911258 1.381332782287054
4167 7 -0.009693730296273875 -0.003704183009725966 0.001478103632098557 1.083950578000651 0.3648254475853005 0.8760497460993834 -0.1871395203741286 0.9672548603819304
4168 7 0.002938601805378723 0.006782206135823737 0.001484483319020966 1.084031260114303 0.2973329332884549 -0.9617828918833801 0.003522254935885453 1.006700357910589
4169 7 0.001137244095995156 -0.006307629967255682 0.003484699105247369 1.084030044910418 -0.4012720240107122 2.310780977283332 -0.4573901652911589 2.389546761528897
4170 7 -0.002983890654677611 -0.000245386693513263 0.002966850860730502 1.083921732899352 -2.479843698074389 1.977718901443906 2.682020507602666 4.153821231493842
4171 7 0.000632260364526864 -0.008902610050062008 0.002657902028172998 1.084056702968995 1.660114978310892 1.066014170466556 -4.354936300234082 4.780987150363845
4172 7 0.005624574784880554 0.007704568989902771 0.002461122667735913 1.084033889126415 0.2355047601576246 -0.5435154140689491 -0.01755532409095505 0.5926041569136855
4173 7 -0.007376907242234063 -0.004588328178468475 0.001489100706455436 1.083958507071074 -0.3143805334527414 1.236203103633717 0.1586025799325788 1.285374658070142
4174 7 0.005585951729069517 -0.01042700080265754 0.002507077053519756 1.084039202069015 0.3344810944305948 0.2651320315577297 -0.177458419686058 0.46223812846507
4175 7 0.001545607865953939 -0.008784750290841838 0.001197590462754331 1.084042006180883 0.2258373781980081 0.4583260050071102 -0.5309791984213142 0.736888158008574
4176 7 -0.0005835559688140821 0.008673688115475602 0.002658242970667001 1.084060874537857 -2.8577791894169 -2.955877194330941 -4.94230442575553 6.428878978505722
4177 7 -0.003876642158709126 -0.008840010377414749 0.003012374021154854 1.084014428842431 -1.605243607589771 1.60485296232712 -0.1510241351497899 2.274899637301764
4178 7 0.001167755881055439 -0.01029126087507182 0.003490965497770762 1.084065970011159 3.352392226717668 -2.113259514278724 -3.205744983333992 5.097175719417337
4179 7 0.0004316098956595245 -0.008294680243187573 0.003166936530402236 1.084073685479115 -1.236214838489417 7.565570010173327 -3.978137705794977 8.636646126361967
4180 7 -0.002451733548083398 0.00208793831540392 0.001435470083261704 1.083963090967471 -2.22925004678908 -1.2282626702333 0.7964546075644872 2.666931738929298
4181 7 0.007767808575933009 0.001554677843856478 0.003474896871125994 1.084021693733603 -0.2488004406465185 -0.1469739943971425 0.06769452053841725 0.2967921198513856
4182 7 -0.0005172688356399883 -0.006891328638749675 0.003008576661457806 1.084036610991287 -1.726733470346844 4.726213963988811 -0.9639387700525262 5.123268962628184
4183 7 0.001046377723802135 0.00697414982405366 0.003057357034359263 1.084040231799904 0.9498009896090114 -3.412945041164507 -1.155063454119623 3.72618938822417
4184 7 0.006860092541382547 0.006179589666205947 0.001000784105362959 1.084029063469455 0.05662483541657398 -0.3948938931082259 -0.0376436667086443 0.4007051340367334
4185 7 0.009420900423196097 0.002043387114962943 0.001480467148876435 1.08402433816572 -0.1177990711573146 -0.1260569386918805 0.009267671794869481 0.1727798098690701
4186 7 -0.00150327447556771 -0.005162224465282272 0.002502924438695703 1.083999518638047 -1.500349438313406 1.858406416147703 -0.02125786528772892 2.388550761751338
4187 7 -0.002314104609164236 -0.00999251840341818 0.003572030318278796 1.084037390771327 -2.972426921937796 0.3408050236042525 -1.33184975244683 3.274949409298895
4188 7 0.007500727421487539 0.005880226853258558 0.0005093927082647207 1.084028157904887 -0.002701412102522121 -0.4004106738263681 0.01653696118743739 0.4007611214012016
4189 7 -0.0005885163671238496 0.006750317993289772 0.003232234394622278 1.084029767819843 -1.618907389448542 -2.920609253310906 -0.8223360969574002 3.439048735114917
4190 7 -0.004984953452494494 -0.005294617481006241 0.002536395667840662 1.083973675662176 -1.060352671037468 1.638403868371647 0.2700481935818921 1.9701880747097
4191 7 0.005274856880977447 0.01009079004969961 0.002500995720189455 1.084039401008084 0.3043436033551633 -0.3222282134645512 -0.09743264511878741 0.4538162301974279
4192 7 -0.0006205966951460104 0.007491540404699919 0.002203893830638985 1.084034263082995 -1.1554211149279 -2.049298252407683 -2.090724168124791 3.147339960557727
4193 7 -0.0008706833296093586 0.006178384499937381 0.001533279229967478 1.084015140161608 -1.299238727126249 -1.889337103003222 -0.1497086878298802 2.297831292776079
4194 7 -0.002052150759293385 -0.005417373074287289 0.003009357385403422 1.083997642710635 -1.457868928675158 1.888658251606765 -0.0724389489024031 2.386977001539156
4195 7 -0.0003422385895835292 -0.009938881116091119 0.003062995816049558 1.084076522336398 -2.272056927086112 -3.907672481509489 -3.404466818362988 5.658846279940914
4196 7 0.01102234675225969 -0.00190058396455043 0.001290508043985622 1.084024966589664 -0.03753113603660116 0.06843068218184259 1.813356010853668e-05 0.07804706762522352
4197 7 0.002909484211997091 0.007711106780006706 0.002996197386102254 1.084039521070464 0.4407908636622299 -1.325869624547441 -0.5346749020071935 1.496029444102644
4198 7 0.001744765746727236 -0.005088321987629429 0.003044049193301889 1.084019814922508 -0.2179849708394981 1.247208417997849 -0.07133956637971769 1.268122872267447
4199 7 -0.002802781151534228 0.005311847689100092 0.003004022883851462 1.08398783856416 -1.65157011482829 -2.329506973646891 0.1284341983286525 2.858457963266865
4200 7 -0.009315707437128987 0.006574085524126432 0.002483429970770864 1.083965782436389 -0.4357012991461885 -0.8837908316261178 0.0541494364680909 0.986840421554505
4201 7 -0.004622714703347105 -0.004136635790673669 0.002457788590286897 1.083960710123059 -0.8616140476059736 2.35991269556279 0.9345011067671016 2.680458732429829
4202 7 -0.002667685897445518 0.004900538399842061 0.00147210287450695 1.083987332277416 -1.442379696619238 -1.773685419988495 0.1693919499779826 2.292403278443064
4203 7 -0.0002740196398931904 0.00931151349243927 0.002476682250899601 1.084063117769964 -0.9452094979188872 -0.2066530420303416 -5.70415750138956 5.785632141382241
4204 7 -0.001681362982982757 0.008203911975906721 0.002656419421292686 1.084033362618679 -2.500476058664479 -0.915326421735409 -0.9185138411130469 2.816712739098085
4205 7 0.005670732831763043 0.008365210685696237 0.002969731270637676 1.084035663926156 0.2504289255906919 -0.4135389434536508 0.002725475312427294 0.4834630624369857
4206 7 -0.002450645018116898 0.004624277062862341 0.002968931200092136 1.083983669510692 -1.968108367909085 -1.634875604374352 -0.03198577899123053 2.558767648628895
4207 7 -0.005314983375653909 -0.001127090198914089 0.002945295475614325 1.083905397135265 -0.4151315023798077 0.8577193993026189 4.122430668091807 4.231128850015327
4208 7 -0.001957174496500381 -0.00854892557656365 0.003498222009680793 1.084044579494198 -5.106350552462659 1.025511867082334 -0.3414198188136698 5.219488293582154
4209 7 0.001454181551406052 0.006683696990732453 0.003057357034359263 1.08403456277568 0.3111342965058433 -2.290229508923781 -1.135069377990933 2.574944319176663
4210 7 -0.005479292462501092 -0.0009186740817370853 0.001416079075914814 1.083932595664996 -0.2776951907019213 0.6239799116181618 0.6778585000720737 0.9622669562870519
4211 7 -0.002842470557220427 0.006962362258899958 0.00298808961773601 1.084008161089179 -1.717663792805257 -1.712239864843592 -0.108820811769414 2.427751269992026
4212 7 -0.01161620544150324 0.001220535592106054 0.001500066027638222 1.083943796578642 0.1250975851844693 -0.3226359103018545 0.08784999864324777 0.3570167484823513
4213 7 0.000313269014194496 0.009425038676655707 0.002989905090340756 1.084076282695858 6.37081563628799 -0.8119622538840164 -4.954754552414179 8.111483665025345
4214 7 -0.0009665149502390715 0.004351522671573082 0.002443353437833536 1.083995271109011 -1.376351982585613 -1.77899207153948 0.005983735875223184 2.249265074566069
4215 7 0.001393842502565915 -0.005497350900218378 0.002528748298549258 1.084021665874384 -0.3279105137874217 1.184746911642356 -0.1936461280764048 1.244447416573884
4216 7 -0.0001455992470554604 0.007756114399453959 0.003171465810108156 1.084054654187757 -0.810319627031 -6.847844387161804 -4.506228418410245 8.237456234033854
4217 7 -0.01110059930396505 0.003827010586444001 0.002525626872220322 1.083950365049407 -0.1337616751448929 -0.5677116508697356 0.2714913417207968 0.6433476920765061
4218 7 -0.004650434725473717 0.006142533661136471 0.001495029161669433 1.083983708319141 -1.36594893914498 -1.526116979017663 0.1666173433160105 2.054899237697795
4219 7 -0.01050236379804797 -0.004100323536271492 0.001456010233791723 1.083952533907931 -0.1911970167678059 0.7276329543705412 0.08609385872965508 0.7572437969490886
4220 7 0.003659804580559658 0.009930558971285494 0.002508706616753896 1.084043898869198 0.6331035761409727 -0.4035856938939412 -0.2720871928336385 0.798581862392599
4221 7 0.001902895665505472 -0.0069296944469908 0.003687459334259444 1.084037900147569 0.684757264150167 1.660233011591822 -0.6139834276473585 1.897957273758098
4222 7 -0.003072234516661144 0.008360836322790138 0.00147036416045251 1.084015022618203 -1.592203410291354 -0.9307883275901035 -0.2068681408141652 1.855875275498143
4223 7 0.003814001721279834 0.009792281311549259 0.001508706616753895 1.084042032821222 0.6330915411097652 -0.4129680801688488 -0.05331614609350852 0.7577533543953114
4224 7 -0.008066566327262728 0.0072577199804626 0.001490141436506148 1.083974449377126 -0.8098807399901163 -1.215739221050827 0.05096017934278362 1.46168587818548
4225 7 0.001523787039358112 0.007634120132517583 0.00350984695714963 1.084054614099566 3.102555691533191 -3.445368763852574 -0.4973906999398551 4.663026404212469
4226 7 -0.001677212595217629 0.008700435561043789 0.00317150147797149 1.08404028114791 -3.207507127480418 -1.492760086063146 -1.558981383635329 3.866116604798989
4227 7 0.002253096999616201 -0.006587779393850158 0.003187643506198531 1.084033672611064 0.2309342794919082 1.421814419692837 -0.01448842569463449 1.440519628457049
4228 7 -0.001905185049375841 -0.007983175034549631 0.00302209956589123 1.084035976778081 -4.464451005954381 2.802287603044165 -0.9916927694118796 5.363542965582163
4229 7 -0.009605647882395577 -0.00338071188715083 0.0009873937382996619 1.083948995230158 0.1205075007120534 0.5416830322418791 0.2545646324963192 0.6105290470277465
4230 7 -0.0006074644698225921 0.006772665812830976 0.001032428020530829 1.084022283309581 -1.11141313629122 -1.495049558976099 -0.3265586510872089 1.891309836043585
4231 7 -0.001869113563425848 0.002043564565048158 0.002940959499824512 1.083955434653706 -4.510020492001997 -2.975204091370522 0.4971875340681183 5.425801292677291
4232 7 0.007727445436053901 -0.0004116891777048255 0.002462790639236426 1.084021533875557 -0.2550637036553194 0.04901831997928274 0.07488207768999512 0.2703102184067973
4233 7 -0.002387266054910605 0.008790782540567433 0.001460438137561887 1.084024359330409 -1.786309014768708 -1.062836680227778 -0.2472651376238147 2.093241924232762
4234 7 -0.008340362398788189 -0.00503820004556679 0.002490878058822065 1.083958984698873 -0.3448198400382883 1.229367389059389 0.1713062592230713 1.28825103679979
4235 7 0.00403885299933723 -0.006806962883974994 0.001548965516290006 1.084030587353697 -0.05558935770884853 0.7772747361818619 -0.01216240073785869 0.7793549359494515
4236 7 -0.005101599642625926 -0.005177679354744938 0.001536395667840662 1.083972734489071 -1.070774286279764 1.603800243737415 0.05066636286869596 1.929067099480076
4237 7 0.001646527468753597 -0.006416500573973112 0.002672342611445899 1.084030637831347 -0.5346841088835825 1.882013455418365 -0.2369834317372455 1.970792452184239
4238 7 0.007071939623411638 -0.0009781777887168525 0.00247385658152717 1.084020659112638 -0.2698960871212808 0.03588812835269756 0.07859298608110044 0.2833879197516749
4239 7 0.006208043356453038 -0.005889218022509176 0.002471720901079763 1.084027836816377 0.05747914691533876 0.4970574915047589 -0.01135350899578763 0.5004986557001287
4240 7 0.006631173573823151 -0.0005103173416374925 0.002966263191877585 1.084019737547026 -0.2234553164345336 0.03100650413986965 0.03264126915101189 0.2279454632003499
4241 7 0.004740341793315768 -0.005572199690233951 0.001484733830674436 1.084026324228292 -0.1478703235030274 0.5090221559780742 -0.00718619986787216 0.5301139776670655
4242 7 -0.00547209398541287 -0.0007262929250593911 0.002416079075914814 1.083916610818811 -0.3132129020478791 0.6359618117259801 4.278308412601632 4.33664301289845
4243 7 0.004443418305763971 0.006621549099147772 0.003491391397098238 1.084031469848922 0.05617667892065114 -0.8137677345579711 -0.1076968382421023 0.8227832971259881
4244 7 0.004071856952019848 0.005938713752273117 0.0009796773300169499 1.084027036835512 -0.1372462906677457 -0.6078036547959768 0.03133613915834971 0.6238940460549
4245 7 0.0005492693325786697 -0.008539002581458833 0.003166936530402236 1.08407422012775 4.854621063212144 -2.664731550514242 -7.908237618543707 9.654447790269462
4246 7 -0.0109817148698547 0.001564658998285327 0.0009948809770932981 1.083944258385644 0.1207337813429175 -0.3255264843870659 0.0881602489358607 0.3582127405428163
4247 7 0.008037244574499369 0.002283490164704932 0.0009737854883893455 1.084023511969527 -0.1725634931517242 -0.1528523358212323 -0.02126134800968002 0.2315038674707632
4248 7 0.004643318032245069 0.005398932656463828 0.003473499115198168 1.084027080959537 -0.002399493481064791 -0.5665033184712422 -0.002074373005819343 0.5665121979545212
4249 7 -0.004242565178514845 0.0006478704738396149 0.002440788097670912 1.083921333434163 -1.813453201506356 -0.6247934590289465 4.388633384036825 4.789476209355416
4250 7 -0.0008043753484111611 0.01095208225380526 0.001498002406180887 1.084043440641054 -1.180936199117174 -0.09656423456380099 -0.3807254468707222 1.24454281713291
4251 7 0.004622451938011168 0.005520318957388051 0.001453176445215118 1.084026213927956 -0.1894377686553619 -0.5129110116555862 -0.02452424296108308 0.5473260569016366
4252 7 -0.007222406879439526 -0.004151869835929759 0.002987843896313062 1.083951738232152 0.01042476886889177 2.023919886258534 0.8576588717090343 2.198167218848452
4253 7 0.001134251968399727 0.006308034471720022 0.003547510077209633 1.084031803255448 -0.4625538061150926 -2.760397284516623 -0.4928162995202499 2.841938967851199
4254 7 0.003299944611760866 -0.007107314864251738 0.001559885882191843 1.08403270406049 0.3567830020614678 1.039244237579282 -0.06096263575995415 1.100472234479606
4255 7 0.001401137302102682 -0.00925864129943307 0.002688555960525092 1.084056915717516 0.1467089655277412 1.544076965798558 -4.014069886604599 4.30330736195101
4256 7 -0.004618018713117975 0.009545959431061738 0.003488743033681845 1.084010284729519 -1.361614274721631 -0.8147424676381303 -0.1345137850528128 1.592448642835309
4257 7 -0.001754682932263326 -0.009055055086311214 0.003070252327959589 1.084046783856339 -3.741041597154531 -0.9879143436475875 -1.082482882106825 4.017852183950956
4258 7 -0.0005066783453150693 0.003206281450222106 0.001415381737565913 1.08399057438255 -1.754225267507663 -0.8739270990206122 0.03210927477422486 1.960123942277999
4259 7 -0.009399989911679897 -0.004147072238947581 0.0009896212486796905 1.08395252092571 -0.08716975552809057 1.098914966016705 0.1628044390777228 1.114323989779334
4260 7 -0.00516719368518518 0.003584049998169189 0.002510762086654348 1.083948992157627 -0.6964585260479215 -1.92538999300986 0.8321670515216886 2.210131920344496
4261 7 0.004720099719230569 -0.005366541778146283 0.002484733830674436 1.084025754645699 -0.1479812185988139 0.5093224713894964 -0.01535312126091077 0.5306067651780804
4262 7 0.001979125804289671 0.01064644242281101 0.001495678492671656 1.08404801727854 0.3591621116237832 -0.1172181607974894 -0.2471167770963372 0.4514468087928874
4263 7 0.006232918567684364 0.002697245965869397 0.002995715845113951 1.084020720380548 -0.2971732117542635 -0.2142121376908673 0.02239038859876614 0.3670151048935714
4264 7 -0.004071817811219192 -0.004242407373868078 0.002968856048854631 1.083963238003086 -1.544835628732493 1.972640438668434 0.4187690209654426 2.540313939849101
4265 7 0.003403599975496865 0.007701572630874445 0.003486350428952624 1.084039304301262 0.6621175808563395 -1.40624012052958 -0.4453823770663599 1.616872422075218
4266 7 -0.008023748908385675 0.007204390027694717 0.002490141436506149 1.083974221243573 -0.8100566984533207 -1.213273631964653 -0.0334949866546 1.459228109262149
4267 7 0.0003620721037981776 -0.007990015270630754 0.003166936530402236 1.084060663453064 -0.771198602301546 6.510874119049978 -4.028442938068772 7.695101141868303
4268 7 0.007671456541989415 -0.0004834722616805752 0.001462790639236425 1.084021746019282 -0.2554240499573304 0.04615819080178019 0.01857181395614952 0.2602247800427934
4269 7 -0.0008869691744344892 0.006404585494514746 0.002733085604058926 1.084021331168545 -0.874588189407115 -2.577819040091805 -0.08752733907034613 2.723548519779845
4270 7 0.001429907976660851 0.005871800826647015 0.003035796010128345 1.084026250047288 -0.4757554797834229 -1.522032867034046 -0.1387948692930617 1.600684647461176
4271 7 -0.001459546471456507 0.006649272833565542 0.00267049347017049 1.084019612086158 -2.572907883710066 -2.157361132649517 -0.1033709874935992 3.359277838431888
4272 7 -0.005035181491101332 -0.001633190037502602 0.002945295475614325 1.083912130689406 -1.187073257160381 2.521309690315033 3.838857074353386 4.743729451566023
4273 7 0.007712723069703444 0.005130042843750856 0.001008281325528072 1.084026652737815 -0.1126860526060601 -0.2684203898199322 -0.002158204940509475 0.2911224999404637
4274 7 0.005834080543058787 -0.01014804108283729 0.001507077053519756 1.084037602279956 0.3414929513742446 0.2613332429152975 -0.05411349527538672 0.4334060106434121
4275 7 -0.001802668652102315 -0.005195804450986553 0.001502924438695703 1.083997397797759 -1.503279830698951 1.865199929439358 0.07962845061362231 2.396906697456949
4276 7 -0.006578151049738715 0.009123183042502321 0.003010156602608703 1.083992922437812 -1.14692956675476 -0.8955451850549033 -0.1193868088081264 1.46003486934
4277 7 -0.001923004563540707 -0.004146983517938056 0.001497903328522168 1.083984663868155 -1.511952345495836 1.897926168643407 0.08143436722281387 2.427911693788879
4278 7 0.008958420915566956 0.005421786727688073 0.001000764343810471 1.084027663423693 -0.008399079920407147 -0.2290997419715086 -0.03928411793947452 0.2325950950411546
4279 7 -0.005881121925270957 -0.00760254082435695 0.001076135308689473 1.083987941148151 -0.9948180315236026 1.219500918137245 0.07640098799461112 1.575653044343402
4280 7 0.004925609598866474 0.01013035893668231 0.001500995720189454 1.084039672461426 0.3064819256147488 -0.3248886534213474 -0.04889398853874455 0.4493043845386863
4281 7 0.006673076435343941 -0.005751982240870222 0.002989253839571604 1.084027414647672 0.004589503561759294 0.4500012897459183 -0.03925192948339466 0.4517332601039055
4282 7 -0.002538217840215445 0.007484517090306252 0.003484917943321196 1.084018259260012 -2.270137180680216 -2.394772682986918 -0.4109486797610006 3.325257559901848
4283 7 0.004357943205118873 -0.002245268030810641 0.002458342093180272 1.084016511803498 -0.4160542539338581 0.2991604958429895 0.004749007439491714 0.5124653135199913
4284 7 0.008433606384454197 0.004953995435699752 0.001499652961073823 1.084026813841384 -0.09858928875477632 -0.2743640251103053 -0.003421784789544336 0.2915598990654353
4285 7 -0.008233701102567152 -0.004799595540550372 0.001490878058822065 1.083958397172884 -0.3440221868485983 1.229462046874805 0.1433104437631117 1.284704663742316
4286 7 -0.005135575569559216 0.01010176175885377 0.002999504469868997 1.084008856479968 -1.300998754244998 -0.9515224580062859 -0.09535910858184435 1.614647362809256
4287 7 0.0001638933343003574 0.008281936385089339 0.003486741492695512 1.084079189218841 1.201433349114858 -5.622500443901865 -3.758766973965401 6.869081634295449
4288 7 0.001413208356769152 -0.01095903081244592 0.002507874333850939 1.08405135901795 0.4458813411893962 -0.08058411002953952 -0.8968154048411321 1.004779497984742
4289 7 0.004530794048509369 0.009939733193931431 0.003009644614083785 1.084041637802796 0.581377968090426 -0.3887129313904246 -0.2929020542272132 0.7582148100516176
4290 7 -0.0007453729558320825 -0.009270608674931123 0.003051507514421589 1.084074181024637 -6.653172330316235 2.90044863003485 -4.068071076642728 8.320246787023432
4291 7 0.007286679386465413 5.617126937453447e-05 0.00295519724958684 1.084020612309945 -0.2524433451430493 -0.01201954931097767 0.02693061390613962 0.2541601267665983
4292 7 0.001051410764102904 0.008186102954278693 0.002996588449845141 1.084061062426834 0.4227491029428354 -1.28143766422063 -2.885251561728133 3.18519636220074
4293 7 -0.009145241723116137 0.005652437309376259 0.001487545015949793 1.083961552733493 -0.4510903773995482 -0.9427413561614969 0.05638461123611146 1.046624582925479
4294 7 0.007015950729347153 -0.001049960872692602 0.00147385658152717 1.084020871256363 -0.2678025219364992 0.03505481067193943 0.01844064382575945 0.2707158803090487
4295 7 0.004263990089883503 -0.004829172365060996 0.001484263701179643 1.084023090148581 -0.2487124026831541 0.7377308752182701 -0.1151825897512493 0.7870017360085978
4296 7 0.007310585330425164 0.001175402762335498 0.0009551972495868398 1.084021592873598 -0.2461650544270339 -0.1331601298351033 0.05244958081342974 0.2847451715591867
4297 7 -0.001458436721773393 0.006175361491286303 0.0009857691527578453 1.084010163616752 -1.277998932752636 -1.884381472518573 -0.1344781727507568 2.280846155494606
4298 7 -0.009539565517293796 -0.003113662038492382 0.002987393738299662 1.083946028597109 0.3900797519172439 0.9291896269054258 0.3136392613380523 1.055426530771868
4299 7 0.00646512265569717 -0.005253059457770467 0.003502082597227189 1.084026366591602 -0.001190246172304327 0.3720284316733697 -0.0980546370184787 0.3847353408515046
4300 7 -0.00784302018376235 -0.004096759105918011 0.003498911354880796 1.083949681201585 0.5173575632241461 1.765867171441483 0.3653072398541003 1.876005089249438
4301 7 -0.001395553630648563 0.007166923091432456 0.003169642260733841 1.084028350995058 -1.988779226014936 -2.667282645027987 -0.6023978519068012 3.381201367898397
4302 7 0.0005858294173914907 -0.007643418900346054 0.003687459334259444 1.084061326436943 -0.8744413143498297 6.058544290701044 -4.195368829713918 7.421032687703458
4303 7 0.0005459311261617083 0.009075246034188678 0.003486741492695512 1.08408420970783 4.302236170804162 0.8377060348987393 -5.653756819525209 7.153737040499129
4304 7 -0.001625402266686483 0.01143956410860084 0.001471195732725476 1.084037975872084 -1.16486090981756 -0.09944923530030129 -0.3781042056892974 1.228720423848624
4305 7 -0.002016648354983223 0.01088289606876464 0.000963134084748679 1.084033751630508 -1.188073019127852 -0.1111702773709813 -0.3957922223191048 1.257190444045215
4306 7 -0.004971171801527336 -0.0004034688286610174 0.002946277514233721 1.083903289590181 -0.5335589783632653 0.4483336415673454 4.084261356455923 4.143293263261999
4307 7 -0.01087767680753629 0.004172592789644795 0.001525626872220322 1.083952523085186 -0.1384348285351328 -0.5488410232704526 0.00924287601305734 0.5661060866419843
4308 7 0.002449789158835379 0.008495327353447364 0.00300890895981974 1.08404551954759 0.8061264403617476 -0.989170949489571 -0.8358273750573193 1.525420075277499
4309 7 -0.0009800526691250877 0.008216749576696806 0.001458436596575553 1.084033407857613 -1.570072551680614 -1.10546712201437 -0.6325053713582061 2.02169444283566
4310 7 -0.0006311795202285294 0.003792178044479106 0.002942502228396888 1.083992806965377 -1.482334394859728 -1.522556941176477 -0.1033012210780726 2.12747879885677
4311 7 -0.007888985928000594 -0.007839170199789147 0.0009939017636538116 1.083978928099922 -0.8306704940240579 0.9661033299745422 0.121665911281245 1.27991082025193
4312 7 -0.0004592189180230536 -0.008424157690494705 0.003479477196142793 1.084076647622594 -4.786936723629326 6.142762786093749 -3.611182882999085 8.584226211879256
4313 7 0.0003810750921274091 0.002873623322423356 0.001438105467534359 1.083997326621592 -1.518973411168871 -0.9966561797948933 -0.001436661776900952 1.816756953628748
4314 7 -0.0009307038068558478 0.01078829496404849 0.002498002406180887 1.084047594254751 -1.157788792296975 -0.07449360459717473 -1.342972817308807 1.774711292781089
4315 7 -0.001628899150771337 -0.00433733991044897 0.002979046882485266 1.083988373822807 -1.627619263219544 2.338422525470807 -0.003556408632327683 2.849101090111573
4316 7 -0.009591826037570307 -0.003641834855519743 0.002478103632098557 1.083949788959393 0.352888760298376 0.8741420925412712 0.2588109140655172 0.9775673707406489
4317 7 0.006874345745726597 -0.004827951798652386 0.001525046840816286 1.084025598284656 -0.161852595471613 0.2980124850386086 0.02034340741672535 0.339737484133128
4318 7 -0.004272381550653316 0.006261786212306239 0.003503171674414813 1.08398706246886 -1.54677679098453 -1.746209613714008 -0.02681935571695935 2.33291357190889
4319 7 0.004105371115952781 0.005149453241191078 0.00296178504811688 1.084025397406607 -0.3030009381853599 -0.9219839444357685 -0.0175996631670738 0.9706563297491758
4320 7 0.002372941577976794 -0.007055593533661894 0.002681030933608526 1.084036237230936 0.6800737232522375 1.003086160923076 -0.290710745803723 1.246272383156793
4321 7 0.005632673518938527 0.00803207560657257 0.001461122667735914 1.084034401248899 0.2346092448778192 -0.5466306900695495 -0.1674273608057064 0.6179632110849452
4322 7 0.01124779818001182 -0.001399493020679154 0.0008073680927548333 1.084024860570208 -0.0346256409457971 0.04991968403855358 0.01882124204583326 0.06360148596978002
4323 7 -0.001106325023984489 -0.005293014338612148 0.001017444609502719 1.084003924671113 -1.226121867925732 1.684040726009784 -0.1560204749018221 2.088949590213665
4324 7 0.001892660094706596 0.01079840148722254 0.002495678492671656 1.084051407009071 0.3530034594292042 -0.1198703021713982 -0.8000138042903414 0.882611136779246
4325 7 -0.006372437528522703 -0.0005626986726494674 0.001415347369735696 1.083931075568018 0.1236854124071019 0.4332651763776686 0.6834191964664232 0.818583283730311
4326 7 0.003114449155218424 0.01097990874663479 0.001515809080157572 1.08404574596659 0.3994717071784198 -0.1281241356944086 -0.2468666414901587 0.4867613148804154
4327 7 -0.004664689575571147 -0.004621471750408853 0.0009744123706252502 1.083970148697169 -1.04320824243753 1.706229241102909 0.008621381536048802 1.999893994316648
4328 7 -0.003310603847535913 0.007206931804570189 0.002484792801185479 1.084005514153962 -1.729543897100514 -1.70063454603497 -0.1189131372753171 2.428501654391419
4329 7 -0.0104004595393444 -0.004037975382065269 0.002456010233791723 1.083951744866673 -0.1922289219853657 0.7274777175022683 0.1281527159947111 0.7632816691934813
4330 7 -0.0003808291526643813 -0.009498627475060063 0.002542473012192351 1.084065406551537 -1.979645370866333 -0.3627809926562436 -5.888878137968222 6.223302303991445
4331 7 0.002554045798213652 -0.008296178581043225 0.003493387427409996 1.084047217582832 1.010709716847707 1.322361122074697 -0.5086705106448564 1.740378911991501
4332 7 -0.004765496837885684 -0.002041931159478679 0.001428671695275971 1.0839412113208 -0.6772750867926574 1.484099239748597 0.5872904977011649 1.733828776235545
4333 7 -0.00686195647407449 -0.006788549722472209 0.001063240107357785 1.083977253648542 -0.7385119005921766 1.09529278214454 0.03619810370466208 1.32150535702509
4334 7 -0.0009575641883649084 -0.00627069702745655 0.003523877556210437 1.084020863089336 -1.911711232187572 3.253017656271328 -0.7563286499252017 3.848219943556086
4335 7 -0.00514985498897973 0.01019174538481898 0.0009995044698689966 1.084008004053862 -1.226135307385967 -0.7143527002303651 -0.1532125692686275 1.42729872967322
4336 7 -0.0009844487099630221 0.006980066221708516 0.003684724317412645 1.08403172180034 -1.74689705815143 -2.68000945115728 -0.5350050794528559 3.243505884858362
4337 7 0.001780954933884132 0.005462729075080896 0.003488285932918712 1.084023950050026 -0.4758854254268103 -1.509747929128516 -0.1426406532143624 1.589387335922531
4338 7 0.005294781350856924 -0.003150271991901685 0.002470042342657294 1.084020150485286 -0.4248379564348487 0.308312221320421 0.106322708235924 0.5355821443344542
4339 7 -0.0005797168026088558 0.003038180081669453 0.002415381737565913 1.083988259178672 -1.755935418858659 -0.8733836427906649 0.1929449119548552 1.97061815726586
4340 7 0.003623591138631733 -0.004958857311950665 0.0009821811039524534 1.084022362786729 -0.2519002365045662 0.7388466819842993 -0.1185702653898908 0.7895613063371925
4341 7 -0.004468603806471785 0.009027031395202431 0.0009854462171313139 1.084006911747444 -1.29803974689725 -1.013611606365708 -0.02461520479889153 1.647094891435111
4342 7 -0.005537071597432707 -0.009894380216407043 0.003020109240060565 1.084004664393506 -1.33226637324289 0.9413026489226319 -0.1220812914684179 1.635814233912006
4343 7 -0.002248537578346619 0.004514322399169195 0.000968931200092136 1.083987101382771 -1.353780669821503 -1.789043987121253 0.07848376579717935 2.244896476751384
4344 7 -0.002232915540598213 -0.007575045093631158 0.00302209956589123 1.084021721404552 -3.397732499907761 2.350338636238919 -1.016861354202198 4.254725003992244
4345 7 0.00518145662537834 0.009461464830374989 0.000977701535058294 1.084037892902618 0.2709189070624267 -0.2871610443924474 -0.02841697746892831 0.3958106166197801
4346 7 -0.002975455683104815 -0.006712154945647477 0.003011215664094502 1.084004659822489 -1.567840640466866 2.262932501162746 -0.3300015987903338 2.772704245663863
4347 7 -0.008512073290848483 -0.004456989457021868 0.002989621248679691 1.083953930602882 -0.3350252653850865 1.224563973124919 0.1619922810214695 1.279859504724004
4348 7 -0.002744724538304563 -0.006217369545089276 0.003009357385403422 1.084001391794732 -1.921671228408838 1.468251155041081 -0.5003696587459199 2.469605547403736
4349 7 0.0002388994936209106 -0.007586275822039016 0.002651635635649605 1.084046056160599 0.6400700353255787 1.459589148187489 -2.492285907670889 2.958306809173665
4350 7 -0.003649697172061378 -0.008013426040568946 0.002985560117564857 1.084009898895887 -1.702035487259622 1.28721948500847 -0.2465240917401164 2.14816966980843
4351 7 -0.003978459060205148 -0.006001512326393658 0.002972817937077048 1.083987305281428 -1.593708784116499 1.860524069858008 -0.1730183934441468 2.455889424945897
4352 7 0.004881033908290025 -0.002800201546508852 0.002967959745430105 1.084018475806508 -0.3184912764358898 0.1885023107944942 0.01934694208466943 0.3705996741885427
4353 7 0.004960094311537437 -0.003322540369835369 0.001470042342657294 1.084020011424192 -0.4223809766624312 0.3061836971095429 0.02311896618413824 0.5221959712784089
4354 7 -0.00327197247373386 0.006678935313239584 0.003503171674414813 1.084001109114596 -1.771257885261718 -1.778453740786429 -0.05298666265260887 2.510589530496397
4355 7 -0.001775138452202344 0.006911237216536391 0.003484917943321196 1.084020447773116 -2.315086368391968 -2.650105176667209 -0.4899853569108913 3.552853499723813
4356 7 0.0008522382506017262 -0.00843026891166181 0.003687459334259444 1.084083805585772 4.854663987200357 2.708317653881353 -2.314011873422027 6.021411619652287
4357 7 -0.0005355133197437282 -0.007345934030091926 0.002488053857600599 1.084038730667161 -1.435958770355724 2.188777869979877 -2.57521499617134 3.672119065441768
4358 7 -0.0006904181200510778 0.01129919399329212 0.003011225245622042 1.084052068171359 -0.4615327460546594 0.333291396148672 -0.7579119079899248 0.9479061613368772
4359 7 0.006661834579400037 -0.005463578024164592 0.0009892538395716039 1.08402674696541 -0.0840946196986682 0.3674231870058446 0.05272200909888952 0.380593370482486
4360 7 0.0003007326039197373 -0.007508296015692269 0.001651635635649605 1.084036043640334 -0.3960198060086786 1.80327629548109 -0.5491550590681942 1.926190116134787
4361 7 -0.004339736767036109 -0.00408416445249594 0.001457788590286897 1.083965088362231 -0.8661154336337488 2.354675679697199 0.2880924735428086 2.525401111555956
4362 7 -0.001839131293010287 0.006393586958669477 0.002985769152757845 1.084011708864216 -1.891887166180312 -2.017045116135603 -0.2285089242429516 2.774873759028135
4363 7 -0.007963998137856296 0.007894530511876423 0.003004580216966471 1.083979168376713 -0.7766225300124721 -1.042227511648516 0.03708446752959747 1.300290735909467
4364 7 -0.002611657309386438 0.009453882238967242 0.00297552019424069 1.084032629507236 -2.159996328017651 -3.260901097686945 -1.475376416756948 4.180406161734555
4365 7 -0.005575567141255246 0.008212002382996852 0.0009960983498710201 1.083993947169646 -1.166624636848219 -1.006434185039335 -0.1206673919302932 1.545471912262494
4366 7 0.002113971237542895 -0.008172487785993512 0.00318084676166944 1.084047147160791 0.3621316212334769 0.9285190268927838 -0.7706576132783944 1.259841280202812
4367 7 -0.002626099988822813 0.004179378354881329 0.003468079990655487 1.083976453485541 -1.811788431158953 -1.977862924552673 0.3349498692900018 2.703092762473915
4368 7 -0.001195217861986627 0.006769642804179898 0.0004849179433211965 1.084017306764725 -1.12477070464892 -1.497004865175199 -0.3371644930588998 1.902580510720718
4369 7 -0.008164655217335844 -0.005355238549332911 0.0009919667039412689 1.083962716256859 -0.4214744010389422 1.124978859147395 0.01960581183735596 1.201500100756347
4370 7 -0.0007034262265766534 0.004132474660637285 0.001443353437833537 1.083995768234839 -1.371915393332342 -1.794659929620853 0.232970706937415 2.270953865612395
4371 7 -0.0005160603382766272 0.007437933474756154 0.001519169513226341 1.084030624587712 -1.247021991836965 -1.850835807148453 -0.4769302208080909 2.282130467056595
4372 7 0.0006309303416252806 -0.005157905521998371 0.002522131179902452 1.084015750336813 -1.112448254371772 1.652180729537587 -0.1360883497219884 1.996437407143087
4373 7 0.00416507832910936 -0.006184638283308559 0.0009826512334472465 1.084028031120722 -0.09476355784723668 0.658932295813332 0.04852051753903447 0.6674774475470694
4374 7 0.002960120054030405 5.480721832668104e-05 0.002416435052540253 1.084007855244734 -1.09312845018656 -0.1486908769375672 -0.1529246440497882 1.113743566647857
4375 7 0.004638323305043292 -0.002652594635503863 0.0009679597454301052 1.084017957291634 -0.4512397518599873 0.3390157951822746 0.006158269042020188 0.5644350691791986
4376 7 0.003441867503417575 0.01031054227782883 0.001022356187801271 1.084043679581162 0.4167575498169415 -0.1482950191347413 -0.2536321239219254 0.5099093275423981
4377 7 -0.0005113789178688947 -0.00575936130159307 0.002502143714750088 1.084014456684089 -1.169129285711218 1.641465742204076 -0.3119642465262478 2.039263288702048
4378 7 0.001592723039936851 -0.005565053300683083 0.001528748298549258 1.084021444521366 -0.3277662835935218 1.182464981214669 -0.171653912805703 1.238999287425633
4379 7 -0.005244393228869224 -0.001591166923394053 0.0009452954756143245 1.083938200690519 -0.4461959182142398 0.9835112684425117 0.8174558495146965 1.354481184251092
4380 7 -0.00625603438471494 -0.009420058311672124 0.003020109240060565 1.083996881972128 -1.158198205651082 0.8303343881888204 -0.1189211354429752 1.430042137923682
4381 7 0.005960530473297193 0.00179089297035631 0.0009771276063114454 1.084019702138399 -0.3512539733604392 -0.1439293892767676 -0.01804646602485757 0.3800272330176691
4382 7 0.001082319477668873 0.005485171415685303 0.002510218247869746 1.084021182993076 -0.5090436028212182 -1.58782192052191 -0.1490396591553104 1.674071880435313
4383 7 0.001749837559667176 0.006247463345659447 0.002545642967277975 1.08402900956752 -0.2822491145658934 -1.110479931212104 -0.218517647468223 1.166439112235661
4384 7 0.003926485632401293 -0.009394724036091507 0.003076445411337646 1.084041973818799 0.5855226066359258 0.3163427209741135 -0.1907156394196191 0.6923018814897653
4385 7 -0.001084589025994471 0.008270356506640569 0.002143160913988198 1.084037046352895 -1.567114148740496 -1.101038810467522 -2.078858475407869 2.826620911638757
4386 7 0.00156441900112587 0.006495289442608831 0.001545642967277975 1.084028901389178 -0.2863661039384505 -1.109843702862469 -0.2617712776039793 1.175705231785069
4387 7 -0.002914638836096738 -0.007066001643493303 0.003011215664094502 1.084008894160445 -1.437981441723081 1.251745605501035 -0.3277617609296813 1.934447068171903
4388 7 -0.004197229507558901 0.0002402683001159145 0.0009462775142337207 1.083938330201431 -1.485628068570021 -0.3896061256901839 0.8975277258329698 1.77888721113434
4389 7 -0.001299270087161512 -0.003748605537009108 0.001012423499329184 1.083986703071356 -1.667705189880268 1.711020995523612 0.2733895864221066 2.404906508253542
4390 7 -0.002544450273376516 -0.007477654071798006 0.00302209956589123 1.084015762789831 -1.727134736840921 1.608968024824579 -0.4204055229812166 2.397605744876245
4391 7 -0.008529286739116694 -0.007851133697545936 0.00150482198052527 1.083975948928143 -0.6369083545611989 0.9400940858148183 0.07228017522677328 1.137828443142755
4392 7 -0.001026925727051587 -0.009135020006456884 0.003051507514421589 1.084061298964649 -6.130319163639032 2.583917623111024 -4.058733796284465 7.792994505336533
4393 7 -0.01085585426152806 -0.00349559170710576 0.0009653003399928278 1.083949924959859 -0.1089646627689788 0.6837077355948417 0.1244056164146727 0.7034247101432376
4394 7 0.00216377506748502 0.008502518606463427 0.00300890895981974 1.084048970695698 3.07600357962088 -1.181756649681398 -1.305960693877159 3.544556408756783
4395 7 -0.005442191974438822 -0.00757629592625089 0.003076135308689473 1.083990539186962 -1.125717715782507 1.213229190011551 -0.1093914459822141 1.65865365027686
4396 7 0.00176637204711419 -0.006884314713784847 0.002165730038855895 1.08403320245122 -0.2753881468588281 1.137507674823497 -1.771141857714166 2.122900332530919
4397 7 0.0115728824148216 -0.002434789670251857 0.001260076347435861 1.084025265046009 -0.02491835113817091 0.0524367474452811 0.00391014443880266 0.0581878504124158
4398 7 -0.008989499401221616 0.0004862994255446242 0.002976959484161108 1.083931045657524 0.8014379916980506 -0.1532517678527695 0.5302997579228811 0.9731427398588914
4399 7 -0.01152756689549262 0.001300432653654477 0.002500066027638222 1.08394298482429 0.1269596927649287 -0.3197246288534996 0.2156127969389421 0.4059944335656668
4400 7 -0.002951875690038063 0.00366830610759353 0.003468079990655487 1.083965376696537 -2.448703282577724 -2.774359178904031 0.3673160295649543 3.718620400800723
4401 7 0.007534664689455581 -0.005028166812781771 0.001022964243589096 1.084026430124306 -0.0791731281487614 0.3025999400624534 -0.02430152313633612 0.3137286597896444
4402 7 -0.001751730725131169 0.01127577681884407 0.002471195732725476 1.084042129485781 -1.104522454100404 -0.08386812513922569 -1.341238865181138 1.739518728700193
4403 7 -0.00276072510139958 0.01058074399088854 0.002451877118430524 1.084030887922539 -1.668853344742814 -0.3531838950491828 -0.7132953249833519 1.848945799807148
4404 7 -0.004937332054162493 -0.002168187032799937 0.002428671695275972 1.083929661151338 -0.7226327062559172 1.532326637738552 3.342350233419392 3.747202694772803
4405 7 0.0002987256573405128 0.002212805759928357 0.0009636832297929585 1.083993115687581 -1.544585904828416 -0.8551550727352125 0.1471686851471101 1.771636090653866
4406 7 0.01014194665263948 0.005176678288542658 0.001002291852417224 1.084027167610756 0.02059302288132463 -0.1658108177744902 0.01592180418552265 0.167841603099345
4407 7 -0.001455130010410614 -0.008083107200891834 0.002501576762034022 1.084038727075478 -1.942909030665372 1.819138726003935 -2.663557629563456 3.76546151910944
4408 7 0.0007564965316718608 -0.004732275327248853 0.001522131179902452 1.084011918028263 -1.121882781364556 1.648290777923462 -0.04012454015902896 1.994265138448942
4409 7 0.001505966304370675 -0.007492341475502409 0.001665545866916809 1.084035981279673 0.4670785573140115 2.397887017706103 -0.7660177822776684 2.560235881935804
4410 7 -0.001047568202032351 0.006724695731448503 0.002218003547380123 1.084022655337024 -1.072495412961181 -1.905309780933263 -2.286373393010369 3.163535216242816
4411 7 0.006414918316919507 -0.006002015003816235 0.001471720901079763 1.084028079471934 0.05731180737110779 0.4964578573429553 0.005578837055259612 0.4997861250621012
4412 7 -0.001936182597483214 -0.003831480834495822 0.002497903328522168 1.083979884284118 -1.511256041579723 1.8859448824744 0.3021116063441288 2.435560376100421
4413 7 -0.00767260136629986 0.008290645293620953 0.000991478186792205 1.083982390771489 -0.844329608342687 -0.8818285033524585 0.0376419386676148 1.221446238029169
4414 7 -0.002361133374340176 0.00635935313821554 0.002488940827172659 1.0840057930276 -1.503237048332456 -1.931690511335525 -0.1235700884453295 2.450799751473254
4415 7 0.01109162036934551 0.0004412295861563017 0.00251452280866814 1.084024683782934 -0.03706414236140361 -0.02557955945077975 0.009505471337879776 0.04602628049318805
4416 7 0.002396197714663761 0.007663098066286131 0.00350984695714963 1.084044754112458 1.994995983804139 -1.890256273391145 -1.133589637412919 2.972894754366387
4417 7 -0.009091947256617355 -0.0064704247453077 0.003009340024627295 1.083966656708877 -0.5311755089179765 1.028829936644375 0.02557032608689417 1.158141744945812
4418 7 0.004449919641191625 -0.001925392741871967 0.001458342093180272 1.084016132349718 -0.4161457908025997 0.2994510774330671 -0.0189693720408638 0.5130381116975331
4419 7 -0.00700033184922675 0.008831866717736872 0.000991478186792205 1.083988821156824 -0.9200658502444072 -0.9415968954198142 0.03832730974266161 1.317040191080859
4420 7 0.008875458330538013 -0.002982096728326845 0.002526526342125056 1.084024372070059 -0.1025468318048735 0.1662179757768018 0.01997260381223211 0.1963241530927738
4421 7 -0.006431154542190654 0.004295523870826302 0.002501812722756835 1.083953629863629 -0.7310839291969872 -1.946969308069647 0.1888076834804648 2.088258015532698
4422 7 0.0003080366348336228 0.002705521953870703 0.00243810546753436 1.083995011417714 -1.526316117809546 -0.9932970415562883 0.2160227595078536 1.833833617555057
4423 7 -0.009579921375358543 -0.006140993959022596 0.0009987931082838159 1.083963696460275 -0.4717815653965527 0.9381812897597995 0.1006566842148903 1.054937792469546
4424 7 0.009200908843577747 -0.00657695106001599 0.0009785512723438556 1.084028792333212 0.0768733056743635 0.2037043128203972 0.005305698920306205 0.2177914200053972
4425 7 -0.002463790236544573 -0.01085423913250699 0.001079331923003989 1.08403185861209 -1.584810996867953 0.2947906010572626 -0.4005964370667476 1.66102525557436
4426 7 -0.008809222525513785 0.001050824609482706 0.002474644815203773 1.083933964205334 0.895768017209976 -0.7510935133539297 0.8282815088916499 1.432687008536921
4427 7 0.006960330700467429 -0.004885574608019532 0.002525046840816286 1.084025752568791 -0.1603400598655899 0.300213759753078 -0.01115592878522133 0.3405314832579224
4428 7 0.009134734484471347 -0.003771062496835511 0.002506776661344121 1.084025349927634 -0.1082445902533735 0.1829817859922558 0.02018050965931035 0.2135567331978694
4429 7 0.001096685340986938 0.01106500073752997 0.001014083849701872 1.084048073592558 0.1451745169210246 0.1436194620724058 -0.4775716301207616 0.5194004737631855
4430 7 0.001196993300744508 -0.005200693162374321 0.001028564126610171 1.084017602987905 -0.3374234535209473 1.18882932594783 -0.1770968434181839 1.248412209636008
4431 7 0.01124177565033212 -0.000195583875530145 0.00300032416646345 1.084024663125322 -0.04538883768289485 0.001412908468434199 -0.009193516487328579 0.04633210163533628
4432 7 -0.0002741179466311615 0.007335002224977571 0.003684724317412645 1.084051483093084 -0.374896386092077 -6.394889153466263 -4.703515462028293 7.94721412112223
4433 7 -0.005454933087856779 0.007285707718750896 0.0009960983498710201 1.083988303837558 -1.147643189946 -1.339057739352363 -0.1340269293172526 1.768650258963343
4434 7 0.002483210757201557 0.0004998737026284702 0.002926052704790087 1.084005999751315 -1.022112392711666 -0.295840404489626 -0.2288127880047488 1.088388983873807
4435 7 -0.002197492918422739 0.01075328462504147 0.002963134084748679 1.084040343566918 -2.363473813048004 -0.6996224792392459 -0.9543053000755722 2.643138037290688
4436 7 0.001433366434892154 0.005076099664119182 0.002962708170660113 1.084018882995814 -0.5256111686970921 -1.551700020812365 -0.1750376323391459 1.647628061178588
4437 7 0.001681252889077119 0.01144257352910455 0.001507536742058174 1.08404857166463 0.1697761548887566 0.1358813572147511 -0.4514910179875886 0.5011305471938453
4438 7 -0.003403862219409719 -0.008546647138486765 0.003498222009680793 1.084017188526169 -1.707402336327976 1.292954463957236 -0.2519075429773023 2.156481252915044
4439 7 0.009622462597332068 0.005728256668119394 0.002511684560681945 1.084027912472571 0.07647685438736147 -0.1890525214399999 0.01226326994465355 0.2043035802660902
4440 7 -0.00636523905143448 -0.0003703175159717733 0.002415347369735696 1.083915090721833 0.1516875628175085 0.4149821170821572 4.346501814183803 4.36890115417076
4441 7 0.002618476592977577 -0.0004815254515136937 0.002999145403423707 1.08400643616157 -1.012201209325039 0.2266369520751666 -0.2798406187291787 1.074349276583608
4442 7 -0.006479298908832115 0.004853022821388173 0.002980715523344829 1.083959197607578 -0.7143323263735454 -1.903042855077075 0.2271647605457404 2.045347552176879
4443 7 -0.006226152540852102 0.006046557616056331 0.001480110689766379 1.083973246081181 -0.493701583262038 -1.346393177928019 0.289670701353922 1.463019124314316
4444 7 -0.009120998816749021 -0.006306810357148104 0.00150004991842619 1.083965827881405 -0.52788738302542 0.9871718076344325 0.02124588115881648 1.119653810073397
4445 7 0.001806170545837412 -0.006501231454391481 0.001478270704596452 1.084028160640767 -0.3095989949228627 1.121179881600916 -0.1675625507038378 1.175148106819845
4446 7 0.002730018042346282 -0.008744428120153106 0.003003518555904883 1.08404605885732 2.089047075652212 0.6564679773998084 -0.9469369934700196 2.385740463513267
4447 7 0.004818998955288648 -0.003501940857023663 0.002984079529240556 1.084019588146112 -0.3184916032412248 0.5612611048241113 -0.0899400396501964 0.6515674484317235
4448 7 -0.006234736840113471 -0.006989543331651533 0.0005619832972154113 1.083981893116241 -0.9443181765799941 1.130601345216827 0.1260813390949999 1.478476487636327
4449 7 0.001526062259831507 -0.009807592457726267 0.003001096626265648 1.084062495892731 1.146139591633464 -2.84898765253163 -1.326697315086113 3.345219331171591
4450 7 -0.005398393555746431 0.007682189800379276 0.00299609834987102 1.083992043250319 -1.14786539510058 -1.316652123657184 0.09720547816416672 1.749461827244455
4451 7 0.0007300228044292098 -0.00659800935122795 0.003484699105247369 1.08403496739262 0.9042795543199132 3.10671918338423 -0.944506122377314 3.370685006341712
4452 7 0.001469292345374056 0.005878199899459768 0.001035796010128345 1.084023861679243 -0.2952979719250894 -1.126383969393944 -0.2698337588412503 1.195304143781459
4453 7 0.009393784111280067 -0.006071034618575747 0.001466394981212506 1.084028091837387 0.0769064603306325 0.1990001492349645 0.00369284473439797 0.2133759596073505
4454 7 0.00965260105222885 0.005662756642138638 0.001511684560681945 1.084027836033581 0.07645648572860442 -0.1884393961700261 -0.008578278361457371 0.2035401363332033
4455 7 -0.001321975769615248 0.004147776827434611 0.000968931200092136 1.083991125713321 -1.516664523230517 -1.750171900903003 0.08019619672073021 2.317283838614716
4456 7 0.0008891048430769233 -0.00704879501108602 0.003172158439506812 1.084039787850055 0.9339489684196022 2.571152063326704 -1.119446064143895 2.955713636144148
4457 7 0.0005748654098713881 -0.003162696394771114 0.001530003366347784 1.083999089032308 -1.094828684132949 1.202021403314923 0.2670890404307355 1.647677716407451
4458 7 0.002790425248592836 0.008307697482450697 0.002495259388772365 1.08404177878765 0.2585464979591781 -0.9396247418240744 -0.5738047681785415 1.130925664683291
4459 7 -0.002998230571503817 -0.003343087564148675 0.001487712494891534 1.083966934403903 -1.635779558436131 1.921610518834934 0.4720153647456741 2.567325506134849
4460 7 -0.004122477111360785 -0.008306789279496933 0.002499712129038918 1.084007139212149 -1.592554156145853 1.38855053669233 -0.1374274910429935 2.117353926130527
4461 7 0.01132646240659159 -0.001965248188136354 0.001760400513899311 1.084025020535627 -0.02437397530017563 0.06699689665767788 0.04308557477888999 0.08330090988530955
4462 7 -0.003301767871337759 -0.003475348235549123 0.002487712494891534 1.083961046613229 -1.670178037555789 1.904528248999942 1.025820665219608 2.73295271923319
4463 7 0.0100773574175863 0.005217898997351763 0.003002291852417224 1.084027208167437 0.0320140546693404 -0.1697484316276005 -0.01282696516623718 0.1732165141427847
4464 7 -4.517215352481938e-06 0.007412760424124951 0.002718975887317789 1.084042170783208 -0.7808320088147354 -1.951689183766292 -1.524460984629486 2.596684537959414
4465 7 0.0009235617060387848 -0.003686019517710493 0.001037432074655083 1.084004935114706 -1.02677648681042 0.9017676687320827 -0.00705982511024346 1.366566765060468
4466 7 -0.0002875733922334962 -0.009617781639720201 0.00154247301219235 1.084045419928248 -0.927616612192101 0.1572688126344755 -0.7925072140340219 1.23015191864183
4467 7 0.002011045715327301 0.004417126543825411 0.002411084775445764 1.084016208694996 -0.8373323844907538 -0.9031989309944628 -0.154327509084768 1.241253725523843
4468 7 0.01064558011598782 0.003922459764722996 0.00299911005444434 1.084026016535096 -0.009694168099056315 -0.1185649922639402 -0.00904525876281531 0.1193040275588684
4469 7 -0.002839348615556951 -0.0002446445451834943 0.0009668508607305023 1.083950974397953 -1.987638439109668 -0.3572784716590056 0.710493951978125 2.140830709499191
4470 7 0.0007021762363079052 -0.004635794072861531 0.003037432074655083 1.084011348157074 -1.130248780807916 1.731246255229142 -0.06502715044887947 2.068551288476602
4471 7 -0.006499561298388166 0.006263328946490224 0.00248011068976638 1.083973383721007 -0.4853843854762451 -1.340858183483302 -0.0202603480506128 1.42615186834412
4472 7 0.003741831153980668 0.003922486426704768 0.003448376604785651 1.084019332318554 -0.3289968976367214 -0.6191626532302847 -0.09673511842937652 0.7077845950197692
4473 7 -0.009950409763150583 0.002254710567498724 0.003497685331042665 1.083941982192199 0.2905589619011028 -0.4046434445302923 0.1469473540368305 0.5193788139699306
4474 7 -0.006589165514316105 -0.005805210508707665 0.001552172648790051 1.083970422233902 -0.7831029049308493 1.632650423347168 0.008873572488869772 1.810766772628528
4475 7 0.005610312725595717 -0.003037405443883875 0.000988045410643928 1.084020979935412 -0.3262851871818128 0.2965180148071318 -0.02785316096681635 0.4417700250755776
4476 7 -0.0004565490883359153 0.006188434202842251 0.003547510077209633 1.084022743131102 -1.575305307934376 -3.002539104300592 -0.7963015167198259 3.482947601040061
4477 7 0.002049022467076844 0.006854179442409229 0.00350984695714963 1.084037387334497 1.05722462138629 -1.836833188115673 -0.8173439134912888 2.271504156709784
4478 7 0.007391295417220305 -0.008433519648133162 0.00248973028823301 1.084032781052672 0.2243439584812493 0.2650329419982148 -0.01800669144158822 0.3477023338833637
4479 7 -0.002445954357398512 -0.009683257795378262 0.003070252327959589 1.084032092962225 -2.035415022061163 0.4924186630723444 -0.5271500134820348 2.159462337825855
4480 7 0.004243748015798304 -0.004623514452973328 0.002484263701179643 1.084022520565987 -0.2511655058579452 0.742608646321974 -0.004939197480998943 0.7839490471942603
4481 7 -0.003453622720157994 -0.003699253177607175 0.0009688560488546312 1.083967845537745 -1.689083170544834 1.891340918747474 0.4181298252915268 2.570020423799128
4482 7 -0.0005539461348441553 0.0049468524390894 0.002975273447178049 1.084005371276074 -1.486441073272951 -2.049632948899487 -0.05533614107004507 2.532501604744955
4483 7 0.006741142885864904 -0.001034790919847569 0.003485962813416739 1.084019861518503 -0.2285549830455728 0.02343721336258439 0.04002611533190606 0.2332140071988139
4484 7 -0.008930648754517448 -0.0001748198188070641 0.002413113628383117 1.083933549999992 0.7130895191541795 0.500332659362248 0.6026191349779573 1.059235221371353
4485 7 0.001834465244979255 0.008492717912306833 0.00300890895981974 1.084056670280382 4.80780610071221 -1.317580218154858 -1.129249229495907 5.111381511454184
4486 7 0.003512320193465972 0.00517213597266577 0.003488285932918712 1.084024559547775 -0.2887339193711153 -0.9051117958952035 -0.02996763497865093 0.9505223292539002
4487 7 -0.001668270978115974 0.000684088726150776 0.0009642364559662962 1.083966824729058 -1.831142470414564 -0.773059877190592 0.2362835822851327 2.001632896396185
4488 7 -0.004973502950665626 -0.0003746959309118335 0.0009462775142337207 1.083933992779849 -0.461033269721077 0.47258041941115 0.9210489618412543 1.133232155698636
4489 7 0.0006757704863847155 -0.00792692009790707 0.001166936530402236 1.084038745509335 -0.14286411446129 1.379979530773036 -0.7142450694206194 1.560416508418519
4490 7 0.008503091852903464 0.001614965633151225 0.003474896871125994 1.084022749720476 -0.213696021959495 -0.1469741375671091 0.07647158245629246 0.2703983909683598
4491 7 0.002926755433157404 0.008717996579974756 0.002985412431622735 1.08404594740571 -0.05503048038505599 -1.391197539898169 -0.76108294974746 1.586728144701046
4492 7 0.007461556445590749 0.0001720859821182621 0.0009551972495868398 1.08402143688013 -0.2528895484363919 0.003170219009873224 0.06192207125588485 0.2603795631487841
4493 7 0.003484691532575222 -0.002024581185784835 0.001464433118672405 1.084012675955082 -0.9071800020426976 0.3508921935923604 -0.1588477899065665 0.9855625337787796
4494 7 -0.005175117512642876 0.0035191603412241 0.001510762086654348 1.083952000873798 -0.7184959755303948 -1.937928302729848 0.4468601078722458 2.114588974099306
4495 7 0.006897346384009342 -0.005434822316696 0.002989253839571604 1.084026719163176 -0.1403969950696067 0.3184930351713189 -0.02085225139621337 0.3486888958161775
4496 7 -0.002068109415413338 0.004318382960997 0.002968931200092136 1.083984189746699 -0.9718027470225222 -1.901822548188421 0.4102834737334326 2.174778635341352
4497 7 -0.004490077339502452 -0.005986072623621145 0.00253480123429246 1.083983398472833 -1.046542945645603 1.607041155775564 0.2739268093881213 1.937232384185901
4498 7 -0.0005048053910463754 0.010689127822181 0.003503163597645245 1.084063378703305 -3.863542010851604 3.216338381963776 -4.040361736520166 6.449520324709805
4499 7 -0.004234101707932279 0.00667106104041245 0.0009998748578642824 1.083991779378943 -1.193149850283906 -1.447502478845782 -0.003214080523978145 1.875867884956402
4500 7 -0.0006371366408590128 0.0003438862632473811 0.001472999511639836 1.083976694735208 -2.086359143326946 -0.6610584522425687 0.2300361145676742 2.200638399699205
4501 7 0.006226353611169008 0.003108124967704718 0.0009957158451139514 1.08402171363068 -0.2607302440284417 -0.2779403893273412 0.06191471900073761 0.3860887884923687
4502 7 -0.0002393061148389498 0.005406949716143096 0.002522783524387682 1.084012802270061 -1.377512830255478 -1.761245814906836 -0.168462543381879 2.24229972273289
4503 7 -0.007498231218683456 0.002805279276406056 0.001018782530454672 1.083943446346416 0.2694475663475366 -0.6120240455371233 0.3878903203933592 0.773068123764717
4504 7 0.007189702991537672 0.006879198969630556 0.00248416494704801 1.084030515498799 0.07554700740852245 -0.2749055527299654 0.02870762181638263 0.2865388992798423
4505 7 -0.0002796794416045744 -0.0001068484196574952 0.001000120002470811 1.083979874646865 -2.075762165523032 -0.7344324632667736 0.195569937965294 2.210526455745943
4506 7 -0.001833026600132864 0.002109581325647054 0.0009409594998245125 1.083971790549943 -1.703446368661267 -0.834411153876701 0.09352063636585209 1.899136017784239
4507 7 -0.0004934433777775312 -0.01058770779606266 0.003062995816049558 1.084060277937634 -2.199789547701881 -3.549616130154623 -3.424225107177766 5.40038575568995
4508 7 -0.004894822246665926 0.01073763789517757 0.001507558788897939 1.084012237355404 -1.17018413087201 -0.5442394166723215 -0.119534969754289 1.29607717817986
4509 7 0.00635462037641821 -0.003073551312438553 0.00152383841188861 1.084022073591586 -0.1564122936807537 0.2822880182771397 0.006397860115994082 0.3227882641785059
4510 7 -0.003740105764049346 0.006923504858909815 0.002999874857864283 1.083998462179379 -1.863313789173768 -1.762626690551785 -0.0678634982972184 2.565813044937565
4511 7 0.003209552084782962 -0.002568157522653134 0.0009740507709222384 1.08401236679935 -0.7832550978557781 0.4678177789806133 0.003599366833871196 0.9123349045657648
4512 7 0.007322153523129021 -0.005663793038293979 0.0004871712423444145 1.084027578805061 -0.04881434660438806 0.3723865080215653 0.03710515839639836 0.3774007744699664
4513 7 -0.002919886279015023 -0.005861358851522549 0.003485479829192984 1.083996114590662 -1.602820575017645 2.184325886799928 0.01280221682060713 2.70933151758874
4514 7 0.001307122404923384 0.00524374439154867 0.001510218247869746 1.084018902803374 -0.5066766515620175 -1.596762333266679 -0.08312954475729036 1.677284024662758
4515 7 0.0002051406592522956 0.009898779953295109 0.003503163597645245 1.084087006609913 0.6067858146880306 3.784740366519771 -2.644782476668005 4.65696500048701
4516 7 -0.006364889775138211 0.008440102863819089 0.003499395166421551 1.083990724494172 -1.012291094766415 -1.067336123067602 -0.01455905732105419 1.471105579589189
4517 7 -0.003884697654985418 0.008278707172834134 0.003496703183449469 1.084010815336347 -1.88725148500534 -1.66328154882255 -0.05132878228599883 2.516119695523122
4518 7 -0.007248480285479314 0.002065653230166699 0.001493544738208785 1.083937828814394 0.3779299768309608 -1.096428659412317 0.3983940294379453 1.226256366042576
4519 7 -1.954598484239849e-05 -0.0007521132627046271 0.001492691294163512 1.083983308977141 -2.256269396953126 0.6327885018976939 0.1619189206998042 2.3489126455962
4520 7 0.007091529546956398 -0.002211065613415292 0.002529349204311007 1.084021550389147 -0.2476221570694428 0.2147682310516907 0.04159220443940178 0.3304119205036725
4521 7 -0.006485591341302475 0.004529193994214025 0.001501812722756835 1.083957838059642 -0.7310843925018955 -1.936238943077591 0.4057413626209702 2.109059431830126
4522 7 0.002590680899036457 -0.007788941836864307 0.003493387427409996 1.084042777920905 1.025008829940459 1.486937611351312 -0.4792135189880536 1.868494623564105
4523 7 0.00207140635506345 -0.01143269784110537 0.00251095159633068 1.084050060109167 0.1998206019528941 0.06535469414547812 -0.9463863276301748 0.9694568531590225
4524 7 0.002167885894180466 -0.01091514696908328 0.00100417388874539 1.084045413147168 0.1206535562886317 0.03588960864858441 -0.2125186197381561 0.2470010291263046
4525 7 -0.003941154794292276 0.008832052419189476 0.002985446217131314 1.084012948764045 -2.168077307968903 -0.7667933671106137 -0.4440983662757068 2.342168789840576
4526 7 0.01105020123291672 0.0004471498378409892 0.00151452280866814 1.084024707308401 -0.03712734742421826 -0.02538785698961478 0.0013700342198679 0.04499844667371695
4527 7 -0.002706208996404751 0.01054656814485493 0.001451877118430524 1.084028449599826 -1.665775837253444 -0.3449165443175002 -0.2557041999031785 1.720221264945141
4528 7 0.001633663900608202 -0.01026738111769739 0.003001096626265648 1.084055703783596 0.8363489015239913 -1.583713119923453 -1.43942045588851 2.297728874373204
4529 7 -0.007571161075927368 0.00470150248666887 0.003485561219539678 1.083954489445494 0.02082717131839051 -1.723455235112325 0.1706750523556244 1.732010881027541
4530 7 0.001180568016201367 -0.00475561321799535 0.003543865021362802 1.08401548970222 -0.8309028107827096 1.763850221704346 0.127942762563443 1.953954051677123
4531 7 0.004334882076467477 0.003899803695230076 0.00292187571998382 1.084020170177385 -0.3562782306443627 -0.606133270650128 -0.08349327194859542 0.7080274330001495
4532 7 -0.006948205725809984 -0.005367217759241634 0.0009901893515746399 1.083965729217632 -0.4009647944520636 1.311180121600682 0.2051883114329087 1.386386786152931
4533 7 0.003723496867214716 -0.009226970940673235 0.001076445411337647 1.084040199388003 0.4297692032707657 0.4841745495697532 -0.2354364849283235 0.6888809047770644
4534 7 -0.0005454622058788036 -0.006346077086362346 0.003008576661457806 1.08402335133968 -1.493964425387315 3.265647116689152 -1.05497181813753 3.742906134560072
4535 7 0.004311588168222477 0.007213425651124723 0.0009777418260508621 1.084032460964774 0.04060301785183255 -0.7592005778917629 -0.1213871135287835 0.7699149004017994
4536 7 -0.007927607008399007 0.008517461639534115 0.002496663237337124 1.083982649678505 -0.7292440650753248 -0.7922974308136455 -0.05163176206626969 1.078052857783678
4537 7 -0.0005144829194494849 -0.001088026992912903 0.0009839282384899719 1.083978926001018 -2.140288891905656 0.7446052838673515 0.3146254588620311 2.287851120362089
4538 7 0.0001039518568480305 -0.005548917433682088 0.00297826615853965 1.084016961720092 -0.799032036988944 1.729211117056662 -0.2246692717904982 1.918097902916825
4539 7 -0.004532922744136213 -0.005595196067550745 0.001047463126408396 1.083980226080264 -1.033176194575363 1.504877294819373 0.01088314851607456 1.825438896381285
4540 7 -0.007172286616630671 0.009162574788179421 0.002502239622979357 1.083989419572526 -0.8630694559282577 -0.8978134819789062 -0.04402800293468602 1.246152638813481
4541 7 0.008502705257416632 0.004358863129510426 0.000990260252809102 1.084025969718767 -0.09961778785431491 -0.2387704292676758 0.02879964219296107 0.2603160404971235
4542 7 0.002718029385324934 -0.0001913293703059423 0.001416435052540253 1.084006092361873 -1.073966259438048 -0.09794540345668006 0.145832699750012 1.088238946548974
4543 7 -0.0002606456696686 0.00823822598886396 0.003171465810108156 1.084070574672506 -1.341592610739821 -5.042028864575757 -4.141142595114712 6.66115513987478
4544 7 -0.01019211614307442 -0.003235610620201901 0.0004884823834188663 1.083949258325987 0.05818818017639314 0.7088952941260936 0.06548487387945977 0.7142875268779162
4545 7 -0.01085470691187669 -0.002924439459016074 0.003013201435703267 1.083946800043209 -0.008171137950773831 0.6559332905769817 0.04886576871553135 0.6578017273728592
4546 7 0.00341900869804419 0.01094555193279511 0.002515809080157572 1.084046331303263 0.3969812238928749 -0.1271002605561594 -0.2020642972483166 0.4632262390877535
4547 7 0.001594787179494044 0.01159453259351609 0.002507536742058174 1.084051961395161 0.1617408517014885 0.1417591221133157 -0.7041791866661955 0.7362907569332414
4548 7 -0.005820882342946098 0.00560175100163561 0.00349515430380515 1.083969507591406 -0.8965547298940254 -1.759397500588217 0.1441331692661088 1.979915230320254
4549 7 -0.00408338754378254 0.006796346190904095 0.002999874857864283 1.083993865379463 -1.376325346591578 -1.533817219104648 -0.03377327765446583 2.061069468886449
4550 7 0.0003289426408027181 -0.01150623067739775 0.002997743205356052 1.08405414137941 -0.2963714889637581 -0.2996181859448601 -0.7274813354067765 0.840735517380294
4551 7 0.009027519788529391 0.004826654421498747 0.0004913716355457505 1.084026819301077 -0.009342198982118393 -0.1992025545042703 -0.01215290735156179 0.1997914601777161
4552 7 -0.0004926953039760156 -0.00572008496515424 0.001502143714750088 1.084012881122681 -1.155331291565699 1.641816831156685 -0.1347346191821452 2.012090037236506
4553 7 0.005784621429897409 0.003550185072965493 0.00146921496031212 1.084021998043772 -0.1708226287840848 -0.4342409953392409 -0.00308407180360367 0.4666423941701071
4554 7 -0.001052306738099947 0.002728734176833166 0.0009409594998245125 1.083982716593889 -1.70797776763655 -0.8378696699175318 0.09358350471919367 1.904723473595045
4555 7 0.01167136904737862 0.000945305671881822 0.001333748833021321 1.084024900603061 -0.02989586501436011 -0.01566128466477689 -0.0008541179473389441 0.03376045171166973
4556 7 0.006427104118471396 -0.0007026256999461122 0.0009662631918775845 1.084019782497871 -0.3173235575111842 0.03924600426061395 -0.02861331696158005 0.3210190195448266
4557 7 -0.003922438281069275 -0.005415828766973165 0.003485479829192984 1.083980110350798 -1.243037762537217 2.661994659803768 0.3994821809075815 2.96495269115377
4558 7 0.003110158840566064 -0.007619256270602327 0.003493387427409996 1.084039096767348 0.4774761066264637 1.274472226637743 -0.3686525256775197 1.410023962051194
4559 7 -0.007083881987335765 -0.003545173466275425 0.001457645457994155 1.083949335179571 -0.008316095060859417 2.015226051169934 -0.09763929234060972 2.017607153575691
4560 7 -0.009355850019310377 -0.005953426285347188 0.00250004991842619 1.083962848122248 -0.5277691776625436 0.9880051858961588 0.04168836945676052 1.120906986505243
4561 7 -0.003571776056841263 0.008730170374688742 0.0009854462171313139 1.084012293071543 -1.399733440209319 -0.9840162015970767 -0.02454535915588633 1.71118206608819
4562 7 0.0003346248839014096 0.0055667097710972 0.003021932314951034 1.084019126434418 -1.086088733299047 -1.720324037638196 -0.04117588780437324 2.034895325271398
4563 7 -0.009020439224828241 0.0007864559079582622 0.001474644815203773 1.083937372969268 0.8759976972637389 -0.7396130934949733 0.3385553689406662 1.19541592406958
4564 7 0.00320006988611354 -0.008500994918029662 0.002569832838747642 1.084041512614206 0.3357202727776219 0.6116015232955517 -0.463654145172792 0.8376990457122609
4565 7 -0.00684317412063202 0.009432358570525309 0.001502239622979357 1.08399270033583 -0.8682746470193441 -0.899843526211097 0.09834221421260606 1.254308744056592
4566 7 -0.006588236452862426 -0.008989348722589503 0.001006796964985499 1.083992900005759 -0.9930508520592409 0.8944057944849727 -0.02637036438851359 1.336715046710353
4567 7 -0.001943690815431261 0.005877288483610991 0.003500851209436649 1.084004369083249 -2.10826755852846 -2.340735547201482 -0.06992590534387258 3.150987882000554
4568 7 0.01119490956794535 -0.0002151286128157549 0.00100032416646345 1.084024713554831 -0.04466734365206442 -0.0008821093114811622 0.01924638150603403 0.04864537909035996
4569 7 -0.008270764029473465 0.008246023997764085 0.001496663237337124 1.083979500056473 -0.7296373778216305 -0.7930733734732786 -0.08355338908500848 1.080887250204341
4570 7 0.007010479106013955 -0.002441280731372157 0.001529349204311007 1.084021912769705 -0.2470746020276775 0.2134895198402692 0.0224509904974349 0.3273036526271588
4571 7 -0.009177296727290415 -0.00709084570658754 0.001520260241498754 1.083969790022456 -0.5138927570993242 0.8185601401793078 0.08048428804239452 0.9698475083801599
4572 7 -0.002693804149407937 0.003996775014647452 0.0004680799906554873 1.083977971579519 -1.401477548125344 -1.909626841146865 -0.005989161681285876 2.368723255339387
4573 7 -0.004090669559555864 0.007221110000477241 0.003496703183449469 1.083998407600121 -1.596725256485623 -1.808446072213807 -0.180951816885274 2.419246225756838
4574 7 -0.00199288781652725 0.007399158227488749 0.003484917943321196 1.084024630107334 -2.439918535521301 -2.366638847111845 -0.4389579366594929 3.427370123403023
4575 7 -0.00058565232534863 0.0002839132830715498 0.002472999511639836 1.083973744953286 -2.107316006088015 -0.6282808458802863 0.8876006652460041 2.371360898673996
4576 7 0.004123928501979244 0.004851871118946822 0.0009617850481168804 1.084023166187598 -0.2350261511875641 -0.6716382519733 -0.09412423844691385 0.7177705800038068
4577 7 0.006962599951900456 0.006996168212549805 0.00148416494704801 1.084030811633947 0.0763566645786324 -0.2779891649191519 -0.02756005037965628 0.2895995034784252
4578 7 0.0009530461325394296 0.007257668018882303 0.001544098527054774 1.084034695621976 0.0695410681859891 -1.728706865953363 -0.2282782181420176 1.74510009267
4579 7 -0.00158625287293673 0.00822870948642127 0.0009716951038800418 1.084027000989105 -1.233046677515075 -1.174852478082475 -0.380100507202134 1.745038351946116
4580 7 0.008737533539329009 0.003412102780070984 0.000990260252809102 1.084025038807869 -0.1031135552871396 -0.1526372423550569 0.03175018142097922 0.1869187177838952
4581 7 -0.0048816174253986 0.01065866626411557 0.002507558788897939 1.084012764133321 -1.170068375475368 -0.5444019897545053 -0.1139189873448604 1.295535049859289
4582 7 -0.009168182929820048 -0.00710420005027578 0.002520260241498754 1.083969805027218 -0.514976936205172 0.8168282023632254 -0.05568886587727714 0.9672180761244599
4583 7 0.009333029085503422 -0.00606242974293982 0.002466394981212506 1.084028106918163 0.07694106818077373 0.1989761713919292 -0.002735920129203754 0.213351658098882
4584 7 0.002594040851113743 0.004472596910495283 0.002936662537704363 1.084019138915298 -0.4600280787071851 -0.8330032737798939 0.03055742176953334 0.952078801020297
4585 7 0.0002482016607874896 -0.00508401090249374 0.0009782661585396504 1.084011553850134 -1.228713379845203 1.623894023898212 -0.1208314569068793 2.039943286378616
4586 7 0.009817360308654934 -0.003888014212584703 0.002970983660099439 1.08402575382005 -0.0563096212800497 0.1621226657329234 0.03513953838919193 0.1751836731869078
4587 7 -0.002465692896761149 0.005843054663157055 0.003004022883851462 1.083998453246632 -1.654122729203855 -2.336264111533172 0.1275514779910114 2.865400736658728
4588 7 -0.002482088367951441 -0.003755909596569779 0.001004336275229886 1.083976678542902 -0.761082964168301 1.611915798485237 0.3901922853283474 1.824765694351816
4589 7 -0.003658472283686208 -0.002127487029141316 0.00147772657963178 1.083948795994701 -1.579803343715996 1.63166984216422 0.7051286445871671 2.378094086461213
4590 7 0.0009002490697734148 -0.01131719265739733 0.002997743205356052 1.084054631712609 0.1675455992312965 -0.1596842549018833 -0.727433793375816 0.7633678751627379
4591 7 -0.005291424400684465 -0.01044501721540569 0.002512585888725087 1.08400839662348 -1.07820638778266 0.7837820204458665 -0.3866280107351889 1.387920923148932
4592 7 -0.0111299430509729 -0.003500964089657456 0.002490019392277228 1.083949072223521 0.002513486127281637 0.6267770457284745 0.01877522681879767 0.6270632279178261
4593 7 -0.007063577630876471 0.003392387926003455 0.0005210971994120068 1.083948208193648 -0.1034935583846919 -1.419425742451539 0.5759424770570764 1.535314329979327
4594 7 -5.284942112031678e-05 0.0004089299622929726 0.0009816425648425651 1.083984710058853 -2.019900376176269 -0.5931976528102137 0.1767764415117112 2.112612339084036
4595 7 -8.571667952332249e-05 -0.0007254893322001671 0.002492691294163512 1.08398079396353 -2.260754990272485 0.6290783326768672 0.3591179453736742 2.373966801236879
4596 7 0.01115579599484934 -0.001452080171812124 0.003112600375959656 1.084024787850139 -0.03861105253446003 0.04270490968961472 -0.01041117926635664 0.05850568641707569
4597 7 0.007615747151388122 -0.002562734478537272 0.003043386390894268 1.084022447192738 -0.1781314167916064 0.1958009298177968 0.1058424100377084 0.2850814296447406
4598 7 0.001861082283660007 0.003848581424181467 0.002922798842527052 1.084012828728419 -0.8506250445053136 -0.9326561475857951 -0.1423473094326098 1.270304377884272
4599 7 0.000545931126161707 0.008586601357646158 0.003486741492695512 1.084080872773223 4.302222928309615 -3.149713489320273 -4.340214730254155 6.875120442173665
4600 7 0.004314550546560035 0.009194934754869906 0.003486350428952624 1.084041607570598 0.6012903136753613 -0.3323454077830384 -0.3433856901122246 0.7680607030490085
4601 7 0.003587806218709334 -0.004669336228209773 0.002982181103952453 1.084021673353307 -0.2823126363568923 0.7556374872819882 0.02157069690132665 0.8069409716933604
4602 7 -0.0006731368294479431 -0.01119824562700005 0.002539701644227577 1.084048881866433 -0.9633189724850385 0.03582464063047696 -0.8463741195106742 1.282815652306832
4603 7 -0.002177775434497012 -0.004592488519453988 0.003485479829192984 1.083986497895395 -1.667333419479609 2.294383634711522 0.04804123703083173 2.83663620427454
4604 7 0.002141567296148728 -3.645896721190461e-05 0.00350876305567354 1.08400458066815 -0.8411957208931913 -0.02718086031056448 -0.4700665728273067 0.9640081031328771
4605 7 -0.000133035914928183 0.006991648249648563 0.003232234394622278 1.084038999688535 -2.042277801560504 -3.232514507674269 -0.933559303804674 3.935934658348852
4606 7 0.00473004092881822 -0.009312361117973228 0.00356631428284276 1.084039894642749 0.4592963795871003 0.2749965298932653 -0.2395537016321408 0.5864829338700454
4607 7 -0.01007296287997168 -0.002933277934396526 0.003488482383418866 1.083945712324077 0.5312321280114947 0.8094584493264465 0.1867144177954973 0.9860491006183758
4608 7 0.001783776408965245 -0.008477238068912981 0.003687459334259444 1.084058962145899 4.248119900857311 3.288251195405511 -1.772945652536732 5.657071230150333
4609 7 0.000855566794230505 -0.007414446979518311 0.001172158439506813 1.084033723674893 0.09067202730677561 2.072636833230068 -0.7763542990957599 2.215123214794688
4610 7 -0.000676099180792075 0.008775323175292895 0.0009735186532543568 1.084037580654248 -1.442949459460475 -0.9227229328155994 -0.7400667854145351 1.865802669141328
4611 7 0.003566309649175615 -0.005263436200222335 0.003500184171939087 1.084024610714399 -0.2552733694822548 0.9525466814494207 -0.08621843441326929 0.9899208513511588
4612 7 0.004722191472451936 -0.004338905209360438 0.0009840795292405558 1.084021894937967 -0.3424617061727122 0.5147001627580401 0.0574155131806534 0.6208806800760318
4613 7 0.005288541719101572 -0.002367459709552368 0.0004859628134167387 1.084018925802853 -0.3691453069788568 0.3512494178242285 -0.05947932574380524 0.5130128666781288
4614 7 0.006521923374793753 -0.002493265749088856 0.003021755814661421 1.084020977310673 -0.2380137701279927 0.2219286919814475 0.03842318318191346 0.3276877173483437
4615 7 0.003745640441828126 -0.002233457263655092 0.002972379279763533 1.084014862573734 -0.5228179891635791 0.309789405019595 0.02116101970732041 0.6080755824817311
4616 7 -0.004155988286069275 -0.00605422586701365 0.00153480123429246 1.08398685414876 -1.088904793312659 1.625672503947388 -0.02605077307185431 1.956835042043017
4617 7 -0.006684273107604851 0.001677566652123335 0.0009958594071661202 1.083936331831123 -0.1649640872798821 -0.7901214822474163 0.5378177545901317 0.9699242465024317
4618 7 0.00712104146151419 0.008855037585448115 0.003006675013507022 1.084034433165054 0.301708980029013 -0.3089817423367816 -0.03969734598234327 0.4336748839922165
4619 7 0.009066468619268438 0.005206110982661762 0.003000764343810471 1.08402732924868 -0.01751047431265521 -0.2361564621402925 0.0474248923618913 0.2415069600173265
4620 7 -0.006329183709209141 0.0001636125885201034 0.0009455458080546029 1.08393147673768 0.13663331925668 0.298203549939082 0.8164094817564611 0.8798400212704705
4621 7 -0.0003788056413731203 -0.0102335105848988 0.001062995816049558 1.084044067097645 -0.8335550770194656 0.4654785699550775 -0.6370809537329012 1.147761520143263
4622 7 0.003256194728779999 -0.001980976842445981 0.002464433118672405 1.084011968518272 -0.9058556315783532 0.3494568231286906 -0.04919246718562542 0.9721699415849181
4623 7 0.0003426576834157826 -0.003542167224400836 0.0004935670532922815 1.084000083266424 -1.236019652510399 0.8708970405632499 -0.1642849019552848 1.520919381711014
4624 7 -0.006407772440207291 0.005615280403583914 0.002980715523344829 1.083967670672833 -0.6460414397175175 -1.730903510281114 0.2433267689612002 1.863492532914705
4625 7 0.01068769519183953 0.004955418344273558 0.001510030271315813 1.084026868071486 0.007956188986467055 -0.1604236178056031 0.01221238247201954 0.1610843889974118
4626 7 -0.004459446643824208 0.003080607865937309 0.003494510583437191 1.083933976369666 -3.16921134838318 -5.378045408941828 2.459642041467779 6.709479261724922
4627 7 0.004081792521200166 -0.004468590156250106 0.0004819969320133665 1.084021167576116 -0.3410551896038664 0.5149070548705788 0.05816546647467281 0.6203475953055986
4628 7 0.001403896393130217 0.008549479498784894 0.002495650452515251 1.084053533441649 0.5626012344675911 -1.015473087835351 -3.047478080622024 3.26110846078661
4629 7 0.008760687528382313 -0.004156489456020573 0.003023636710113332 1.084025569436244 -0.08401128926893001 0.2228537244857919 -0.01601882257055191 0.2387012398760507
4630 7 -0.005635993368120616 -0.01051287454842672 0.003505957228586504 1.084007204313207 -1.432619221129527 0.7581705240593397 0.03844136994774849 1.621326036066049
4631 7 0.01010271299597197 0.002866705053455695 0.003005570277750441 1.084025161935426 -0.09932004246254407 -0.1186228244984376 0.03917563158236532 0.1595950357518237
4632 7 0.006576964507667761 -0.007062003220671258 0.001480280564485621 1.084030798954296 0.05368666544259124 0.384500025555389 -0.008593583098518907 0.3883250923761052
4633 7 -0.001613302994973469 0.007654844102384814 0.003169642260733841 1.084032533329276 -2.285928390160578 -2.169630917186323 -0.4860630365181281 3.188890747144235
4634 7 -0.006857307888214171 -0.009451560645965968 0.002512754193572002 1.0839933569613 -0.9383660812809397 0.6864485055548575 0.1119622649370705 1.168023117085823
4635 7 -0.003141563596988048 -0.006269470806031615 0.002496695493287486 1.083997413143587 -1.521875349999895 1.827044813150417 -0.1708631350649399 2.383986480901553
4636 7 -0.0001728470049726979 -0.01130355635108139 0.0009676713259487805 1.084045211903115 -0.6037456545323167 -0.1867380555442103 -0.6144377192762133 0.881427040443191
4637 7 -0.001858353891572246 -0.003357531615640831 0.0005188564460369022 1.083978717746102 -1.502096859121742 1.502278124546218 0.4929159065384489 2.180848602859017
4638 7 -0.006667998577987387 -0.004602666777295213 0.003488932541432266 1.083955761834947 -0.6766371420405156 2.373669134969441 0.5033289837369594 2.519024225799548
4639 7 0.002257871002503607 -0.0009791056130575067 0.002491199242332579 1.084004616438786 -0.9632086490690031 0.4370010552151021 -0.2113176838837476 1.078608356829502
4640 7 -6.038612751614157e-06 -0.003018844101461457 0.0009861383449849825 1.083994237184025 -1.509303870098542 1.215568511069047 0.03395600492959842 1.938235792587639
4641 7 0.0001751977515306551 -0.005026805984545249 0.003493567053292282 1.084012559540352 -0.7888309568831259 1.768426568121577 -0.1984988774646874 1.946532457918477
4642 7 0.007863760439025142 0.004853199758822802 0.003008281325528072 1.084026336241543 -0.06125456442565479 -0.2902119707583173 -0.0004102525305839425 0.2966062675358395
4643 7 0.003638134753679107 0.004306143773118723 0.001410161652902531 1.084020275440894 -0.2649876868569243 -0.783047823996061 -0.04637889801787601 0.8279694263872924
4644 7 0.008571792543052462 0.004672819664692684 0.002499652961073823 1.08402640322738 -0.09831979893824946 -0.2747929458543468 0.01534473817706527 0.2922557218332781
4645 7 0.002297305495526406 0.0002504628846154017 0.0009260527047900864 1.084003999203255 -1.096493135648261 -0.06627915743610628 0.1169071650317281 1.104697881083309
4646 7 0.007181908935453392 -0.001502651366926929 0.002993556203066325 1.084020783084116 -0.2603393037123912 0.108061108516515 0.04802059653153161 0.285936590737378
4647 7 -0.001921369885190611 -0.007236739294309741 0.003523877556210437 1.084027216481464 -3.990343519665768 2.252097196073387 -1.245156931175124 4.748178489563514
4648 7 0.008007597445666051 -0.005385848184107343 0.002510807952457747 1.084027325658169 -0.02585929836262767 0.3018163421617874 0.001133891360275918 0.3029242370912989
4649 7 -0.0002459398175466791 0.004743376987090001 0.0009752734471780495 1.084005377915226 -1.206191644974056 -1.351279515535113 0.02174516102835527 1.811443475667452
4650 7 -0.001381306714237221 -0.008919466417836979 0.002549729524102382 1.08404579419503 -1.776755006830758 0.2610765137541237 -2.608212652152345 3.166668997413488
4651 7 0.001832436925953001 -0.00501129048287156 0.001044049193301889 1.084017526028454 -0.3154104643859695 1.192100596798089 -0.1821026525271479 1.246494673068423
4652 7 -0.006473414636338686 -0.009646193297435034 0.001512754193572002 1.083996621999866 -0.9351793910982468 0.6861293443801877 0.008257195175979559 1.159914717566187
4653 7 0.007887263909267889 -0.008114991538346751 0.002979088027599964 1.084031760020501 0.1798156949687287 0.2563327898318168 -0.03545636555881775 0.3151147999677097
4654 7 0.008223109437541341 -0.008496842062946701 0.0004919167852555493 1.08403189108476 0.1692548328529031 0.2134383906856973 -0.01902715153396368 0.2730662512249746
4655 7 0.008246902991364812 -0.004853199356019801 0.003023636710113332 1.084026462504479 -0.03786392726591777 0.2878617170300357 -0.01700568639431514 0.2908388531287057
4656 7 0.007294359631613729 0.0009426310543440823 0.00295519724958684 1.084020686617461 -0.2457489366714757 -0.1388499746192162 0.0671911603900896 0.2901491122879488
4657 7 -0.003096504957968199 0.007654838741532412 0.0009816211267706654 1.084010044040225 -1.613960850922936 -1.04497544467141 -0.2618592476564205 1.940467359648516
4658 7 -0.006314519944904833 0.001186725278487791 0.00146664300746661 1.083931611782978 0.255844062126958 -1.05144176952087 0.7325916533833999 1.306780972246621
4659 7 0.00879612719395614 -0.003760128685532509 0.001506776661344121 1.084025200996239 -0.1094385312902312 0.1833476010227923 0.007464387573336229 0.2136559196783953
4660 7 0.005677042823852473 0.00536314848174199 0.000964890512296406 1.084026713694266 -0.1404423126382439 -0.5142914260911153 -0.03579903185225878 0.5343232025764654
4661 7 0.00734029019521769 -0.008312160970270977 0.00148973028823301 1.084032555597118 0.2243957262115953 0.265050048903619 -0.01687794938775895 0.3476921562839401
4662 7 -0.002941289332060001 -0.007529755332740345 0.002509437673775294 1.084011784138687 -1.474222505102671 1.492165623916929 -0.2436948340058748 2.111700124513834
4663 7 0.004702691692397123 -0.001650610059735035 0.002976345161166905 1.084016480456313 -0.4401528160665604 0.241360029098734 -0.05709923962715622 0.5052222167560176
4664 7 0.009092446748134987 -0.0002776413596095782 0.002975221037589444 1.084023011563667 -0.2005508487743608 -0.03107288875555495 0.02473236440546614 0.2044452425683131
4665 7 -0.005938189097487967 0.007411560156445255 0.003499395166421551 1.083986125625323 -1.102642193824775 -1.271697192173743 0.06806810125216592 1.684537569362396
4666 7 -0.001586732177013861 -0.008239461966083541 0.001501576762034023 1.084028992795184 -1.854726998448091 1.673391895313492 -0.6134909972513003 2.572279898802138
4667 7 -0.002937480516605618 -0.00411207521002828 0.0004854798291929843 1.083977589676744 -1.39329978370319 1.51837401892159 0.06911253765529707 2.061921553179124
4668 7 0.001545764803093897 -0.007109258216109042 0.000978086532657365 1.08403093946922 -0.3725345100796815 1.015140818679134 -0.2214283211583172 1.103776854422959
4669 7 -0.005261668521443726 -0.00261898358713639 0.0009531777813427402 1.08394573672456 -0.7032688307207798 1.408179628652384 0.5470138177729806 1.666367615998796
4670 7 -0.002516418740572308 0.009836661469927961 0.00297552019424069 1.084035312191395 -1.52415324398258 0.5162591099911773 -1.069229695907536 1.932050393339166
4671 7 0.01083131099992803 0.002783976209659499 0.00247504006843 1.084025354983579 -0.01329413538268115 -0.09074707227433379 0.01120468870468691 0.09239756604426955
4672 7 0.00874029696468121 -0.0007454412239360145 0.00248281442723903 1.084022851766298 -0.1423348441691351 0.039128861728096 0.09519176940764733 0.1756466585157462
4673 7 -0.003215252700268234 -0.002047457709013468 0.0009943503599701335 1.083953518762992 -1.192364962534904 2.004928068721268 0.4089514228360826 2.368271950361046
4674 7 -0.003415658683946781 -0.006944993631011906 0.003487338107884064 1.08400356396518 -1.812216552169161 1.714085700663154 -0.0850561486337819 2.495887250977934
4675 7 0.007001815968048617 0.00284885578935133 0.003498888617263351 1.084021947315454 -0.2131287693344193 -0.18264575828959 0.09703230227393732 0.2969825129932134
4676 7 0.003104572014264221 -0.009060266289508588 0.003510131128494887 1.08404689401371 1.438040025490882 1.058477043376299 -1.128295372756853 2.112198668320046
4677 7 -0.0002943658207751155 -0.0001401974693288664 0.003000120002470811 1.083974409851332 -2.31484229823658 1.040574073773329 0.3400636636041902 2.560650808684842
4678 7 0.00464315202803565 -0.007301474547100549 0.001048781344350919 1.084032564083612 0.06358581462508418 0.6697672202404943 -0.1312535888836838 0.6854624641255431
4679 7 0.005404847946417614 0.005922834251225449 0.002964890512296406 1.084028605722129 0.04473919969812053 -0.5210943087116003 -0.02577646388104929 0.5236461597791585
4680 7 0.006970786948215882 -0.007495861843682223 0.0009978135029774613 1.08403146611633 0.1202997317657286 0.3362641698264615 -0.04623499211042795 0.3601156645682564
4681 7 0.001141220279651814 -0.002587125818147767 0.001528490151964375 1.084000113586473 -1.520293450194424 0.7696822206979294 0.05571049689302578 1.704935938687031
4682 7 0.0006043454047909788 0.005340855305896964 0.001021932314951034 1.08401635575804 -0.9374640918606227 -1.651315509292436 -0.312882938075196 1.924468125923723
4683 7 -0.00500377354652054 -0.007306565251904773 0.002563473416573538 1.083991645343057 -1.3050485875382 1.180783879003503 -0.0335090704364593 1.7602628333722
4684 7 0.000625769014194496 0.009425038676655707 0.002989905090340756 1.084068340552214 1.588523257491686 -0.4691311615191153 -3.774996078856494 4.122388334652883
4685 7 -0.007161628145863347 -0.001057708510571616 0.001380717913657215 1.08393404197446 0.5510778402972973 0.5641518916683222 0.8589459802429095 1.166079902886219
4686 7 -0.006022321447128472 -0.00551153599332649 0.001050915838647677 1.083970519910639 -0.9280152490145681 1.624968671264005 0.07503800293341015 1.872796354886807
4687 7 0.001338509823131055 0.008515468745880914 0.001495650452515252 1.084042812801803 0.4682066263088079 -0.9558805534176587 -0.5433684778350162 1.195062500468602
4688 7 0.009338464446436498 -0.00247054559173022 0.002990733340880374 1.084024204147859 -0.1328491678850056 0.1167070324840268 0.003365570119473619 0.1768636760366446
4689 7 -0.003238800109580439 0.002657608997274806 0.002962590574092678 1.083943792087693 -0.8350672098881957 -4.249734774890825 1.684967515827409 4.647224809640741
4690 7 -0.007020325560008539 0.004964597450734053 0.003485561219539678 1.083957986998133 -0.4835575968050051 -1.980711089300116 0.07606250137803722 2.040301417148988
4691 7 -0.007483552715092613 -0.000613954167805988 0.0009109163519761218 1.08393482980031 0.2071226810940626 0.7849060198815875 0.4182325281046023 0.913178905053503
4692 7 0.000766515345241651 0.005975310813808061 0.000547510077209633 1.084021314633909 -0.7567991539308505 -1.194664448079162 -0.5093274271327546 1.503124256648269
4693 7 -0.009414661749794079 0.007151863755804871 0.003505185050544919 1.083968588908494 -0.6322127606946433 -0.9586763275216968 -0.01137296072985722 1.148426149115124
4694 7 0.01163697558747379 -0.0007341527028200673 0.001307368092754833 1.084024784838851 -0.04301939249479502 -0.006229597908833998 0.02049059990968721 0.04805560014593355
4695 7 -0.0007550018956465549 0.005842701704067225 0.003048361286646282 1.084014306479804 -1.128839585061144 -2.145778749143758 -0.247008586495418 2.437141458939229
4696 7 -0.007869618966231147 -0.002374110375839612 0.002404867060783897 1.083936850352028 0.7078557489785192 0.8771941258687462 0.9106541539750993 1.449075665371784
4697 7 -0.007774414811119673 0.001721880563050919 0.0009724475387967784 1.083937987959068 0.3734372904945948 -1.099355708979572 0.3933369991364628 1.225868010712246
4698 7 0.0003224044105795119 0.007316526757809365 0.001034251569905144 1.08403275508536 -0.7470979656536609 -1.838343923779187 -0.6495495896363193 2.087960349665771
4699 7 0.00105598222039326 0.003225300207826695 0.000965225958365334 1.08400446239611 -1.106821375098651 -0.8667593822648253 -0.182321588220058 1.417591811718188
4700 7 0.01065324441168314 0.004931139027101907 0.002510030271315813 1.084026832189177 0.008415877883539478 -0.1600529020357982 -0.00718687647611188 0.1604350636367074
4701 7 -0.008546792345964761 0.008222215676797019 0.003505185050544919 1.083978162197789 -0.8483001513714044 -0.9759396204496594 0.1192390612354426 1.298572001586544
4702 7 0.0006886984298601366 -0.005552428737619209 0.000484699105247369 1.084017238809776 -0.8226041812782434 1.116726014564279 -0.4994256161310225 1.474171149055943
4703 7 -0.002920121932537226 0.00971532403477776 0.003488743033681845 1.08403229651815 -2.945484554470784 -0.45347344396047 -0.1171049841347855 2.982487385105347
4704 7 0.001995331631789679 0.007400905974579791 0.00350984695714963 1.084044827397195 1.099999644807549 -2.591556839139344 -0.9500082308455259 2.971309763007029
4705 7 0.01115061586303353 0.003574404146826002 0.0024685798451239 1.084025832079643 -0.01762343853064917 -0.1015903047041081 0.006398098796902705 0.1033059110783697
4706 7 0.007393219552945449 -0.00529316611779153 0.003022964243589096 1.084026939857901 -0.1871965454647167 0.3004951462787533 -0.02231970119513067 0.3547365904899761
4707 7 0.004595103813562395 0.000536795333098958 0.002387972375327558 1.084014907766821 -0.4968010495935357 0.02617667880037848 -0.1047967155253603 0.5084081558896948
4708 7 -0.009710675367377873 -0.006743615553868416 0.003508083214484921 1.083966081228863 -0.6021875199965686 0.9815899594243167 0.1009715694936241 1.156003423666321
4709 7 0.00629915044963818 -0.003206815826759217 0.00252383841188861 1.084021995801908 -0.1618557000140281 0.284404264358821 0.07757655177052893 0.3363051807467717
4710 7 -0.006779754494758389 -0.009778235886534198 0.003505957228586504 1.083995362970162 -1.167136735618111 0.8190111634585916 -0.1079005323761237 1.429905580933981
4711 7 0.004345639744504096 0.003286849935346661 0.002418702947834419 1.084018403685518 -0.488454783082101 -0.3613147253507765 0.002028967199732952 0.6075693561882355
4712 7 -0.0033010041789019 -0.002578234439835991 0.001002232665698549 1.083957802275362 -1.478796611439019 1.280897910237497 0.5098645321229508 2.021756838883269
4713 7 0.002386940211223979 -0.0009751816189372063 0.001491199242332578 1.084004738230719 -0.958746366687287 0.4313383521546675 0.009049176547312314 1.051346402130032
4714 7 0.005730339660380132 -0.005753704628600279 0.0009845496587353487 1.084027371354608 -0.02400171141187267 0.5031440157603957 -0.04689076641452698 0.5058939876309442
4715 7 -0.007376025233758471 0.002397512158428114 0.003018782530454672 1.083925728066967 1.138652515314011 -4.688321378942997 1.699407275668178 5.115160993700866
4716 7 0.004797095184774328 0.000860529322790094 0.0008975900275773922 1.084015353463372 -0.5393100792837011 -0.1058891320836785 0.04626897673041274 0.5515511654580255
4717 7 0.001402487152381302 -0.002781443414549124 0.002528490151964375 1.084003043265154 -1.520255962581955 0.768660367605702 0.04566623271676437 1.704142704501082
4718 7 -0.0008644893605852741 0.004758679153887327 0.0005008512094366488 1.084000735393708 -1.368345963045001 -1.37523026418144 -0.09175943121151216 1.942176291513817
4719 7 0.0003275259221155729 0.01146750859327904 0.003014083849701873 1.08405466885165 -0.5302328790636464 0.3506660643290535 -0.8002006595540627 1.02197587557775
4720 7 0.007046140979225478 -0.002844934614210835 0.003535793001244682 1.084021874114265 -0.1754876964109995 0.1984444525197679 0.1041407453462441 0.2846426306244038
4721 7 -0.007456103518899798 -0.002970813772808453 0.002968712916561889 1.083937807017263 0.07173243977497515 1.972404503716233 0.7940805048988164 2.127460673539351
4722 7 0.00833964761572807 -0.002987166165980402 0.003043386390894268 1.084023759904849 -0.2048102007211622 0.2045730304868585 0.1070984678845499 0.3086542158228814
4723 7 0.006811027798667099 -0.0001165361855956901 0.0004803003784608457 1.084020424876444 -0.3392079329377765 -0.01111143605221649 0.0005671130730545827 0.3393903466457159
4724 7 0.01079416659561649 0.003481553772369449 0.0009608414262253103 1.084025823256032 -0.02195328235441892 -0.1132922742387564 0.01159831004644334 0.1159810622655951
4725 7 -0.008546593653376582 -0.008222448425510171 0.003510920216871459 1.083978432408752 -0.8670323450050099 0.9705708426244445 0.09085906313142998 1.304610369877049
4726 7 0.0009782546432218074 0.009299770544619388 0.002488967093010866 1.084057474632421 0.2039835074732921 -0.3815362255291536 -3.064936480911489 3.09532143641565
4727 7 0.002289943481675525 -0.008620737325103394 0.002690977890164327 1.084045988435279 0.1923054028798566 0.5897283195523259 -0.9951857878281046 1.172670290897591
4728 7 -0.003391331428149825 0.007054279469667806 0.001484792801185479 1.084002669003683 -1.727696632460326 -1.698731516093854 -0.04557372170953085 2.42336571356775
4729 7 0.004447711121131813 -0.009103741633645307 0.0005663142828427598 1.084037795759297 0.2266682287859204 0.405243062475982 -0.1416420208902521 0.4854512207294711
4730 7 -6.753580029085791e-05 0.0003755809126216014 0.002981642564842566 1.08397924526332 -3.104701205001035 -1.783467780175934 0.06720745697609244 3.581123250815831
4731 7 -0.006971427710215129 -0.00335332899292215 0.002457645457994155 1.083944762122788 0.02485535058148848 2.060366436792849 0.8523274279480209 2.229840731251333
4732 7 -0.008944864909481411 -9.933039892374935e-05 0.001413113628383117 1.083936333677692 0.7019774318820196 0.5243557868940415 0.3932947925969541 0.9604176695609187
4733 7 0.009180121928931754 -0.007146337180674313 0.001501733315769899 1.084029442860892 0.07692063109366404 0.1922082599309833 0.00767855567981956 0.2071708446931471
4734 7 -0.009790758038048502 -0.006729017264034588 0.000508083214484921 1.083966299463178 -0.5850993762622068 0.8404627950182735 -0.01015183355259504 1.024120134377228
4735 7 -0.004441996912596613 0.005319598137179333 0.002998325978219964 1.083974992926104 -1.03237743851824 -2.187101961579573 0.3239524601246824 2.440115440369068
4736 7 0.006507357459484477 -0.003781680934712676 0.001037875598471871 1.084023462882482 -0.1619461707780965 0.2983511637770669 0.02029888492617193 0.3400764971092012
4737 7 -0.00282489403851616 -0.001737879647405859 0.0009943503599701335 1.083955373304816 -2.281308990673363 0.8919365946932951 0.6453747961915031 2.533067355488087
4738 7 0.006946214721575729 0.009477682919156927 0.002498026119612691 1.08403561053701 0.2622612318872674 -0.2812680772224544 -0.09085405291280106 0.3951545823423103
4739 7 0.007760128330784695 0.0001682180588869297 0.003474896871125994 1.084021185286873 -0.2391280360988134 0.007744286930904771 0.04599842372504269 0.2436350685220257
4740 7 0.01107073378778553 0.004025920079002436 0.001468579845123899 1.08402616066932 -0.01759915103479054 -0.1023428072922908 0.01591784661872295 0.1050578800594678
4741 7 -0.0004119272574043355 0.01174628509975043 0.001011225245622042 1.084044612845259 -0.8381085225699124 0.1078613622840194 -0.5122524004112573 0.988161166412231
4742 7 3.057451192863719e-07 0.01129114494917745 0.0005031635976452445 1.08404503762188 -0.7012445515544624 0.01991818722451123 -0.634504176065176 0.9459049660041318
4743 7 -0.006782099403608495 0.009774433134296087 0.003510761436187152 1.083995210177633 -1.18078159191764 -0.8523557259866669 -0.0768632882079628 1.458308409256408
4744 7 -0.005673029626010353 0.001548973638180154 0.0009918807997124962 1.083935992001397 -0.07849355618733637 -1.201356409405113 0.9451866241438972 1.530619552743992
4745 7 -0.004226763320075162 -0.007633320436059301 0.003487338107884064 1.084001756787854 -1.765534971361027 1.355120992767342 -0.2086001385545685 2.235392730135471
4746 7 0.003208509228573845 -0.001368786780033704 0.0009824361866590384 1.084009788682661 -0.8153210395626099 0.2097498700268008 -0.06963919117171628 0.8447443533263573
4747 7 -0.005137961687292851 -0.008196414349333403 0.003514152011474062 1.083997890948022 -1.355459791867827 1.436564507831126 -0.2414576647143996 1.989796631914878
4748 7 -0.007454552396073746 -0.00718840289872523 0.003501256810142374 1.083976942067991 -0.6892304256395639 1.134996691637356 0.02297191027915992 1.328075215609761
4749 7 -0.00241886643116498 -0.005982366864003946 0.003009357385403422 1.084001444785927 -1.096510411286866 2.178167213573121 -0.1559657117046472 2.443577867712204
4750 7 0.01084594332765065 -0.003452955748917153 0.003483139951230789 1.08402556714476 -0.0008508614938822354 0.1069311054969464 -0.006200653739835815 0.1071141138920647
4751 7 -0.002798803701727891 -0.003572667584527994 0.003004336275229886 1.083966011168191 -2.575495966292992 2.259421597296838 0.4642460693101869 3.457410857794142
4752 7 -0.0007746163762116608 -0.0004427621498657711 0.000491356946797271 1.083975491670741 -1.70686137371206 0.1981045782280936 0.7576749267669781 1.877949005600657
4753 7 0.0007264481407958101 0.006598487305041229 0.003547510077209633 1.084037472279672 0.9394088505772848 -3.602556663165289 -1.084536555972746 3.87777294862667
4754 7 -0.008200858018491278 -0.0001965545372075763 0.002910916351976122 1.083921758564979 3.168549743401252 -0.9723388246038666 2.555885344623982 4.185415171892009
4755 7 -0.006744116772321014 -0.0009860079691915889 0.002944563769435207 1.083907248173727 2.658663865617801 1.199400179039685 3.108000453112879 4.262243676324956
4756 7 0.004364167654392377 0.0002924469513791529 0.001387972375327559 1.08401389155145 -0.5024457551488768 0.03820938864908272 -0.01510028523966199 0.5041227160745495
4757 7 0.009418657156822809 -0.006867402342949296 0.002501733315769899 1.084028996702046 0.07696606900091103 0.1915559936292607 -0.000164128537163555 0.2064400673583572
4758 7 -0.001184221129262285 -0.006702342832933612 0.003523877556210437 1.084028392388632 -1.367347392985437 4.27665030236138 -1.197203928725374 4.646791790983024
4759 7 -0.009097726990567852 -0.003613644298195489 0.003498911354880796 1.083947607160283 0.05659007411683077 1.212070080966438 0.1546725945961247 1.223208865722298
4760 7 0.003573333515987924 0.005270265913831888 0.0004882859329187122 1.084023989095154 -0.1866618905324905 -0.729931318930132 -0.03980759481508041 0.7544713621716911
4761 7 0.007210455048831039 0.00877362742662785 0.001006675013507022 1.084033703835633 0.2168102663465561 -0.2641625682518968 0.01231388643886351 0.3419651822304894
4762 7 0.005009133943580092 0.001395691943955198 0.001394417255427992 1.084016666008427 -0.5705987467732325 -0.2841268964971511 -0.03335876077727396 0.6382976030449132
4763 7 -0.003688377825912858 -0.0089190480115461 0.001012374021154854 1.084013415374236 -1.564054712907971 0.8211099095671024 -0.312630574966939 1.793941611358377
4764 7 0.01025990906540679 -0.002127195327788751 0.0009834641176942383 1.084024814957915 -0.06973024158656142 0.06915894902434572 -0.01652406386155644 0.09959071999123746
4765 7 -2.265134345245365e-05 0.004712600180423561 0.003474422237741401 1.084007303860033 -1.462441780535428 -2.063149528167116 -0.0349175649046445 2.529138425110555
4766 7 0.002727693443900536 0.01075468382035533 0.002992514895026412 1.084050125773032 1.065672975143104 -0.3113464423499128 -0.6239057329681107 1.27352026318578
4767 7 0.002933369780781583 -0.001912363116902003 0.0004920538389088719 1.084009479526929 -0.7363175433107872 0.4084536355296823 0.05092866236713402 0.843558904650501
4768 7 0.0004059944916459953 0.005044555482983187 0.003474422237741401 1.084014274089975 -1.073009761717522 -1.770531503024221 -0.00483559910541245 2.070303150497773
4769 7 -0.004699543259374569 -0.007926683674987287 0.003001490119358126 1.083998997104116 -1.593514032514977 1.389283644595274 -0.1370823382145359 2.118534300976133
4770 7 -0.008632412563223852 -0.002635458492624996 0.003498911354880796 1.083937866560045 1.446080382851 0.9083013174665917 0.69734014940958 1.844571234991107
4771 7 -0.0007463043963924879 0.01019259309989837 0.0009899407582040897 1.084041658155625 -1.060721794745982 -0.3425851721024934 -0.5575265522114959 1.246327076819913
4772 7 0.002999435866868712 0.007507359276135548 0.000996197386102254 1.084034719714909 0.2082428534144524 -0.7874866227297913 -0.1531952343293129 0.8288359589193622
4773 7 -0.0007212926453357668 -0.01102955922373287 0.001539701644227577 1.084044691371509 -0.9055685705914605 -0.008344447281225659 -0.4832029920554399 1.026454673804362
4774 7 -0.004286871764550194 0.001556002456020496 0.0009652941837376807 1.083942084312985 -1.324986823194733 -0.8094500796998874 0.9701311737520851 1.83083423811426
4775 7 0.005977255922860662 -0.005215267648948636 0.0005020825972271893 1.084026038848084 -0.07659289065137931 0.3684782402385994 0.0559174771127736 0.3804858061404219
4776 7 -0.002144454452040625 -0.01098344792266246 0.003079331923003989 1.084039933932546 -2.040451998429655 0.6140799556715004 -0.4798421251099295 2.184213134033191
4777 7 1.00377475307217e-05 -0.01089570354697977 0.003490965497770762 1.084064309316071 0.6243187709891251 -4.219771030366164 -2.500412460911576 4.944522621164634
4778 7 0.007878867830446452 0.005486414525411256 0.003509392708264721 1.084027545273468 -0.06421850931656142 -0.3350515809000702 -0.04150891093038225 0.3436663621728259
4779 7 0.01014612176443646 -0.002039122775174465 0.002983464117694238 1.084024603553773 -0.115727555142226 0.06778535743582256 0.03698386500617747 0.1391241459010417
4780 7 0.001128615322698639 0.007871676213864151 0.000996588449845141 1.08403814194106 0.4657134543883038 -0.9611550825832569 -0.5458981298693387 1.199463581176501
4781 7 -0.005050414960344089 0.002973141568997132 0.003015607782849198 1.083932049733636 -1.307301405561844 -5.204997632894739 3.409298066847485 6.358014676928153
4782 7 -0.006042782788710371 0.002039815011815697 0.0005210971994120068 1.083940712049542 -0.3817520043780593 -0.8208542390685757 0.6073690414864253 1.090152937527417
4783 7 -0.007436746207221007 -0.001997487805281385 0.002905955705903102 1.083923707374848 2.109124200487742 3.845914770208754 2.532960258819808 5.065111349768475
4784 7 -0.005465977996256301 -0.003003845718383377 0.002442110322775006 1.083935910256486 -0.565385237193042 1.972382786435408 3.284047441276575 3.872327713303428
4785 7 0.0009996696973775259 0.003067636141619879 0.002965225958365334 1.084002638816599 -1.507456858230523 -0.9868104359297988 0.2283734925246879 1.816143019691489
4786 7 0.005287740938208424 -0.00590957284166189 0.00348246706150816 1.084028079162481 0.03371898270485405 0.6090607018223929 -0.04178381541350019 0.6114227633393653
4787 7 0.0002758807005197746 -0.01173860817735184 0.001474449033534071 1.084047512581916 -0.3858012191807421 -0.3205405533586262 -0.5163867464663161 0.7198917272721425
4788 7 -0.005592630883630318 -0.001520821375562806 0.003469801561681093 1.08389741872531 -0.01407780522021354 2.244069010115391 2.899378499219784 3.66639326702661
4789 7 -0.0004710992087405665 0.009466755482200329 0.001476682250899601 1.084043462381637 -1.052221891632341 -0.3611061767612139 -0.5550453804400575 1.243239298957884
4790 7 0.006589133949425427 0.001380261173310644 0.0004803003784608457 1.084020594458842 -0.3487715368945618 -0.1470132464367775 -0.02015899487632013 0.3790262057564079
4791 7 -0.006664251355422461 0.006430950406904287 0.0009849563859612293 1.083975052066081 -0.7574227999112959 -1.235433250119309 0.02063565335967592 1.449279284166929
4792 7 -0.007502300987243338 -0.003076777402400992 0.0009687129165618889 1.083945639444525 0.3926075229923344 1.385023138823373 0.5303053644713498 1.534162162802035
4793 7 -0.009151568780590992 0.003639407294747292 0.001006985426766513 1.083949863697282 -0.08064014063012334 -1.021638010274665 0.09712057417097364 1.029407335434386
4794 7 -0.009210188585587951 -0.002462880723023838 0.002987393738299662 1.08394118607183 0.5302433308318673 1.130410330299455 0.3366635066346433 1.293185145846847
4795 7 0.00244407741944645 0.003904051790851339 0.003448376604785651 1.08401575894872 -0.4644962503852169 -0.8651731909352162 0.04984600555440857 0.9832426156369953
4796 7 0.001513526879456878 0.0116011185764525 0.000510920252056628 1.084046694504763 0.07156186694612794 -0.1363701689433551 -0.2145921260339048 0.2641357687519921
4797 7 -0.008184149111887942 -0.008491206862588549 0.0004926449535114375 1.083981325827656 -0.886838934494169 0.89721978187436 0.03790848758018462 1.262110805813834
4798 7 0.001880304585936059 -0.002800916366931754 0.001035918860271674 1.084006471894073 -1.043372392955639 0.668410635975399 -0.1957843277737926 1.254484049985829
4799 7 -0.0001943885212038917 0.005422522275079493 0.001522783524387682 1.084012311783386 -1.377433321270916 -1.760164984990828 -0.1759042512941605 2.241973602556138
4800 7 -0.006381361658622351 -0.005073543243860459 0.000488932541432266 1.083965826894369 -0.5903577985284116 1.270368770535218 0.3250512540996077 1.438060312096194
4801 7 -0.004913871916456923 0.008510625960713739 0.000496703183449469 1.084000280036865 -1.306531676920913 -1.036298650226962 -0.03804419051569398 1.668048942834709
4802 7 0.0003375108093276995 0.0007185059954440241 0.0009816425648425651 1.083989636682659 -1.714617217358296 -0.2675664785830228 0.09716809697598153 1.738086781950993
4803 7 -0.006962241180839379 -0.0004361353139167379 0.003474762207754114 1.083897183762145 2.717980040094995 1.169604893546474 3.056231049728136 4.253932220273967
4804 7 -0.009615420639818514 0.001208684917012317 0.00299988260744966 1.083937194360022 1.198853434089223 -0.9904760724684335 0.7111272771744115 1.709969125715874
4805 7 -0.003571971612174959 -0.0001226464799334446 0.0004754939139332312 1.083945789768778 -1.561304020812188 -0.2941987134905163 0.9711983403744228 1.862108843427208
4806 7 -0.003353207784957195 -0.001601195249147117 0.0004754939139332312 1.083951286111354 -1.592330872529645 0.9938726352435563 1.066693643984514 2.158966362131183
4807 7 0.008235027536917015 -0.00517847168846473 0.001510807952457747 1.084026970208709 -0.02646452240678771 0.3024369018448749 -0.008020054169879252 0.3036984883278704
4808 7 -0.004491461037328437 0.009700637125788955 0.000488743033681845 1.084010128258507 -1.200723262251447 -0.7537854685582219 -0.1746923905672182 1.428441919170459
4809 7 -6.807789836692271e-05 -0.01184282905504373 0.002474449033534071 1.084050375649888 -0.3702228465378193 -0.3232470488645112 -0.7746968707081184 0.9174469206352662
4810 7 0.001681132137903924 -0.003351572183466346 0.0005438650213628018 1.084007521344017 -0.9464860755936351 0.9136139945555676 -0.02531236620779011 1.315738248369887
4811 7 0.004325086742449 0.003853464326791086 0.0009218757199838193 1.084019783156462 -0.4043870455812716 -0.5256633175238995 0.05377747182921006 0.6653892263183429
4812 7 0.007286679386465414 0.0005561712693745344 0.00295519724958684 1.084020589434468 -0.2544635061684594 0.03051764126916087 0.03861468165360428 0.2591796597717266
4813 7 -0.002673595072272838 0.005694742735765632 0.001004022883851462 1.083995483873512 -1.360600178639989 -1.55492981182666 0.07398391865221525 2.067489585473552
4814 7 -0.001109366867093673 -0.01125926302009471 0.003048736146456816 1.084048572496839 -1.382958802672275 -0.05169611916557988 -0.7232131903737236 1.561500834888043
4815 7 -0.004416067790298964 -0.006527844550746918 0.003487338107884064 1.083989299830539 -1.635239286825377 1.765610488085063 -0.1307663461185689 2.410080446393926
4816 7 0.00181594454654249 0.003127767703374188 0.002413602563150985 1.084008752823772 -0.7628667921275029 -0.7516278689706027 -0.07918402587719625 1.073862330980241
4817 7 -0.007111956562905876 -0.009347526297451579 0.0004926449535114375 1.083991444291504 -1.034115019296291 0.8378333502542563 -0.09219148926256292 1.334113138614896
4818 7 -0.007457154925894039 0.006816023647034325 0.0009849563859612293 1.083974265012834 -0.7773514338544456 -1.227654064270586 0.02169952469674096 1.453231097454124
4819 7 -0.01129545682820156 -0.003141185975024907 0.001490019392277228 1.08394811517429 0.01146141929149611 0.620571379248666 0.108850273522629 0.6301496512105027
4820 7 -0.005650820140239689 0.01046027408344607 0.003510761436187152 1.084006673274812 -1.390634011967644 -0.7492435162566494 0.07624861920721039 1.581468511803147
4821 7 0.001003534311135522 0.01131820326383162 0.003014083849701873 1.084055174769919 0.2951100253482712 0.1032329456988745 -0.8123113467034192 0.8704003056765586
4822 7 0.005003283754626437 -0.0001143504100411681 0.0009706827262110122 1.084015856574163 -0.5053774888614887 0.04311735187728168 -0.01276716938244904 0.50737413502749
4823 7 0.0009128680732226457 0.009265759791715409 0.001488967093010867 1.084046753992576 0.187254009090637 -0.4605496567547962 -0.5262829234253538 0.7239777384330361
4824 7 -0.002813562434581508 0.002935173429284789 0.003468079990655487 1.083950895965882 -2.188398142041597 -4.691993884741867 0.6257767031537455 5.214929484159509
4825 7 -0.00511345485252053 -0.00731065675320731 0.001563473416573538 1.083990832544168 -1.295588059490324 1.177560955980661 0.03083744310503784 1.751042310408646
4826 7 -0.0030937480004063 0.002496584141297356 0.0009625905740926785 1.083959155016508 -2.334460284785652 -1.013440923712268 0.6227866048887126 2.620043984807334
4827 7 0.000283228689589395 -0.006503364704636576 0.003484699105247369 1.084033718974135 -0.4849100499202499 3.438346352419873 -0.7192386758751669 3.546077786595686
4828 7 0.01123974692296557 0.003918261485916677 0.003507738418898589 1.084026015776673 0.01474792079062923 -0.1120240410642434 0.01011922439018285 0.113442873933398
4829 7 0.004682555164941283 0.003402715608662968 0.001418702947834419 1.084019536884029 -0.4858968851671652 -0.3634146927637844 -0.03205771860030404 0.6076131328844081
4830 7 0.007556510251992893 -0.002842967840356737 0.001043386390894268 1.08402317039879 -0.2121669727870534 0.2002967596926196 -0.009035831615389634 0.2919165335125213
4831 7 0.008105135897839585 0.003108309240365692 0.0004988886172633515 1.084024285558652 -0.1755744559023674 -0.1593677446198957 -0.01715812774348703 0.2377369742768391
4832 7 -0.005626036341225197 -0.004796645214021733 0.003488932541432266 1.083961298508907 -0.3375510490241456 2.750954098400592 0.6988208139495428 2.858328128856696
4833 7 0.005947706009460221 0.003434319399649186 0.00246921496031212 1.084021811525026 -0.1716264985259448 -0.4329777062828096 0.02121330313643664 0.4662352982820557
4834 7 0.003548251920250713 0.01163045897963696 0.001016747077487462 1.084044858776361 0.3562585579113531 -0.2374969259784011 -0.1252651326081018 0.4461124335653428
4835 7 -0.004877535426158161 0.007916119309334156 0.003496703183449469 1.083997680162444 -1.372841168313183 -1.540289455772489 -0.03490116026538097 2.063589729565275
4836 7 0.002293587584791252 0.006435296986881986 0.0009981328900683416 1.084028944915257 -0.3069863656696668 -1.115789757453298 -0.2535258284349704 1.184695217019297
4837 7 0.00941215806441521 -0.003847873536700542 0.000970983660099439 1.084025600658109 -0.0766580875727742 0.1697886522473924 -0.02586371953383173 0.1880786559140238
4838 7 0.01054545473467819 0.005632770889268942 0.0005109202168714735 1.084027528082091 0.05220430396713823 -0.143716820033114 -0.0135885679162779 0.1535072079452269
4839 7 0.008536851040022804 -0.002971162917023843 0.001526526342125056 1.084024223138663 -0.1037473103321711 0.1656583954687507 0.003426684251465353 0.195494118979063
4840 7 0.0009736327856063639 0.002564482645331696 0.0004908037206239333 1.0840002514621 -1.074728237269725 -0.7856412430883927 -0.1311982140292192 1.337716680837471
4841 7 0.003170499663889361 0.008889486250780752 0.002985412431622735 1.084045377300327 1.322705037122859 0.6203884914678776 -0.582219479353509 1.572707861528849
4842 7 0.00209809442754706 0.01197869136802708 0.001004373144412929 1.084047192576836 0.1383507675108129 -0.1224570015902972 -0.1830713618888185 0.2600995495058455
4843 7 0.001998807500451775 0.004456629296760832 0.001411084775445764 1.08401576773851 -0.8364399114555622 -0.9118889250398878 -0.04211803646387501 1.23812239543664
4844 7 0.001959748653097875 -0.008925487608022864 0.003197590462754331 1.084057803420387 4.241001632982767 3.211372336981941 -1.853721654937248 5.633408480811474
4845 7 0.0020846736108267 -0.009474438766316061 0.003510131128494887 1.084063383595602 3.856746670256863 -0.9413442211354442 -0.2581708400956396 3.978350915125284
4846 7 0.008937829506070211 0.003684799798195396 0.003491371635545751 1.084024974655736 -0.1569685687240789 -0.2671673943687689 -0.01857713740199074 0.3104233532051601
4847 7 0.0008388873516344834 -0.003038658231330264 0.003036436313055503 1.083999293423963 -1.43488160327886 0.8449225000060063 -0.01089203271514919 1.665202054653182
4848 7 0.003792338010669695 -0.01066321832152565 0.003017486173438219 1.084045108688212 0.7267757892475142 0.5081214687887281 -0.2670266865524428 0.926117555287415
4849 7 0.001832118134506429 0.00387764687477105 0.0009227988425270517 1.084011896147566 -0.8012158887228981 -0.8404960798907177 -0.003356333336307023 1.161202749577847
4850 7 -0.006427591665665667 -0.003534930408484602 0.0009587341031133591 1.083950593420274 -0.6731609352578138 1.830499687434016 0.3267638350397101 1.977536182815137
4851 7 0.002221089231024035 -0.004699537884614359 0.001044049193301889 1.084016706995367 -0.6483564500286644 0.9531286843162358 -0.09276499895974488 1.156471236214793
4852 7 0.002572986571294316 -0.006611802279721918 0.0009935715993490829 1.084029468324581 -0.1853098888104345 1.107127874071139 -0.2440552670772128 1.148753610581636
4853 7 -0.003965129115337018 -0.01124806926594498 0.003492476648664522 1.084023606532622 -1.694030273958189 0.4912895617411778 -0.02049741637979964 1.763951288057849
4854 7 -0.004738603717033759 -0.001047188772568801 0.0004754939139332312 1.083939597805372 -0.5889179027145214 0.6341863905145021 1.045720174164586 1.357404640004702
4855 7 -0.002540611371168479 -0.007280384557473055 0.001509437673775294 1.084011615218316 -1.473822779973252 1.492348163112488 -0.2503698113527561 2.112330861666826
4856 7 0.00933378526732594 -0.0008926619456353225 0.00350032416646345 1.084023301912878 -0.2471560843813772 0.04755115502369881 -0.01704959838096553 0.2522655965362192
4857 7 -0.000794622777304285 -0.003098590222800297 0.001504994791021885 1.083985894947613 -2.094928545106588 1.235528180423512 0.1561028745934122 2.437134301014076
4858 7 0.002845805888647769 0.001959814574629953 0.002356469974526131 1.084010017142932 -1.020575473175344 -0.4576400819670275 -0.04729044789574378 1.119484313213922
4859 7 0.008981635483872163 -0.001360461809961759 0.003007917556113036 1.084023142115509 -0.1998500476925528 0.1370929624838741 0.04373030851605518 0.2462658356496693
4860 7 -0.006041607556406535 -0.008741060340023071 0.003514152011474062 1.083994945217944 -1.005328706407675 1.023928519400035 -0.01305949645272715 1.435021244168767
4861 7 -0.001622833184029053 -0.009635493031299604 0.003572030318278796 1.084056221039774 -7.822137218448919 0.1374146066689136 -2.99378620488814 8.376602490207368
4862 7 0.01048086549962502 0.005673991598078048 0.003510920216871474 1.084027561850376 0.05738731898476124 -0.1560863367235758 0.009744443122653804 0.166586923447835
4863 7 -0.004479587037948876 0.005481064060718206 0.0009983259782199634 1.083979303562737 -1.298566112752906 -1.656853849542079 0.1096617742920105 2.107952640045186
4864 7 0.001679989368848578 -0.01218298288390664 0.001000820467835793 1.084046525113898 0.1972735526377302 0.2037192207456008 -0.1981528218608552 0.3459521878568279
4865 7 0.009623628768889171 0.0003490526795467354 0.001489419679794134 1.084023859679913 -0.1793391154647618 -0.007865997396227464 0.01645097198223758 0.1802637698759265
4866 7 0.002176538094591041 -0.00523197431178193 0.000500184171939087 1.084019788621395 -0.5692561464761907 1.154379078005776 -0.008749085133834654 1.287136419548863
4867 7 0.0008457225314436217 -0.01064632289269379 0.003490965497770762 1.084064162840495 1.750597823917735 -3.787859575569527 -2.461360559007526 4.844663941572945
4868 7 0.008031655049937202 0.001508913122548475 0.000474896871125994 1.08402283059216 -0.1579600677949871 -0.1212514243951995 0.002498689720856698 0.1991470170150254
4869 7 -0.0006543735656266274 -0.001029245208525393 0.002983928238489972 1.083972541390058 -2.44360138806344 0.4541597229385665 0.5769076146833485 2.551523308450236
4870 7 0.005253035264841355 0.005416591454539517 0.003473499115198168 1.084027078201205 0.03729802877372047 -0.562893441384698 0.007198421832777893 0.5641737202149674
4871 7 0.003939712635307519 0.0003989027053642768 0.002907671996866713 1.084013301218076 -0.5070103408588127 0.02440397134235532 -0.09757686904176432 0.516890979730776
4872 7 0.008862194178254575 -0.008479823935976528 0.001015098828681592 1.08403132128449 0.1570063756250702 0.2106691658963759 -0.02440082351413838 0.2638709905134771
4873 7 0.01170362036914178 0.001023404861270623 0.002626474851700691 1.084024886132873 -0.03269271954737093 -0.01978239909616034 0.01059355483383666 0.03965325496627381
4874 7 0.001989504339723107 0.0009719086996163194 0.00241685642541402 1.084003258182317 -0.9982945015919166 -0.3347076153660828 -0.2172727422781843 1.075094667566436
4875 7 -0.01131345052038019 1.396280769328827e-05 0.0005021972764069947 1.083942929224866 0.09961510491526222 0.007977593053308734 0.2148581104503664 0.236961639816458
4876 7 -0.004096012677081434 -0.005038988463214661 0.0004854798291929843 1.083977640288362 -0.9815634588439185 1.630555243843065 -0.06297289238390009 1.904243369986344
4877 7 -0.001699644294723091 -0.01144764043503131 0.002556037751182008 1.084042410484619 -1.091728942754824 -0.005793914141156871 -0.7083591467056163 1.301413975109822
4878 7 0.006813240071706621 -0.007910728542602252 0.002997813502977461 1.08403254674567 0.1535719959083459 0.3163019040642758 0.02243760727111017 0.3523275445689876
4879 7 -0.01022889947501197 -0.000695891897311954 0.002990679659825861 1.083938379233929 1.06832077291134 0.3296460165252496 0.419136924058341 1.194006503815593
4880 7 -0.005097323527022 -0.003498038539682244 0.002972308761093913 1.083940027825057 -2.787370890630342 5.169712020728216 1.61056253779925 6.090096103294065
4881 7 0.005092207238201791 -0.01066387496991165 0.0005073550449433327 1.084039479815151 0.3268989302284424 0.243640947192274 -0.07945550537656207 0.4153757324012723
4882 7 -0.007257604843665824 0.001843004879794525 0.002493544738208785 1.083925406700836 0.3173917218626026 -1.291816129398966 3.322682279957099 3.579070263465519
4883 7 -0.005016026985925803 -0.009355189084676828 0.003514152011474062 1.084006369519384 -1.390584090975558 0.8348803972597177 -0.1740017804838556 1.631265156684963
4884 7 0.005979034966464384 0.005952074111376288 0.0004913913970982377 1.084028324337694 -0.09436649158406256 -0.4089352384194452 -0.1238862800605476 0.4375852766516418
4885 7 0.0021506063383657 -0.007665251041814594 0.00318084676166944 1.084042707498864 0.5569427011656286 1.850637603361956 -0.5698784146065706 2.014896056573006
4886 7 0.007180197909516281 0.009445713352246837 0.00352329417182197 1.084035386587316 0.3348666995367806 -0.2620867565900947 0.008622921620177025 0.4253228529198023
4887 7 0.003279285431951151 -0.002535910358144192 0.002974050770922238 1.084012991742858 -1.200340764225389 0.05531579030761027 0.2196950871328519 1.221533347162024
4888 7 0.001799218612264438 0.00311733040102835 0.001413602563150985 1.084008261199406 -0.7605079622160923 -0.7499247588699914 -0.0439823264135654 1.068968638266361
4889 7 0.01007113466728108 0.003526017408490578 0.003491371635545751 1.084025553402037 -0.1124716027630673 -0.1460692276123923 0.02819007717725502 0.1864960083611273
4890 7 0.002791954255283359 -0.006159158527560482 0.003500184171939087 1.08402985186857 -0.004239120270548009 1.298262726305538 -0.1172290145521652 1.303551578767724
4891 7 -0.006190082342809392 0.0009083756748291798 0.002945545808054603 1.083905663442605 0.3902790782448471 -2.307870843157827 3.912230338703593 4.558961703138829
4892 7 -0.003702018376045088 -0.004012618802740773 0.002968856048854631 1.083962164645436 -0.2646135475749451 2.695556048341703 0.7257651715624814 2.804064518438342
4893 7 0.0002830867688059305 -0.003361748386744499 0.002530003366347784 1.083997354161816 -1.083804819781852 1.201456068697186 0.1615140965372172 1.626104663228018
4894 7 -0.01003103573738011 0.007010483340527049 0.002997868751231186 1.083965980885814 -0.4592278056251765 -0.8674827934702051 0.07866401445492789 0.9846850265929459
4895 7 -0.002532629606893006 0.009552177253234201 0.0009755201942406903 1.084026090370897 -1.741258704570186 -0.7906894015089071 -0.4244450842601118 1.958909195305523
4896 7 0.005770894838053662 0.002518805433185012 0.0004968272278505997 1.084020266222903 -0.2549254912498951 -0.2635771734222205 0.07088332650974651 0.3734760747562486
4897 7 0.0001684623122671033 0.009301947575241526 0.0009899050903407561 1.084044125430821 -0.545680094112526 -0.3929401580157978 -0.8215140541877078 1.061628030018075
4898 7 -0.003653974615909874 0.01072255759963866 0.000488743033681845 1.084020253805004 -1.266660182612126 -0.4904638725742805 -0.06822435723739932 1.360013746781995
4899 7 -0.009786911040580567 -0.007377390858836496 0.00301900343135638 1.083969229547204 -0.5714714644105057 0.7762709559979016 0.003442290387855512 0.9639440238543409
4900 7 -0.0006960115911533166 -0.00298810534830985 0.002504994791021885 1.083985418175256 -2.095466566367047 1.235526715421903 0.1455900378021998 2.436945394216002
4901 7 0.006282853260550709 -0.006676696070174758 0.002969638303852574 1.084030061365644 0.05603024566468907 0.4571385403668012 0.001574111682598439 0.4605621688171145
4902 7 0.001100027437662509 -0.002168794676207539 0.002984625130601573 1.083997474314337 -1.519062978618507 0.7446750582736001 0.03377041587190413 1.692109250731843
4903 7 -0.008824449923004039 -0.008503170360345338 0.001003565170382896 1.083978346655877 -0.7326696463695795 0.8499378106770852 -0.03550411582548233 1.122701935052412
4904 7 -0.008463919611778925 0.001132779894320472 0.0009724475387967784 1.083937138738829 0.8364983247902884 -0.7700247829810457 0.3838746901904194 1.200011413091874
4905 7 -0.008510401216507472 0.008845146804454709 0.002997268070915573 1.083981643499581 -0.7821283855569324 -0.7371101628515265 0.008247216926844046 1.074767053951662
4906 7 -0.006997134746382135 -0.01000437087229711 0.0009986021820979408 1.083995166285611 -0.9432201287293249 0.6744703246436781 -0.004749781211183939 1.159567587718227
4907 7 -0.007996262664735441 -0.001830074991021432 0.003436154144222008 1.083923277878617 3.339690270182523 2.355185822774583 1.318408563823289 4.294022880902335
4908 7 -0.005665099559660204 0.01055025770941128 0.0005107614361871515 1.084005390503197 -1.213761458197819 -0.7335448335889589 -0.1365742898959221 1.424765748097604
4909 7 0.01033837632496194 0.0004412295861563024 0.00301452280866814 1.084024338551368 -0.1193445684665889 -0.01588613572420423 0.03790116838763393 0.1262220024237928
4910 7 -0.009664437073464651 0.006772967946639405 0.000492683700686266 1.083966563912599 -0.5666528742507697 -0.9360496150710108 -0.05523349469847879 1.095598056181122
4911 7 -0.005740564912427266 -0.002168219351051764 0.0004698015616810932 1.083942726094279 -0.4190953927498305 1.049851412449598 0.8580638719455175 1.419190806334611
4912 7 -0.0009065534882411736 -0.003828477055029574 0.003493567053292282 1.08398993625365 -2.075556795567798 1.841792980303302 -0.2356278288873992 2.78489817904863
4913 7 0.006208942312122594 0.006763624346337496 0.003491391397098238 1.084030885046426 0.07048979485849224 -0.4800657743887817 -0.0154652648745523 0.4854597134019805
4914 7 -0.004448884254686029 0.0009584920688958944 0.0004707836003004895 1.083941190322872 -1.267638199770715 -0.6644846729405268 1.077421803912271 1.791447523550827
4915 7 0.01048536049315892 -0.001626104383917474 0.0005003241664634497 1.08402470893846 -0.0778390948883627 0.04740166938876571 -9.919747976671375e-05 0.0911364515110248
4916 7 -0.009685663629737181 0.001254980357337063 0.0009998826074496597 1.083942002240628 0.3326621858758981 -0.3139347382621109 0.1326078344065125 0.4762394225023961
4917 7 -0.004005753161449345 0.005646931153511871 0.003503171674414813 1.083981554946039 -1.235789224195505 -2.456987709625234 0.1172633933847502 2.752764849258885
4918 7 -0.008192849884780329 0.006000951444473902 0.003485561219539678 1.083965189500432 -0.2547761773294993 -1.209753565132652 0.22369862534647 1.256366054885157
4919 7 -0.009829888281498422 0.007430551765510479 0.0009978687512311852 1.083969448341712 -0.5607420203057529 -0.7917354531334554 0.00868367983095825 0.9702329861329299
4920 7 0.003378346978061446 0.008537402900969103 0.003486350428952624 1.084044803532517 1.021219771710034 -0.8887549889418643 -0.2308827316361061 1.373347038540622
4921 7 -0.007226672062104445 0.006822613766589936 0.00298495638596123 1.083975092903984 -0.7117906151406188 -1.253899250237605 0.04131470805858944 1.442434093693939
4922 7 0.003556823604270475 -0.005769495938787275 0.000500184171939087 1.084025694301056 -0.2179475992537835 0.8241326376962637 -0.08290949899070331 0.8564868624559153
4923 7 0.01194205427588591 -0.001606694065160883 0.001889536772164729 1.084024993898819 -0.03769732064900994 0.05537012978507624 0.006153923713075728 0.06726670821139394
4924 7 -0.001620174536647613 0.001425240188768561 0.0004728795091690252 1.083971233672467 -1.8048404086926 -0.7065566612173183 0.1927795738476148 1.9477769842703
4925 7 -0.0004490944441666798 0.002353969073105725 0.0004728795091690252 1.08398708634022 -1.678561534346561 -0.8749739982567867 0.06478065712983898 1.894028736780813
4926 7 -0.0002303445234050209 0.0008754381160698827 0.0004728795091690252 1.083983941570188 -1.902055202234895 -0.2952965303356871 -0.01809379910394105 1.92492634112143
4927 7 -0.008215262370140667 0.004947929157698229 0.002994861315263527 1.083957476023499 -0.0313927536501832 -1.690787100888085 0.1703722047004238 1.699639142184528
4928 7 -0.005684502171837935 -0.003187166969392372 0.001442110322775006 1.083948414070201 -0.5340811880196479 1.873609657122009 0.3588042595492874 1.981008924595758
4929 7 0.0006376502254562741 -0.001179903096603627 0.001001334347366241 1.083992654143425 -1.596160434198878 0.2206074744900389 0.04755311688208892 1.61203507667421
4930 7 -0.001384421220540458 -0.01119223426827958 0.001048736146456815 1.084039570662662 -0.9771705936689129 -0.01778842690570463 -0.4993108352394119 1.097492645738692
4931 7 -0.008255395574408325 0.008618330458541549 0.000492083020370654 1.083981255854488 -0.8572942698162794 -0.8657230747696317 0.02108745053632577 1.218554302367578
4932 7 -0.006027942489120383 0.0003475337751760977 0.002945545808054603 1.08390068680994 0.219860705199706 -0.3866788297654438 3.93106119283337 3.956147286044872
4933 7 -0.005032869766292636 -0.00362888845251351 0.000972308761093913 1.083956909877944 -0.6622323997422073 2.061435606816854 0.4496328708404868 2.211388303953187
4934 7 0.000549140132564557 0.00125345044583885 0.001472446285466499 1.083992059649785 -1.643598586207206 -0.1860192877117759 0.1471652011786636 1.66062550998745
4935 7 0.003875670268449863 0.010961092510831 0.0005232941851311605 1.084042792390934 0.3765816895111315 -0.2550568183907323 -0.1372518110811433 0.4750850546246589
4936 7 -0.008514996480136148 -0.008841292216866132 0.003003565170382896 1.083981871466049 -0.8113508517828735 0.7696020326074567 -0.003514925583350192 1.11829774567607
4937 7 -0.009796024838050933 -0.007364036515148255 0.00101900343135638 1.083969286061746 -0.5732550155492184 0.7750960475755522 0.02048713825927614 0.9642691111166177
4938 7 -0.001282299384603718 0.008787283085017358 0.0004867771605588453 1.08403117378574 -1.107657634066118 -0.8741893616394271 -0.6030591386117583 1.534533414094218
4939 7 -0.005915003025440039 0.004467896776203815 0.00349515430380515 1.083954720600764 0.1569067268840067 -2.196262314557959 0.5981147060689851 2.281650515943431
4940 7 -7.802176013970905e-05 0.01182140528196191 0.00252214549767867 1.0840505326282 -0.4658022704610731 0.3307632729195045 -0.7584197590292838 0.9495138907699825
4941 7 0.00546000230936473 -0.0005759091002721516 0.001456645539627751 1.084017419061089 -0.5145305355618454 0.05800700154990179 -0.01990571565967775 0.5181724826448175
4942 7 0.001544180759653292 -0.001362126858923286 0.0004920538389088719 1.084000043466063 -1.128311669172462 0.2898233725873636 -0.1041073276940034 1.169582466424769
4943 7 -0.005032346026952511 0.00277020685748074 0.001015607782849198 1.083946723856367 -0.5916416856496165 -1.44357888649448 0.7559424799413814 1.733611524739868
4944 7 0.01183050698363732 -1.932977707217142e-05 0.0005 1.084024868977683 -0.01738627742175912 0.001565372948515516 -0.004521627157958451 0.01803269661503522
4945 7 0.0094433133525659 -0.004273441171769764 0.00348784370886865 1.08402597332866 -0.02728350260756103 0.187571436110234 0.01119991277369663 0.1898759363508994
4946 7 -0.002830124027714861 0.006702386576853373 0.0009880896177360101 1.084004245901133 -1.592692614208098 -1.841627264675827 -0.1464633519142877 2.439203201622276
4947 7 0.01021158540175388 0.0004054050448157256 0.00101452280866814 1.084024379219464 -0.1061824181908628 -0.0163254800870685 -0.0158388678382524 0.1085914221627573
4948 7 -0.00720428020309653 0.00948311680953064 0.000492083020370654 1.083991099518421 -1.014720515963761 -0.824024578184344 -0.0825293913010933 1.309765372651978
4949 7 0.0007651300850163475 0.003675367325879268 0.003474422237741401 1.084004162374065 -1.510812766044375 -1.378582643317119 -0.02359424392735965 2.045385539903021
4950 7 0.001185518969655806 -0.001152570403008414 0.001000816894582412 1.08399745077588 -1.273824305487238 0.2682953776485464 -0.02117665005982994 1.301944400281893
4951 7 -0.004589791715658788 0.001047117933063923 0.002965294183737681 1.083907003801338 -1.157274285313685 -1.106145474986546 3.906286259002299 4.221600871772661
4952 7 0.00457816533962941 0.006501848131119226 0.0004913913970982377 1.084029490032308 -0.1273653269773779 -0.5833839079429217 0.01111830163177518 0.5972288733760156
4953 7 0.002003816738049594 -0.01158061486957601 0.0004940427602505031 1.08404523155307 0.08131447897141128 0.1004597389575187 -0.1305973716259916 0.1837386108509103
4954 7 0.001575855051105666 -0.0008429640052894701 0.001000816894582412 1.083999522586503 -1.100543556708585 0.3600267547025007 -0.06154466762163729 1.159570235228145
4955 7 0.0009823803756976121 -0.001614573804740463 0.001493388186275113 1.083995998956765 -1.489378787339264 0.1511884337375279 0.1117437572436401 1.501197449356715
4956 7 -0.001519564606950147 -0.005887641551281031 0.0005238775562104375 1.08400606117009 -1.274689072904374 1.563137380214801 -0.2631578704495889 2.034080324565912
4957 7 -0.01106012525455461 -0.001852486246919186 0.003488482383418866 1.083943240012238 0.09020602815158169 0.5267959786373421 0.0351939472989824 0.5356208962968514
4958 7 0.009076681133518366 -0.0005371860169612789 0.00148281442723903 1.084023414494721 -0.1411066428760616 0.03483989085255636 0.0140867643807752 0.1460251334157579
4959 7 -0.008429135423745579 -0.00220669756157966 0.002935065499102804 1.083936420855797 1.340926342962802 0.8279547914326573 0.7480475680804077 1.74446775780434
4960 7 0.004849297116369293 0.001330251993918814 0.002394417255427992 1.08401624338871 -0.5695331705298193 -0.2831131993805029 -0.04255199969455668 0.6374415962856661
4961 7 0.009948903693455472 0.00253973010154403 0.001005570277750441 1.084024999788493 -0.08137004776185221 -0.1147812696066768 -0.01570711254794765 0.1415716705767105
4962 7 0.001134504643221809 0.009713169186973231 0.003002225600315355 1.084068600010649 -0.2898094294326813 -1.373688804584559 -3.532242287143878 3.801019075500209
4963 7 -0.0009633517103599326 -0.002397933347559166 0.001011427737729603 1.083980000675395 -2.024748586541091 0.9528408779403834 0.3351459772078049 2.262705328453734
4964 7 0.003574623858031479 -0.008816833087385144 0.003076445411337646 1.084042347770596 0.6755294853264547 0.2262026001726133 -0.2176945975831846 0.7449151895935406
4965 7 -0.001419838584402932 -0.007737144254312329 0.00100335475235323 1.084025280354886 -2.316178833402573 1.2852518981074 -0.1933570161123742 2.655926159660817
4966 7 0.0003560830988055774 -0.01049119920527949 0.003490965497770762 1.084071950627834 1.256425619604751 -3.718328706330594 -2.369091586151849 4.584448565476203
4967 7 0.007044869600446464 -0.001804649568859543 0.0009935562030663246 1.084021357608398 -0.2552685984686688 0.1516770018388456 0.04888742475656507 0.3009284807895531
4968 7 0.003492789292568322 -0.007860026614823379 0.001059701710252756 1.084035825801015 0.3168300512207429 0.6924963056239417 -0.240386923137653 0.798572656353155
4969 7 -0.002268059264220697 0.006252029791071339 0.001488940827172659 1.084004722989834 -1.502885520816658 -1.931017469418732 -0.1036113285519277 2.449128143500249
4970 7 2.203430485277081e-05 0.004067251100939745 0.003474422237741401 1.084001082761884 -1.366376341017898 -1.465639609549442 -0.01652348150310888 2.003835521148052
4971 7 0.0002899333044345527 0.0007022339089540887 0.002981642564842566 1.083986449599677 -2.129760421604034 -0.6934627799833953 0.405450805361605 2.276216254274112
4972 7 -0.0007837193620044423 -0.009274940267834495 0.001051507514421589 1.084040320746722 -0.8549293064757386 0.1239583892053755 -0.7442788919872462 1.140272279055859
4973 7 0.01163251425693234 -0.0008005499046194254 0.002612600375959656 1.084024774680313 -0.04870443284382839 0.01217920025198054 -0.007198798464786887 0.05071762412370528
4974 7 -0.005390346171372374 -0.01106351154742537 0.002998433877251025 1.084010936543181 -1.238149361131412 0.4541638491580025 -0.1221647250327497 1.324463235576762
4975 7 -0.004214848321967312 -0.003793087028323062 0.003483376219661647 1.083953652605028 -1.237098022329162 2.781490031578883 0.9973859469130023 3.20341646367171
4976 7 0.01039028754791004 -0.004292008284824653 0.002495009117081474 1.084026180424034 0.01732984553109531 0.1321009437154895 0.0079055679300662 0.1334671528165318
4977 7 0.008030209136673438 0.008142998894289653 0.003483380841685051 1.084032076884382 0.2040292090492573 -0.240868787120997 -0.04869476608153846 0.3194007999334714
4978 7 -0.009840500787981861 -0.001100086456727364 0.003488482383418866 1.083936222714267 0.9080173204608973 0.5979514990603586 0.2150153447757362 1.108274807064812
4979 7 0.008783273022084965 -0.007050022371475397 0.003010353285770457 1.084029577281082 0.09731263098302981 0.2143258519285792 -0.02605975947192619 0.2368215151068104
4980 7 -0.001705612615975552 0.004129896819950993 0.002968931200092136 1.083985817616067 -2.084627979038451 -1.626089431314543 0.2648847906371147 2.657066917097433
4981 7 0.003543575583510518 -0.007883059812657802 0.003059701710252756 1.084038990186161 0.4539584567654198 1.300813560116749 -0.3566905958578692 1.423173348480744
4982 7 -0.002164444037543191 0.0001070368488288194 0.000491356946797271 1.083960759595304 -1.646697936738592 -0.3068342727670146 0.5173090933036568 1.753102981521123
4983 7 0.009517446198682106 -0.001855392372308201 0.002491057507343824 1.084024085355013 -0.160485742903258 0.06853380842558428 0.02242105197966557 0.1759410700899599
4984 7 0.001296958602138781 0.001112290404207581 0.0009995667762974733 1.083998362047039 -1.23672489745478 -0.2797008386999885 -0.08068556230571426 1.270523982897845
4985 7 -0.004743108972997599 0.007132764661852246 0.000496703183449469 1.083991823316719 -1.270815454552702 -1.346001622009793 -0.06116129821715767 1.852142810471858
4986 7 0.003266209809336665 -0.01060713160927912 0.0005101311284948868 1.084043242208876 0.3167967673116009 0.1582407528116125 -0.2683394409770071 0.4443043812673009
4987 7 -0.00225444675317394 0.005308526735092766 0.0005008512094366488 1.083995252978866 -1.294261674827202 -1.638578429462386 0.009474273929186618 2.08809537959654
4988 7 0.009847079587696057 -0.006780162886425543 0.0004913800299994412 1.084028677602877 0.1019573184989971 0.1759330337276157 -0.01798503500256927 0.2041352214492931
4989 7 0.009709000555668435 0.0003907974725719998 0.002489419679794134 1.084023842537285 -0.1796454257250205 -0.007920842657846785 0.02058233734143845 0.1809940643854682
4990 7 -0.006096613212963398 -0.003159764684122332 0.002958734103113359 1.083933516549776 2.01662282550944 2.681182234154997 1.403036908136364 3.636484340500713
4991 7 0.01004907900840554 0.002328185974526137 0.00351419864220469 1.084024657941697 -0.09424199911882054 -0.1080253256487296 0.03324801190146748 0.1471613253366045
4992 7 0.009205638280961079 0.006678576007783606 0.0005093927082647207 1.084029150496308 0.1006610590662082 -0.1924536379784624 0.005022260789136069 0.2172470360831416
4993 7 -0.00188064975816564 -0.001324920439881365 0.001010213392834173 1.083964120380948 -1.750999345080988 0.8113340484652868 0.4350433010717686 1.978262954837032
4994 7 0.004090388929106376 -0.001638799292579486 0.003490382347750167 1.084014831226549 -0.5459580080530422 0.3010981636749633 0.01274542268037996 0.623612617355504
4995 7 -0.002475041052455766 0.002518227151540489 0.0004680799906554873 1.08396785459898 -1.642631355614953 -0.9110851030901141 0.1430682938685847 1.883821215570259
4996 7 0.008481289655145852 -0.0006631702651934444 0.0009824902607755799 1.08402290460011 -0.1780358515895672 0.03754033189037213 -0.003055653124274575 0.1819763116058724
4997 7 0.004981883610188873 0.007935801914720883 0.0009777418260508621 1.084034606514894 0.255628918979643 -0.5230964072428301 -0.1370119398386767 0.5981206125418307
4998 7 -0.002077071062376767 -0.00187904410422768 0.0005188564460369022 1.083966470638513 -1.684161689840596 0.9803026403246967 0.5625986705909851 2.028277872557172
4999 7 -0.005779968471968979 -0.005300381480180088 0.003050915838647677 1.083968262539982 -0.8698854422725028 1.649583648259273 0.1902699215683906 1.874574495275032
5000 7 0.002504162427594941 0.002423481904789578 0.002939180325409585 1.084009765685666 -0.9401498978985355 -0.5597824290965638 -0.1412221553652754 1.103259668260329
5001 7 -0.01214732518686663 0.001695480300208259 0.0009978687512312277 1.083945076790543 0.01197213181077455 -0.3069219415026865 -0.004258408426947999 0.3071848696765577
5002 7 0.009203003861017276 0.006785448949632072 0.003509392708264721 1.084029296056049 0.1130081089597505 -0.209092368503534 -0.00863222539146531 0.2378339054304191
5003 7 0.005082410409134076 0.003221983978020327 0.002970326343048768 1.084019888531973 -0.3204895349304888 -0.3958691499098919 0.08958552655365885 0.5171571254640487
5004 7 -0.001213836934953051 -0.003322617979076427 0.003012423499329184 1.083981446714962 -1.977906802317923 1.37325992423279 0.0583647971484351 2.408602206198761
5005 7 -0.0005807890039689605 0.008271713624472307 0.003684724317412645 1.084078638933195 -3.335654372902439 -4.586937063850469 -3.104181127076814 6.465487003535634
5006 7 -0.002824122647472004 -0.008393206137855744 0.003498222009680793 1.084023936526379 -2.946573756299529 0.9308886688770343 -0.6467270528217225 3.157072456566089
5007 7 0.001085329278901923 0.0005773459538127555 0.00050876305567354 1.083995939079913 -1.201917182473128 -0.1917162137331087 -0.01215142566975397 1.217171999874343
5008 7 0.007269611496833131 0.009364303193426571 0.0005232941718219705 1.084034470777643 0.2326662759391556 -0.2211985574900348 -0.01790615053063427 0.3215323125626618
5009 7 -0.003908021499243936 -0.008207286813577882 0.001499712129038918 1.084007402172276 -1.59341284348967 1.386644616759554 -0.180333277310291 2.119968837952944
5010 7 0.003699455028336122 0.002086109171407247 0.002362493481752797 1.084014145441911 -0.486835698408205 -0.3764572632031524 -0.08125023121276988 0.6207500852477918
5011 7 0.004769377357807781 -0.006679149946434116 0.0004824670615081595 1.084030007850637 0.004416320578378193 0.525923637557749 -0.04448807302307062 0.527820390919801
5012 7 -0.003089227364014645 -0.01135323489681299 0.0005073016047251925 1.084026681716048 -1.236218187914169 0.5297397961866591 -0.145729206413724 1.352810652454973
5013 7 0.005503222625828464 -0.005435249735205551 0.002984549658735349 1.084026559116457 -0.07142531929500666 0.503764340591304 0.01358278797268853 0.5089838693091324
5014 7 0.009521363439522673 0.004695753311894131 0.003491371635545751 1.084026624943546 -0.05295343868935257 -0.2154988157566082 0.02213760354251119 0.2230109408798882
5015 7 0.01227257300316576 -0.0005383538670764838 0.0008070439262913836 1.084024940261703 -0.02187083572890541 0.009174600313783983 -0.004521627455288339 0.02414439606291422
5016 7 0.008472519120447759 -0.005911181174169307 0.002975014951213065 1.084028176336117 0.02584052930821172 0.2500547832007177 0.02445724586084768 0.2525733248614834
5017 7 0.002809617175750552 -0.003879340188455554 0.001025861953376168 1.084015272349506 -0.6390500496736081 0.6925928554150843 0.01883967919925897 0.9425628694533813
5018 7 0.009331846959773901 0.001016315085990901 0.0009890955133306841 1.084023779507734 -0.1581938880680429 -0.05346277320999725 0.0457366234677043 0.1731340898483446
5019 7 -0.003950807203881601 0.009426686518713999 0.003488743033681845 1.084016692053025 -2.188785535901297 -0.7007113401771332 -0.4115649509295017 2.334772839754902
5020 7 -0.003724461479027713 -0.011510124170701 0.0009997782533897144 1.08402287567487 -1.262799321771897 0.5391560289968945 -0.1319148569899156 1.37940308835595
5021 7 -0.001926542832282052 -0.01154929808648336 0.001556037751182008 1.084037599145366 -1.08134405614445 -0.04268413316821646 -0.4473076572151821 1.17098720880571
5022 7 -0.003143350158921927 -0.006190673582267561 0.001496695493287486 1.08399609115262 -1.535071449865973 1.833926875491731 0.02343890826794474 2.391711003291425
5023 7 -0.01156664877845974 -0.00146940396518663 0.002981216425394833 1.083942939603811 0.1795129053798121 0.3937482858526071 0.1390828257172462 0.4545400182814068
5024 7 0.004862588840748742 0.008575718022583785 0.003486350428952624 1.084038325813394 0.6210828110910973 -0.3760909765931825 -0.3341152420544746 0.7992629579060658
5025 7 -0.003007846926649483 0.006092217085995648 0.003503171674414813 1.083996467118066 -1.523450421451063 -2.334976925667437 0.06041782083784102 2.788667915527693
5026 7 -0.001540921640351561 -0.002555097309219023 0.0005188564460369022 1.08397578742843 -1.700423170503113 1.000797005621316 0.5628004857854637 2.051774352126666
5027 7 -0.006392839910978349 0.001452228410834661 0.00246664300746661 1.083921401002818 0.2946472383618131 -1.278475852452894 3.3221307092765 3.571816057679535
5028 7 0.008039426083621782 0.008134079388499067 0.0004833808416850515 1.084031864290349 0.1783052427923619 -0.2285285559553791 0.0175077503056711 0.2903869518677788
5029 7 -0.0100629880715615 0.005069732594436164 0.003509300095723848 1.083956138520302 -0.3068935300867755 -0.8598117278387989 -0.004472713509581224 0.9129511768459484
5030 7 0.01037702013814657 -0.001512566842332891 0.00350032416646345 1.084024470630276 -0.1231015674321709 0.05605220784919436 0.0286272782583783 0.1382583341773986
5031 7 -0.00487171663603293 0.001558343233526258 0.002965294183737681 1.083910478969928 0.06769612820792721 -2.056192377507982 3.911020661434379 4.419116707359388
5032 7 -0.002628472734305034 -0.001183755983059544 0.001485707306767405 1.08395302304725 -2.230551749369022 0.9487888960860952 0.6807789004264518 2.517741326509799
5033 7 -0.002241316415393347 0.002524859067482326 0.003468079990655487 1.083953412480844 -4.537469816477183 -3.349208061481495 0.2267119166689557 5.644220519052549
5034 7 -0.001114100815462386 0.002356357222378592 0.002940959499824512 1.083975187501885 -2.773702621976375 -1.642161633496792 0.995570796628262 3.373615608925608
5035 7 -0.007502975903713007 -0.005674497567889267 0.000501256810142374 1.083967066359516 -0.575743710288476 1.273519495062547 0.1170303015119293 1.402508044794424
5036 7 0.004277802960101715 0.002835410890070747 0.0009452038326362507 1.08401704521983 -0.4891071677596188 -0.371479687731505 -0.03708397811851729 0.6153033409498334
5037 7 -0.001800905218081829 0.004655513028517954 0.003500851209436649 1.083989886893663 -1.787409582979487 -1.9756781118062 0.05777515890754601 2.664859281047276
5038 7 -0.00137027718596501 0.003570552192857016 0.003468079990655487 1.083983353472433 -1.969374045842808 -1.761636057850356 0.2929015985647416 2.658493385208922
5039 7 0.006998907326991259 0.009363819350259539 0.001498026119612691 1.084034978403608 0.2556285515866508 -0.2833238642289845 -0.02602618565812436 0.3824862491225589
5040 7 0.002915805799673623 -0.00289938999042172 0.002974050770922238 1.084012099285967 -0.6700846685783689 0.5791434157638921 -0.03087270875766181 0.8862131138910585
5041 7 0.008475343427978505 -0.007976614733514395 0.002502270071026006 1.084030964764677 0.1221448742615925 0.24529060511856 -0.02251011585799886 0.2749428242085072
5042 7 0.01187737306602409 2.149602134384734e-07 0.0035 1.084024794570056 -0.01884846894590182 0.001780077166678887 0.0126392301593809 0.02276364635434667
5043 7 0.00763252509864421 -0.00476051728970399 0.003535793001244682 1.084026076704211 -0.09530275277953502 0.335834959271665 0.03196278350395079 0.3505557788507822
5044 7 0.005003460352509566 -5.674977729664129e-05 0.002970682726211012 1.084016466400824 -0.4810765790031817 0.0007274432274636003 -0.0881226350981357 0.4890815912050799
5045 7 -0.005929219285368094 0.004079178292084581 0.001016251503217157 1.083956369768999 -0.7689323676897823 -1.923683417863808 0.4323756063591336 2.116308943235752
5046 7 -0.0009296734154232608 -0.01064872518915732 0.003572030318278796 1.084059968568041 -4.62584119379549 -2.973931077143861 -1.756278124481976 5.772970262555599
5047 7 0.01108100966105117 -0.004016371609130007 0.003007165408212824 1.08402593059274 -0.002524135923857027 0.1145193185943468 -0.001166730635816485 0.1145530743972075
5048 7 0.003315053896841448 -0.008617960157252764 0.001569832838747643 1.084039752700166 0.298615822885673 0.6181964531406585 -0.2167547941457127 0.7199450709175862
5049 7 0.0002442803898345034 0.002001808374381308 0.002963683229792959 1.083990128414332 -1.55356409611593 -0.7788667594186877 0.07395821318578596 1.739443775166507
5050 7 -0.007920839665858388 -0.003432757896456582 0.003498911354880796 1.083941924812776 0.3859537341110185 2.371908229607276 0.5998783234326354 2.476845360024987
5051 7 0.008610915135548586 0.008120301675536339 0.002976833723795458 1.084031413296194 0.1414137706309391 -0.2254671799888295 -0.003571061956034951 0.2661692248545443
5052 7 0.00849593176386962 0.00746334650325314 0.002486226432060179 1.084030630825936 0.1410207737737595 -0.2227415412580784 -0.002563017159264347 0.2636422232775562
5053 7 -0.007381027998257621 -0.009809738220828043 0.002998602182097941 1.083991837959334 -0.8738059458058363 0.7714999512906673 0.02846714165312931 1.166001451080158
5054 7 0.006522047729133089 0.008377526360195491 0.003483380841685051 1.084034481856101 0.2260394982708502 -0.4160026526406618 -0.01371767615871509 0.4736456865862922
5055 7 -0.005727958743729097 -0.0036539575054212 0.003488932541432266 1.083937634118347 0.5587327800946468 4.864517740867134 0.2311001206237711 4.90195088067146
5056 7 -0.004216982654794591 0.01105013163232109 0.0009967973527107879 1.084017509773406 -1.143264562913556 -0.5276678710082964 -0.1239035648462015 1.265242797367347
5057 7 -0.0117053374889894 0.0004735121790538891 0.001007382326951919 1.083943027663222 0.1869367475649577 -0.1706838929630065 0.1234429640914952 0.2816318595096548
5058 7 0.009541401616053335 0.001033404465332803 0.002989095513330684 1.084023737891629 -0.1586513518380877 -0.04494058036890861 -0.002885896741599947 0.1649188758267233
5059 7 8.534853358611798e-06 0.01085698825330738 0.003503163597645245 1.08406457892118 0.5230466752321956 4.291733572925747 -2.623843141921494 5.057381508138169
5060 7 0.00700537116957782 0.01006835868595565 0.00301464527792764 1.084036563959272 0.3111137199487168 -0.2062091384029679 -0.01920947842505567 0.3737418354460544
5061 7 -0.003695285899637377 0.01067776181461026 0.003488743033681845 1.084024516326781 -2.176653258106794 -0.5158531330345574 -0.4348825055038465 2.278825718321126
5062 7 0.003920334537609433 0.003286159608198864 0.000448376604785651 1.084017291492263 -0.3918877417227143 -0.4940685006941317 0.07336224279120612 0.6348714075763942
5063 7 -0.0002264377127877849 0.0007991930494041159 0.003472879509169025 1.083977804705285 -2.794629649712774 -0.6748417339495381 0.7878410184811548 2.980949465411177
5064 7 -0.005716906040030081 -0.007046065900443013 0.003561983297215411 1.083985119694273 -1.160830878263569 1.247362443019294 -0.07214651080946805 1.705475450191885
5065 7 -0.011312008435599 -0.003964886145026362 0.0004768179565739615 1.083951663913424 -0.2149505556566762 0.6677380175418683 0.05689490399960646 0.7037860694479415
5066 7 -0.007210207633245211 0.001333793985007555 0.0004747622077541135 1.083936490975796 0.09286865271343517 -0.7535738381443235 0.6785883466253141 1.018322277261994
5067 7 0.00871182466614652 -0.005378532346081766 0.00348784370886865 1.084027313182427 0.02656553606325662 0.2340499520772854 0.01729952506480889 0.2361871743790837
5068 7 0.01138833340259425 0.00347735549356313 0.0004694697906795598 1.084025857565275 0.01006367116528143 -0.1103750772095841 -0.01818107457567402 0.1123142315963155
5069 7 0.0005364276369156899 -0.002426009492988679 0.003492571291692701 1.083993724473146 -1.434777623497374 0.8336329132595689 -0.01600157451254578 1.659453739441172
5070 7 0.002215747501948541 -0.004025645172150204 0.0005438650213628018 1.084013377687106 -0.7575481737359282 0.6753206254376429 -0.0491262848799873 1.016046541521715
5071 7 0.01018675972047595 -0.0032827788469423 0.003483139951230789 1.084025294161235 -0.09297268574946456 0.1299781357521898 0.01859237479157453 0.1608847801051229
5072 7 -0.009795697515526345 0.0006441597330742359 0.003502197276406995 1.083934275812211 1.126019980472302 -0.3413964940377355 0.361242093733611 1.230840531039316
5073 7 -0.008551752509442141 -0.0007037209639588042 0.003436154144222008 1.083922923444795 3.168553148538333 1.435550138825211 1.183950282306989 3.67454371686718
5074 7 0.005229242748077842 -0.0007626568492474298 0.002456645539627751 1.084017012672379 -0.5150056536025022 0.05765594508919925 -0.05741348054905692 0.5213936507049411
5075 7 0.003102924988852867 0.009373390403220636 0.00349906200267011 1.08404760939694 1.157794771776196 -0.2051161984176575 -0.7311569710218327 1.384612546772355
5076 7 -0.009149987510844363 -0.00414181711522285 0.002989621248679691 1.083951367522567 0.06615845487709944 1.022644524384114 0.08155550170800734 1.028022404553218
5077 7 -0.005080212780230017 -0.006125619793206541 0.0005619832972154113 1.083981407830487 -1.066414408678865 1.423939846358422 -0.02839455779458373 1.779227536881523
5078 7 6.986856883812152e-05 -0.006135633218451363 0.003484699105247369 1.084025856375683 -0.3909019398251715 3.298982853129368 -0.7054096765169207 3.396129415014153
5079 7 0.003857811567283294 0.002549776501566871 0.002945203832636251 1.084015648468279 -0.4451583968581712 -0.269481518247297 -0.005755752876631304 0.5204031280280531
5080 7 -0.0008630227068784206 -0.0004439533456540923 0.003491356946797271 1.08396615727786 -2.469390869064992 0.4879259003334191 0.5971028652082325 2.586985655174302
5081 7 7.414064406234666e-05 0.01210470909866345 0.00152214549767867 1.084047230915796 -0.468267787467041 0.3255167181475729 -0.3221179681016554 0.6549777400391431
5082 7 0.01166490059476329 0.004021721800196118 0.0009772082095781491 1.084026194978564 0.01636768039825073 -0.0895091611525308 -0.00795134472259121 0.09134010496351801
5083 7 -0.01103552903309635 -0.0009509898202833672 0.002483413701801828 1.083941975831336 0.1237187166901618 0.2620226933930642 0.2027216244656172 0.3536357868462904
5084 7 0.000231000279033547 0.006651259095884185 0.000547510077209633 1.084024413807228 -0.5803546018159321 -1.41707173970686 -0.4737188000294553 1.602907758052878
5085 7 0.0005677333223523342 0.001210554428844454 0.002472446285466499 1.083991387580414 -1.642801705982594 -0.1869281173613553 0.1261671512970852 1.658209189549378
5086 7 -0.004703278322163079 -0.006584649592669446 0.001049321405099475 1.083988035898983 -1.147821019309832 1.526589698840069 -0.09066928539474568 1.912116659696282
5087 7 -0.00536481165644808 -0.01043817130037072 0.001512585888725087 1.084006972410669 -1.070581699779342 0.7713429575146192 0.07280376866386946 1.3215201560103
5088 7 0.01222981523984517 0.0005268668397002432 0.0008195501908166308 1.084024947090632 -0.02687963476568395 -0.01770614745201086 -0.004521627483772202 0.0325033465635605
5089 7 -0.004409444996600612 -0.0001707939677118652 0.002946277514233721 1.083905721100566 -0.9876856057686371 0.0644994335382325 3.928394426865677 4.051168449447471
5090 7 -0.005866858658798577 0.003910397825641946 0.003016251503217157 1.083949152856814 0.1547642028092248 -2.189495624332084 0.6010002383105864 2.275751377872789
5091 7 -0.008259708665195447 0.0004645647071441119 0.003474762207754114 1.08391925422251 3.168542422792495 -1.525359665223264 2.424575824189454 4.271410905142437
5092 7 -0.007376234970500451 0.009813824879973187 0.003002844456557806 1.083991707312348 -0.9295340729683798 -0.8116604204126089 0.04108624625907383 1.234712237934499
5093 7 -0.01131086108594763 -0.003393733896936675 0.003524719052284401 1.083948261485996 -0.07732253501803216 0.6362521969564477 0.1155583390399602 0.6512675043906272
5094 7 0.0004595340114631328 -0.000994019587531071 0.003001334347366241 1.083988163929146 -2.371235212605214 0.6999663797412934 0.3206802899623833 2.493099519601531
5095 7 -0.008014793917821852 0.002025538907957372 0.003497685331042665 1.083922748937537 3.368382882393204 -1.944500588130265 0.2121803308153221 3.895138800148641
5096 7 -0.004868565575181462 0.004871968117845677 0.00349515430380515 1.083964281735289 -1.483608441562765 -2.785773964872048 0.6275749428663735 3.217993303310148
5097 7 -0.00684601066557324 -0.003066534344610169 0.0004698015616810932 1.083946897685228 -0.1547422987440271 1.258459590749585 0.8492935481792364 1.526094771483434
5098 7 0.005701195045450889 -0.0105505120362426 0.003489079747943377 1.084039647492744 0.4829955032837541 0.242400917812472 -0.02217073292126774 0.5408644955503382
5099 7 0.0004863736465859684 0.01164956894809047 0.001014083849701872 1.084047655692417 -0.1084260122343868 0.220003906151162 -0.4998353249955304 0.5567703933976808
5100 7 0.0009489215973207628 0.01064734028957439 0.003503163597645245 1.084065486303621 1.04567271430887 4.198513839504058 -2.658468531908247 5.078228512099822
5101 7 -0.00413095361804562 -0.01101035690930249 0.000492476648664522 1.084017900779096 -1.239080946758633 0.5307532052054945 -0.1191612342962514 1.353225759884573
5102 7 0.00177390464904473 -0.009422983129552948 0.0005101311284948868 1.084041948029624 0.05694626770505895 0.6295708562607526 -0.3090958109282448 0.7036636702230852
5103 7 -0.001303961467369561 0.00344695669768675 0.0004680799906554873 1.083985505392453 -1.339543746214723 -1.302452614207736 0.3937923238971234 1.90940636184125
5104 7 0.01079129414415099 0.002797962100162915 0.00147504006843 1.084025395907112 -0.01385544740626808 -0.09134236554382184 0.001120703892221743 0.09239403196734665
5105 7 -0.004927686069596269 -0.006512404847974405 0.003049321405099475 1.083985393021945 -0.9425304299339313 1.864624269765401 0.154858022166409 2.095034196804169
5106 7 -0.01151283461521809 0.002039603706387533 0.0004926837006863033 1.083945538597545 0.0362769936884963 -0.275874353263061 -0.02250315069430654 0.279157788446889
5107 7 -0.001250354463926018 -0.01187456482655315 0.003476705828178019 1.08404871359029 -1.488198126220327 -0.1465299153001553 -0.6552253738339949 1.63264355248764
5108 7 -0.01171785168585439 -0.0004438049469956404 0.0009949313183829616 1.083943057894402 0.1773536463631182 0.1563587066405129 0.1201697461681812 0.2652227910921553
5109 7 0.002010716753207483 0.008478243309919255 0.00100890895981974 1.084040478169611 0.01033022599512857 -0.9135515561075442 -0.2809124136991955 0.9558216064757764
5110 7 -0.008431800253559992 0.005370148576379258 0.002994861315263527 1.083960855839808 -0.2651133480349118 -1.264655897585935 0.2138143622055066 1.309716079190644
5111 7 0.01134363513883399 -0.003107594328124609 0.002953032421144478 1.084025416441993 -0.02568459304707232 0.08272091629559082 0.005980592772563929 0.0868228990686622
5112 7 0.005225782395568275 -0.002205543575433246 0.003485962813416739 1.084018444459322 -0.3184912672260878 0.1726693165908476 0.008515100305376649 0.3623863782269419
5113 7 -0.0004736802094449015 -0.00726795422374518 0.001488053857600599 1.084028718146896 -1.266387588023864 2.108878222308962 -0.573974144322669 2.525975296391643
5114 7 0.01105675249372185 0.005387231627828191 0.003018658635770063 1.084027185872116 0.03980127868501813 -0.1442885498359398 0.01938348175579663 0.1509272896586242
5115 7 0.01109120327387825 0.005411510944999842 0.001018658635770063 1.084027228542822 0.04688799113150626 -0.1404348034262154 -0.01625664128823206 0.1489452789170648
5116 7 0.0004633150736398016 -0.003916722878358561 0.003037432074655083 1.084002716557388 -1.109012232294623 1.578538238584406 -0.07538705965540214 1.930640906749815
5117 7 0.002814958904826047 -0.004553232900919709 0.001526046125315255 1.084018601657766 -0.7065281872735956 0.915395339730009 -0.1142577480202147 1.161974844992
5118 7 -0.01118396907047978 -0.001892418729998242 0.0004884823834188663 1.083945166696886 0.01546986535156549 0.3608005595279065 0.1935889961019802 0.4097475563092701
5119 7 -0.01110630195102057 -0.0009556394662154963 0.001483413701801828 1.083942895994383 0.1241829255845558 0.2650133396343957 0.08778018648818625 0.3055467727383414
5120 7 0.001970795429543822 0.00890301700983089 0.00349906200267011 1.084060838898443 4.013466609815428 -1.868616184872782 -1.63258653320113 4.718578118762212
5121 7 0.00346668580743203 -9.158226498815164e-05 0.000907671996866713 1.084010522119844 -0.7618834219075756 -0.04470651262663826 -0.08107568570185929 0.7674882980611882
5122 7 -0.006128619214275812 -0.001735714554927923 0.003469801561681093 1.08390078986075 0.2673108591684772 2.399644288121953 2.705492634222045 3.626215409869558
5123 7 -0.006994919852564979 -0.0001162544389673409 0.0004747622077541135 1.083934372108614 -0.03113101248012109 0.2718483026368664 0.724535528489029 0.7744820021326896
5124 7 -0.001266935434586605 0.01183531183221465 0.003508061647976797 1.084050307194754 -0.8783806595982717 0.686551072504578 -0.4745767026786462 1.21166332165285
5125 7 0.006747886339441614 -0.006539460288535804 0.003487171242344414 1.08402963919694 0.005134056542201212 0.4573484505702163 -0.04139679704827328 0.4592468384011065
5126 7 0.009919803592638604 0.001072667451259892 0.00051419864220469 1.084024299047285 -0.08871305095767058 -0.04144553243400417 -0.00287606852412847 0.09795922283844351
5127 7 0.004536636437686222 -0.003960978919339084 0.002984079529240556 1.084020523638044 -0.3286891438942866 0.5360382374528384 -0.08067983172961456 0.6339422533428605
5128 7 0.006522531864364788 0.007227948354960155 0.002974772238783289 1.084031697638914 0.1432953092645174 -0.3910093316618044 -0.06685028007053137 0.4217710315435771
5129 7 0.01086688922854716 -0.003437558935002383 0.0004831399512307885 1.084025647911283 -0.001320789244796133 0.0899867851874895 0.02230706817495792 0.09271985377021885
5130 7 0.00260210789310035 -0.01090065300382656 0.00300417388874539 1.084050073870499 1.077191725128969 0.1672319022184091 -0.4656034182211219 1.185367059127722
5131 7 0.0009263168508110746 0.0048373813084754 0.003474422237741401 1.084015002066601 -0.8177073691614216 -1.798159129286516 0.01030049986516088 1.975380392763583
5132 7 -0.0002558380369208815 -0.01186494888247822 0.000476705828178019 1.084043372859705 -0.5457743399612091 0.1658691201183469 -0.2865677120512037 0.6383598113596982
5133 7 -0.01026816889805519 0.0008931250051164969 0.0005021972764069947 1.083942551620689 0.1803044664325169 -0.3605478912870635 0.05709152996131584 0.4071411614174948
5134 7 -0.003596046498148317 0.008024172793431017 0.000496703183449469 1.084007314493566 -1.466076872290766 -1.217340432832936 -0.1593660509206037 1.912249111141585
5135 7 -0.01163742169638396 -0.00147405361111876 0.0009812164253948331 1.083944286919599 0.1125121358562204 0.2378742162438123 0.07604969328219532 0.2739099839670919
5136 7 0.004817108458295016 0.007566583247061307 0.002977741826050862 1.084034694597828 0.2567911525182509 -0.520317020178131 -0.0313549473517907 0.5810805711965723
5137 7 0.002874033919229402 -0.002384039946513361 0.003492053838908872 1.084010962338495 -0.6700839657863314 0.2544755292902104 -0.1922522430515081 0.742112687649124
5138 7 -0.005357822574827674 -0.004166195750426423 0.000488932541432266 1.083961970212882 -0.8813603660797972 1.50753684626043 0.1421076946197425 1.752043959094433
5139 7 0.005025427689756764 -0.001143987021821082 0.0009763451611669052 1.084016507391242 -0.4742522898085659 0.1556381819025213 0.03633093275437387 0.5004582047777748
5140 7 -0.003349405967533215 0.01121955127607083 0.002965099957871679 1.084028101658095 -1.873197191029056 -0.2905153772971082 -0.6443157740316726 2.002101325505595
5141 7 -0.0054100668173464 0.01109615021976987 0.001018815755216094 1.084009623804739 -1.137961513609865 -0.6070838643082235 -0.07412113744559413 1.291898280739195
5142 7 0.005699706746416705 -0.0108169281348875 0.0009964347928867094 1.084038697305317 0.348588255340449 0.2461826959484923 -0.06923894030168383 0.4323351968089876
5143 7 -0.008984296449643632 0.0034421925193295 0.003006985426766513 1.083946421551035 0.260246532547539 -0.9372331038703836 0.287523869889103 1.014299819801589
5144 7 0.01174478267001129 0.003570205868019682 0.002977208209578149 1.08402583132122 -0.0005897451165591921 -0.09716503803274031 0.01960283278533484 0.09912448470693895
5145 7 -0.005614772230810106 3.301149833417454e-05 0.0004707836003004895 1.08393446822858 -0.2722157961228514 0.2339736059053794 1.077062513017596 1.135301169235258
5146 7 0.002697179926370161 0.004414962025099934 0.0009366625377043632 1.084018313868622 -0.6066646861522011 -0.8504260746509678 -0.1657161748122494 1.057699579495428
5147 7 -0.004200418422349046 -0.009336449765201397 0.0005141520114740618 1.084010281522754 -1.35627260524962 0.891959738664334 -0.1237194131048798 1.627996943586736
5148 7 0.00925749899298357 0.007351611488940004 0.003002845590375127 1.084029924895932 0.1127876338055758 -0.2060466664249422 -0.01016166977013838 0.2351160109750279
5149 7 0.002465600322092189 0.002312856904561644 0.001356469974526131 1.084008708735475 -1.005144297855267 -0.4616816135471126 0.06035287536934807 1.107748816909218
5150 7 -0.01156444138943637 0.003989331365608117 0.001016326776496474 1.083951388360774 -0.1408171653801827 -0.5479215394980622 0.007091735747015661 0.565771844675521
5151 7 -0.004301546278432602 0.007809176929274214 0.003496703183449469 1.08400203407295 -1.721656764598448 -1.471197278083094 -0.1067742586137964 2.267140090164087
5152 7 -0.005396861996079074 0.01101717858870787 0.003018815755216095 1.084010580928165 -1.191952878444316 -0.500870992456211 -0.07395331661753723 1.295026064816649
5153 7 0.005071652741097457 0.003834937737903742 0.003473499115198168 1.08402165502384 -0.320490057181302 -0.6232273138720129 -0.0717423750111712 0.7044665569638081
5154 7 0.01048853160594854 -0.0001955838755301442 0.00350032416646345 1.084024317893757 -0.1297493976637211 0.0002458352573545735 0.02913005221868865 0.132979421608517
5155 7 0.009795792377109952 0.006543647582220463 0.001020312925136194 1.084028711910604 0.07569810499817882 -0.1822347176017458 -0.01088980225004283 0.1976316857003158
5156 7 -0.002435909093754578 -0.008726117994505333 0.003498222009680793 1.084033635099806 -3.702852197556161 1.482423493491904 -0.7005302040172529 4.049621757367432
5157 7 -0.00212087969047913 0.01163800939609937 0.0004763569241898338 1.084032910752359 -1.091986026664395 -0.3093317189588262 -0.1773223436963387 1.148722250310438
5158 7 -0.01020990341109461 0.005688077828900344 0.003001983796410114 1.083958924040633 -0.3062010055179734 -0.8335525759717735 -0.01859788344293582 0.8882087783612331
5159 7 -0.008853558237581931 0.008573709162684681 0.0009972680709155733 1.083978365139471 -0.699177437275788 -0.8225150326980086 -0.05437560418828858 1.080896282785997
5160 7 0.004161505070801174 -0.007821824094502647 0.0005663142828427598 1.084034398615487 0.0585066787854213 0.6574205988798035 -0.1358793180207649 0.6738605674468333
5161 7 -0.007885588421933369 -0.001145662702200401 0.003436154144222008 1.083913993746481 3.229215677864095 1.381366307252341 1.190345801142368 3.70849428950248
5162 7 0.009026103602270581 -0.002533874282375117 0.0009907333408803744 1.084024204059075 -0.1226844693686548 0.1316817225220171 0.02744734963399296 0.182057441684114
5163 7 -0.004063254020407438 0.006009591439994186 0.0005031716744148134 1.083987374622539 -1.207667254786999 -1.428517502331061 0.009589767477226381 1.870618725553448
5164 7 0.00538458352327631 0.01088713382782045 0.00101464529123683 1.084040017336389 0.3238270462391568 -0.2845525674496587 -0.09346882154549567 0.4411015077272728
5165 7 -0.004203777833527265 0.01097116000125909 0.002996797352710788 1.084019333972468 -1.408703946128912 -0.6874434158564543 -0.1680188354466455 1.576469342203776
5166 7 -0.001855962060627077 0.01203089014617881 0.002984418572166631 1.084043825186234 -1.255090282378223 0.5843421717642308 -0.6655188096251436 1.536106336354113
5167 7 0.005763049808661986 -0.003745535066157997 0.0005020825972271893 1.084022369226308 -0.3103816979461971 0.2762095494661907 -0.04291453064929662 0.4176962659363018
5168 7 -0.009006911446109678 -0.002034119791978501 0.00242354788252167 1.083939740367582 0.3280184151770824 0.8483111800994629 0.5452186602485615 1.060420353661822
5169 7 -0.00653762634107314 -0.005845797847650313 0.003561983297215411 1.083969896651688 -0.5033583525899092 1.633991127554716 0.3075046135788733 1.73719766388913
5170 7 0.00225855639375249 0.001744716717854864 0.0009080933697404798 1.084006167416901 -0.9905840520257312 -0.4327781342788986 0.07924208842592965 1.083897128982148
5171 7 -0.008318874334166141 -0.0002271834298334844 0.0009109163519761218 1.083935394480111 0.6683956071045177 0.5392128956416606 0.427603276912812 0.9593475891716496
5172 7 0.007309208563754204 -0.007592200432815841 0.003487171242344414 1.0840315257135 0.1297697883240101 0.2905724063566298 -0.008966708495239596 0.3183597385957894
5173 7 -0.002285442048872971 -0.0115987497291209 0.003507301604725193 1.084040075025997 -1.993735815836769 0.0106758927679195 -0.01137166487170055 1.99379682836508
5174 7 0.01012461676236535 -0.005257298668296044 0.00348784370886865 1.08402703760872 0.04774241946644588 0.1597387074737629 -0.01752228712802058 0.1676389687038645
5175 7 -0.002748724874092323 -0.001436531656230004 0.002485707306767404 1.083941263248464 -2.334006874323328 1.113260039409004 3.22206529412143 4.131421155524489
5176 7 -0.001983909284422389 -0.006245327767243729 0.003523877556210437 1.084009236750475 -1.805181777928216 2.186817834487661 -0.4231352279518013 2.867036259577336
5177 7 -0.00194764398786587 -0.007792768002640897 0.00102209956589123 1.084020114962697 -1.22221956400512 1.386623230722892 -0.2726921264421555 1.868396543146235
5178 7 0.003034702466803558 0.002397050407730911 0.0008656662539021974 1.084011813591709 -0.7371710514211417 -0.4115895053391458 -0.1153776348538074 0.8521379457477133
5179 7 -0.0001091228746401722 -0.001297775463856297 0.003492571291692701 1.083979911355674 -2.617276461878428 0.6814250899863328 0.4049446669031888 2.734676656282983
5180 7 0.007912991637772336 0.006512974469414406 0.0005093927082647207 1.084029381594692 0.0813482673575186 -0.297741418595862 -0.03705638621186956 0.3108708231864641
5181 7 -0.003034563599053007 -0.007664552799382605 0.0009855601175648566 1.084009992935643 -1.460242816891687 1.50501400721906 -0.2330489646124698 2.109902383077541
5182 7 0.001240766795876203 0.004113542230855294 0.003474422237741401 1.08401111144884 -1.146728388128563 -0.9844059195388082 0.007049217769861787 1.511320846820471
5183 7 -0.001533826614657352 0.009752551822689791 0.003486777160558845 1.08405692026145 -7.864652656289352 2.399901912903171 -2.221440329247946 8.517457820972446
5184 7 -0.006182394074510856 0.006955158002493382 0.000499395166421551 1.083981330187859 -0.7857370717773433 -1.318659104807944 0.07822468307432724 1.536998269908005
5185 7 0.004429138492558135 0.001814027816377633 0.0009141168769671462 1.084015422746918 -0.5467631024064514 -0.3202337793833243 -0.008404846527031135 0.6336956722721074
5186 7 -0.005559096632662976 -0.00981959300861157 0.001020109240060565 1.084002941842692 -1.145607663088338 0.8202084208409046 0.008585616268749324 1.408982783483094
5187 7 -0.004343656944482822 0.002854907123746492 0.0004945105834371912 1.083952871413102 -0.8596197853833916 -1.483236246089651 0.8916486237048968 1.932349141664504
5188 7 -0.005318398338671279 -4.221369436709169e-06 0.00347078360030049 1.083888959957356 -0.6010782181333613 0.214902138526051 3.927471407854985 3.979008621877548
5189 7 0.002198460929039438 0.005818207443732923 0.0004882859329187122 1.084023905205322 -0.3121653386753728 -1.12887968314568 -0.2611164305451714 1.199999303328986
5190 7 -0.005048481443352613 0.001964150914960436 0.001486391383149687 1.083937881936701 -0.5773953533855255 -1.375721321036131 0.7348111581093218 1.663112138536232
5191 7 -0.0008749516111440663 -0.009890669213013093 0.0005720303182787963 1.08403896791612 -0.7946956252736366 0.4339799770892462 -0.6149220953687238 1.094535947658231
5192 7 0.009967140012190852 -0.002654275994596483 0.003483139951230789 1.08402472234662 -0.08596905676686811 0.1151354544387477 0.01907300885323643 0.144950444141843
5193 7 -0.01062075456932053 0.004866989213265694 0.001032943171534019 1.083955271321553 -0.1476646493286651 -0.6670712015120711 0.04018318476804705 0.6844001204604064
5194 7 -0.007047122474501801 0.01008360866231908 0.001002844456557806 1.083994978697426 -0.9774177862526626 -0.7402360684527414 -0.04240034865615704 1.226822218370531
5195 7 0.007590900746425402 -0.002206336677844123 0.0005075933896495858 1.084022615237483 -0.2394600144548819 0.1308521195833047 0.03898521441195604 0.2756505444669426
5196 7 -0.01126484406996158 0.003932193348884939 0.003523643075810171 1.083949597361523 -0.1409002726016578 -0.7365051223682432 0.09197029929224175 0.7554807860202579
5197 7 0.009543692645031396 -0.001929654874256099 0.001491057507343824 1.084024234197624 -0.1609306169416606 0.0689495794110631 0.009228132457226552 0.1753221788560538
5198 7 -0.01144484841256434 -0.002387877729035383 0.003013201435703267 1.083945077810066 0.07243620191009285 0.4668064274543662 0.01708427804087909 0.4727019321052605
5199 7 0.007115423558464793 -0.003481628733182445 0.000535793001244682 1.084023608171962 -0.1743572446824786 0.2964999172280383 0.02732181877212448 0.3450494623536111
5200 7 0.009344266099058611 -0.001226469104934921 0.001007917556113035 1.084023853686543 -0.1476214120106056 0.04625661920046383 0.0202455720993693 0.156018073611657
5201 7 0.00643400893805651 0.004001636553208017 0.00297238773246152 1.084023681596767 -0.1705155682742889 -0.4290467380543981 0.0236893730523342 0.4622962782184555
5202 7 -0.009349450886208106 0.003068247948685303 0.0004976853310426649 1.083947460210439 0.05874251093974665 -0.7070336684433438 0.3041641641919524 0.7719217121460876
5203 7 -0.003199054206435221 -0.004109938151719643 0.003485479829192984 1.083967129200398 -2.496879551525032 2.892871538962679 -0.06707562191138311 3.821990629870636
5204 7 0.008802653731626555 -0.002475615029383777 0.003507593389649586 1.084023591982649 -0.2191800590197204 0.1196011679853932 0.05636945071337097 0.2559723669248022
5205 7 0.002850943216058249 -0.001329106430815151 0.002982436186659039 1.084008959453918 -0.8012361727292662 0.1879394409194462 -0.08658561824880201 0.8275250493069582
5206 7 0.00258257655327775 0.001394948617303619 0.00290809336974048 1.084007713489557 -0.8686975893653879 -0.04800296391125235 -0.1234120199272737 0.8787322191521322
5207 7 -0.002823873836810164 -0.000801103131292521 0.002966850860730502 1.083927679855606 -2.267896611978568 0.7827316918985168 3.068571672909433 3.89514519060694
5208 7 -0.009362941066159624 0.001893991794450895 0.003497685331042665 1.083937569626778 1.210813526110882 -1.097063345731942 0.6630568941068434 1.763309905939465
5209 7 0.002045689746753427 0.0009686344702358742 0.00141685642541402 1.084003020517118 -0.9563340996617031 -0.3342262381511526 0.04646033800618449 1.01412062963539
5210 7 -0.003388365761721423 -0.002070684640704167 0.00247772657963178 1.083938890737738 -1.777314118716864 1.701865998739376 3.284103809874626 4.103721626559056
5211 7 0.006258073147770262 0.00411316954044531 0.0009723877324615197 1.084023773997782 -0.1520219563620639 -0.3791294178829111 -0.03365346379449347 0.4098564948195302
5212 7 -0.003632024232082725 -0.01174099061230852 0.002999778253389714 1.084027157215585 -1.370410269334082 0.199669778032176 -0.2195278018375444 1.402171452546141
5213 7 -0.007472207615963126 0.006252717959761187 0.003485561219539678 1.083969330713899 -0.7508751439986151 -1.415953973127142 0.1381357782967476 1.608670453864038
5214 7 -0.009292393786704033 -0.00269615678154805 0.0009873937382996619 1.083946029784741 0.2538280677021207 0.7292784928783039 0.1646468063887489 0.7895469453947985
5215 7 0.01032369259418552 -0.004262801420243495 0.001495009117081474 1.084026176193489 0.01807706188168113 0.1316885128111216 -0.004101013232027767 0.132986701899883
5216 7 -0.006406820210006912 0.0006157267984394665 0.003474762207754114 1.083892984744526 1.248935689371365 -1.140776461979611 2.9235648469908 3.377638628828221
5217 7 -0.01164707876793018 -0.0004391553010635112 0.002994931318382962 1.083941624895514 0.2399958137296103 0.02968039152020028 0.1193620121843465 0.2696779675858342
5218 7 0.002827658538463859 0.001828910221024131 0.0004172896491165465 1.084009272273134 -0.73032008817114 -0.3942749507220198 -0.1024547277210678 0.8362518395708024
5219 7 -0.005574584784764186 0.001408669089092845 0.00347078360030049 1.083898378254464 0.5243062243757 -2.125685953678027 3.91584024531788 4.486339556635717
5220 7 0.0001427132908491877 -0.001515816826811902 0.0004925712916927011 1.083988271167302 -1.711224676539326 0.203583211065555 -0.01586968130976042 1.723365273007947
5221 7 -0.003294889862538385 0.01118537543003722 0.0009650999578716788 1.084024365914235 -1.239662191390843 -0.4685026675073881 -0.04658220741737126 1.326056937040548
5222 7 -0.01116184583666717 0.003367542502964122 0.0004926837006863033 1.083949312607053 -0.1201327221743446 -0.705032386555132 -0.06478027178752453 0.7181218703266938
5223 7 -0.009936274786343546 0.005056383050083778 0.0005093000957238485 1.083957329452401 -0.3287476774790862 -0.8060221474994826 0.140994272422445 0.8818311190718469
5224 7 -0.001840631891555436 -0.01206294224148975 0.002984007432903212 1.08404255157807 -1.117691414209602 -0.2617384516817782 -0.4735764591392566 1.241779278751868
5225 7 -0.0010143883281427 -0.007333733378691294 0.00100335475235323 1.084024862148851 -0.7366939074362453 2.473759973890626 -0.2750184641768904 2.595735247924034
5226 7 -0.004756671533744555 0.000228453491512443 0.00347078360030049 1.083891391467741 -0.9775965275396795 0.05894418889088403 3.921144615384914 4.041601722439229
5227 7 0.00456870913501847 -0.000682428331590099 0.0004903823477501665 1.084014944904316 -0.4651537324405484 0.1442154309729202 0.04394091198176014 0.4889753460859425
5228 7 0.008553044163826958 0.0001681574761340059 0.003474896871125994 1.084022266649854 -0.2235599664007319 0.007744294656039168 0.04989091507539923 0.2291901744924434
5229 7 0.008468427728916645 0.007421973587385429 0.001486226432060179 1.084030566959081 0.1411557059611847 -0.2230187393531888 -0.008393338961180174 0.264069573345744
5230 7 -0.009604914779601985 -0.001222395128850155 0.001426833804047869 1.083940940628143 0.5182724567164559 0.2926994632648509 0.1985455357601159 0.6274548947587499
5231 7 0.006791911545977348 0.000774534160963 0.003480300378460846 1.084019841806654 -0.2080325374116092 -0.03843207857175975 0.01118146655115007 0.2118480268482409
5232 7 -0.01158609722504384 -0.003970258527578058 0.003001537008858362 1.083950533666308 -0.08222649171123285 0.5916652807132939 0.09374643400420085 0.6046630418912523
5233 7 0.002956261040628239 -0.01114014560604074 0.00100417388874539 1.084044756395036 0.1903761923133143 0.04533880370424885 -0.226196234592946 0.299104393590391
5234 7 0.006368412409155885 -0.007355511241729102 0.002480280564485621 1.084031654128083 0.05385379520206277 0.3832492503373427 -0.03262016543169895 0.3883867844489464
5235 7 0.00434806917425469 -0.0001946424050313224 0.003490382347750167 1.084014859852079 -0.4877921259648319 0.0007274421493910062 -0.08452343736490454 0.4950615101069261
5236 7 -0.01027598571089975 -0.001111575748330971 0.000990679659825861 1.083942556416742 0.2165897077968766 0.2730656610772593 0.05304610630947597 0.3525476509320311
5237 7 -0.002301724253918647 0.01150839795237621 0.003476356924189834 1.084042039267371 -2.365614794579955 0.2830493045028946 -0.1189850548309219 2.385457546968349
5238 7 0.005131384924964474 -0.003809108507708254 0.003502082597227189 1.084021414359587 -0.3184921397826763 0.5408733730194719 -0.0756055378443472 0.6322162969249857
5239 7 0.000424128559294729 -0.008371483012634139 0.0004794771961427927 1.084038128510501 -0.2805086404111026 0.971726336364558 -0.9534302388658844 1.389951938202767
5240 7 -0.01065845122396874 0.004856297715139072 0.003032943171534019 1.083954465513397 -0.1542201310715565 -0.7599228883314156 0.09348971168114922 0.7810294304492716
5241 7 -0.0008284665980866361 -0.004473984150688644 0.0004935670532922815 1.083998274879787 -1.367347231339241 1.33242205067638 0.05559768226654974 1.909994260319426
5242 7 0.01143117599345503 -0.003121404378790997 0.0009530324211444775 1.084025501439062 -0.02537802301897153 0.07217693480059544 0.006924185741868122 0.07682121007735261
5243 7 -0.001486303667429885 0.00283765172481276 0.003468079990655487 1.083973165329023 -2.080151827165287 -2.256121027565467 0.3416420249247652 3.087690559022525
5244 7 0.009229994958030594 0.007310238573072293 0.001002845590375127 1.084029855775181 0.101700768406486 -0.1989689994895014 0.002360243456515239 0.2234665071134753
5245 7 -0.006314276866104407 0.008367770296024483 0.000499395166421551 1.083990048599255 -0.9116777019352071 -0.9520187186565711 0.03179393998112443 1.318524450853257
5246 7 0.008334382865442079 -0.004315483582708285 0.001023636710113332 1.084025636206693 -0.07829722916959127 0.2241240537813997 0.02603994921952972 0.238830748720509
5247 7 -0.008635374540444453 0.002957016002522299 0.003497685331042665 1.083939710158963 1.412766082436602 -1.827039499672365 0.9403146598492627 2.493626474950438
5248 7 0.004217099733752371 0.001278865195212529 0.0004172896491165465 1.084014110201863 -0.4877147444461735 -0.17097158254173 0.1030021996235445 0.5269785641886284
5249 7 0.01068342254739817 -0.00498849755915127 0.003011869165850686 1.084026687060906 0.01694741622596913 0.1398258727382437 0.005366174731907696 0.1409513584006948
5250 7 -0.01024323465314349 -0.005242414987721742 0.0004907098937988948 1.083958181690228 -0.3240444651997333 0.7049323945655599 0.1561228818567608 0.7913967719000221
5251 7 0.004707983928991397 -0.008456528329904104 0.0005663142828427598 1.084035921885931 0.2229594628932153 0.3953581752483379 -0.1380175128882588 0.4744131561130943
5252 7 0.003396693018350745 -0.01112431982509913 0.002511528933688722 1.084045965774884 0.3603143848898763 0.07003226161801263 -0.3232724955896228 0.4891176545890021
5253 7 -0.001953186557595466 0.01000920210408089 0.003486777160558845 1.084044767835774 -2.364880436197618 -0.05732819480695536 -1.282342600174191 2.69078957624924
5254 7 0.002530490560424815 0.003835979603110152 0.000448376604785651 1.084014442277679 -0.5903964272018758 -0.8093053160875303 -0.1402266868663433 1.011536731715556
5255 7 0.0004979736007387212 0.007930534952791213 0.0004867414926955115 1.084036201404444 -0.4679114255928058 -1.132986585991899 -0.9935489660872843 1.577890761190705
5256 7 0.003045961917633503 0.0003502099899331924 0.0004172896491165465 1.084008428961225 -0.7816974277894227 -0.01972149036311259 -0.1028588071892806 0.788682280776704
5257 7 -0.01195137193646947 -0.002004795447302828 0.002505935477679234 1.083944777401639 0.1452483161404821 0.3140954671612892 0.1030957722720494 0.3610841648331926
5258 7 -0.002215908235067972 -0.005790431663655434 0.001009357385403422 1.083999534296737 -1.961620884250045 1.461489032785067 -0.2145361336161287 2.455592075061312
5259 7 0.006699805329041863 0.003671109435184535 0.0004988886172633515 1.084023489584689 -0.2515726420442697 -0.2552795453738142 0.0478334189437303 0.3615860568097751
5260 7 -0.008725113325385942 -0.005066880063710027 0.003490709893798895 1.083957616469493 -0.2735367196163059 1.263617386366979 0.1130530778346618 1.297818259432058
5261 7 0.00265010550549937 -0.008601501877535046 0.001003518555904883 1.084039526370638 0.06553127318024568 0.6064758947890431 -0.3330633118841492 0.6950097326282795
5262 7 -0.003857897901423103 0.01151294946271965 0.002473154276900621 1.084022919303782 -1.125641637558363 -0.5083851456982937 -0.3299326705749443 1.278428769890784
5263 7 0.005436211285008387 0.000453731961369773 0.0004803003784608457 1.084017318486085 -0.5561910207945777 -0.08459661145275367 0.06079175158324747 0.5658627707689929
5264 7 0.003864310758511603 -0.00299290632179593 0.0004819969320133665 1.084016062572142 -0.6571572863981434 0.3083303941275319 -0.1036464024877731 0.7332570543524748
5265 7 0.008431805202286334 -0.00364972382318547 0.003535793001244682 1.084024536864536 -0.1905164890509775 0.2890954191611194 0.06636777232379436 0.3525299635257655
5266 7 0.002546822971387297 -0.003147104374963941 0.00151791579228504 1.084011430977116 -0.6267416212200962 0.6209471346326452 -0.01061749721198266 0.8823225799134541
5267 7 0.0008704348563853948 -0.001455314226172368 0.002493388186275113 1.083994023756097 -1.489206668565322 0.1489878684762938 0.1748833008711711 1.506823830305365
5268 7 -0.001729633602182391 0.01219467743593558 0.0009844185721666311 1.084037134993935 -1.13708423139294 -0.3449622079983342 -0.2041070874890253 1.205661302934125
5269 7 0.000192889668571591 -0.01230000070874866 0.0009834835357633094 1.084045673538506 -0.4042228645322339 0.09414174935794165 -0.2110876623589265 0.4656359032366107
5270 7 0.008209869726513034 -0.008697049218994985 0.003491916785255549 1.084032320300509 0.2121579990566062 0.2342054870546424 -0.01101207844845876 0.3162032457169917
5271 7 0.001621486171184113 -9.871865587902593e-05 0.00050876305567354 1.083999300258761 -1.279888236024959 -0.09340312004575417 -0.001212095320566364 1.283292448635317
5272 7 -0.00855340243332565 -0.005648090652254948 0.002991966703941269 1.083962670565483 -0.2820283209359967 1.309235141738698 0.1268432283633397 1.345260508137796
5273 7 -0.005074474204201886 0.00210219596953174 0.002486391383149687 1.08392621653014 -0.4871685142165189 -1.608067507504843 3.595066188575969 3.968339094656468
5274 7 -0.007896373527729206 0.001471031629323784 0.002972447538796778 1.083922427571405 2.817783407377656 0.5859817643929559 1.362303825076918 3.184203145358838
5275 7 0.005881173573823151 -0.0005675297821927169 0.002966263191877584 1.08401862818825 -0.2863836591585623 0.03711163976191509 0.04664694619357966 0.2925214720803457
5276 7 0.008441711884464142 0.003834710806708592 0.002990260252809102 1.084024887745754 -0.09761506508606498 -0.2903198155684156 0.02035661170579137 0.3069669165945671
5277 7 -0.007537472591072384 -0.001337192198602613 0.0004361541442220083 1.08393890326739 0.1192695561139041 0.5957236106311824 0.3000469223753831 0.6775987034417934
5278 7 0.007707260872518467 0.007072703739616121 0.0009927735499497723 1.08403051726497 0.07768829727537567 -0.2769519654564813 -0.0285531420649306 0.2890556081890391
5279 7 -0.007166921291575066 0.007512754250771643 0.003499395166421551 1.083980040037124 -0.6818729166507443 -1.129851774048887 0.09739103445108004 1.323253837846187
5280 7 -0.006245257740582084 0.003507859951526293 0.0005210971994120068 1.083950919412256 -0.5983825983410909 -1.4807596917111 0.7339132308419996 1.757651737119368
5281 7 0.003443561078610325 0.009185760532223971 0.002985412431622735 1.084043868636999 0.6938374193039462 -0.3111876429059382 -0.3511444384479698 0.8375861329897085
5282 7 -0.005848625306764302 -0.008369332576903633 0.0005141520114740618 1.083993398793146 -0.8904451879425236 1.035754922327335 -0.06840314837181162 1.36761101288432
5283 7 -0.0121097386544636 1.574442436496043e-05 0.001500116368927886 1.083943156332758 0.2558734494404655 0.0003549139026372503 0.0377678543485153 0.258646010822768
5284 7 0.002799416058988847 -0.004469369729266485 0.002526046125315255 1.084018481806938 -0.6940778630349081 0.9138827147974229 -0.02108813700816017 1.14776757485263
5285 7 0.005451577932427435 -0.01109588785470774 0.002996434792886709 1.08404073382218 0.4076650886821843 0.1292462796736328 -0.08113582285675308 0.4352912210122902
5286 7 0.006303527558785544 0.007672424214549202 0.0009747722387832892 1.084032505896546 0.1334957714971534 -0.3723961816385096 0.006104670254571429 0.395647954759631
5287 7 -0.007215548021843118 -0.00178094654136824 0.0009059557059031016 1.08393811544154 0.3948451689580812 0.2288483102886573 0.6487972644908429 0.7932289373077044
5288 7 0.005640430549788177 0.01021823972151313 0.0004913511061056695 1.084038237777581 0.2852508807411365 -0.2496165548898522 -0.06773069029662893 0.3850505627144707
5289 7 0.0002822125808947931 0.006503520061765306 0.003547510077209633 1.084034542209637 -1.534409638191953 -4.195688928285476 -0.6292240010856538 4.511556423703013
5290 7 -0.006307058080928823 0.005280812584245132 0.0009807155233448283 1.083967291640904 -0.561653268408882 -1.521008112086896 0.2062706404043625 1.634462495146753
5291 7 0.01101441470732666 -0.003987164744548848 0.001007165408212824 1.084025948797732 -0.004437964306088177 0.1136641026713746 0.007610280983003965 0.1140050005039742
5292 7 -0.004526727698303726 0.001498369218085697 0.003494510583437191 1.083900231782234 -1.272308568472347 -1.852164573691252 3.205819393393733 3.914915156744066
5293 7 0.007058063774993351 0.00995449511705826 0.00101464527792764 1.084035745345619 0.2684759506469481 -0.267711798748052 -0.04500839297473431 0.3818045294425776
5294 7 0.005383821303387012 -0.008451339707946077 0.001076956543475806 1.084035197378604 0.3186931512036522 0.4113551392535119 -0.1005776822620153 0.5299945710887886
5295 7 0.0030762829707562 0.0009229136203157699 0.003417289649116547 1.084010455058554 -0.8638740159863693 -0.06085149222264175 -0.1213840928667902 0.8744800269893153
5296 7 0.01115566052584853 0.001609806134596915 0.0008337488330213208 1.084024980442094 -0.03357678454409117 -0.05923677087630505 0.01484517011040043 0.06969056291764983
5297 7 -0.001230158093442179 -0.001660606647196334 0.001502784684526874 1.083971913607245 -2.008675120300561 0.8709252787834786 0.3036946758317104 2.210320573190025
5298 7 -0.0009059348869416732 -0.006314712177823122 0.001008576661457806 1.084015017621658 -1.121955645331156 1.369057655717965 -0.2808091460090434 1.792193379982402
5299 7 -0.004186364161378106 -0.001525259120469349 0.003475493913933231 1.083905722912882 -1.727186494787978 2.648939679276769 3.648740745440915 4.828391413262353
5300 7 -0.006917120991653477 -0.006169463964952938 0.003063240107357785 1.083971852056407 -0.776000976028232 1.39517723267158 0.1263422434836367 1.601455396772066
5301 7 0.005782530445113807 0.00501427424969972 0.003473499115198168 1.084025988532316 -0.07743641821483319 -0.4592255826289183 -0.03861873044237499 0.467307116303393
5302 7 0.003211548806532219 -0.0008315262692713375 0.003490382347750167 1.084010779176702 -0.8674189675111913 0.01173448073970268 -0.1675133448358755 0.8835236748013686
5303 7 0.003650228048204371 0.007539537177993065 0.0004863504289526245 1.084033902740289 0.08818197055228981 -0.8090030551753714 -0.08487616756864989 0.818208999605059
5304 7 0.004443868582131837 0.008037457041203183 0.003486350428952624 1.084037586590777 0.3364146363208614 -0.9010601228661831 -0.2061337259951002 0.9836540375269861
5305 7 -0.004914079527991421 0.004968544384439461 0.00049515430380515 1.083971601088093 -1.251931591454386 -1.539726279532223 0.1656434271891555 1.99136321913774
5306 7 -0.007419980546611229 0.007492822136711508 0.000499395166421551 1.08397900627162 -0.6799363863378595 -1.086015313533492 -0.09037980752630977 1.284488715522223
5307 7 -0.01012088678052487 0.005664036786421337 0.001001983796410115 1.083959568352412 -0.3314447853198155 -0.8482930543335523 0.1206291424298682 0.9186991573685105
5308 7 0.001907337198932577 -0.01209816574159811 0.003000820467835794 1.084051948788967 0.290258310441397 -0.4350881101396321 -0.515623491217145 0.734451587962153
5309 7 -0.007522806550311212 -0.007022586967029032 0.000501256810142374 1.083976030558654 -0.7269485493992726 1.09330808901613 0.04206971687573117 1.313600636441613
5310 7 -0.009413786495150143 -0.0006350711897469644 0.000938351420629003 1.083940164678627 0.4618837848454994 0.2006553472214093 0.2475061283836507 0.5611225201853978
5311 7 -0.003140756113246682 0.009387382542242952 0.000488743033681845 1.08401885847195 -1.326737799387169 -0.7272927642881057 -0.1693073892211307 1.522449652813983
5312 7 -0.004088514724439267 -0.002060256115766684 0.002958870133594878 1.083923253374815 -1.301975763955089 1.622365569085372 3.103249090393359 3.735955814340869
5313 7 0.008583411100595611 0.008078928759668629 0.0009768337237954581 1.084031297898181 0.1404715392388437 -0.2177687543299992 -0.01082846813422882 0.2593698891943773
5314 7 0.009826292673050064 -0.007349549007083866 0.001014562073425484 1.084029328130557 0.1011798924133142 0.1726844365516619 -0.01639528566722999 0.2008135718721343
5315 7 -0.002535297557533235 0.00730294584871798 0.0004849179433211965 1.084011620937675 -1.389025985386769 -1.307161941178193 -0.4258656887171133 1.954335465924652
5316 7 0.00796186794710866 0.006997107412564584 0.002992773549949772 1.084030284996677 0.07235058122137505 -0.2776597420919363 0.02712268828154979 0.288210303773563
5317 7 0.0008953652929537274 -0.007031363720124945 0.000484699105247369 1.08402868186444 -0.260999013814334 1.029575959009751 -0.1475965642613205 1.072348770859858
5318 7 -0.003334434956771058 -0.002653692722799292 0.003002232665698549 1.083942009227727 -2.487284776806613 5.033988833295257 1.563132027413441 5.828465567351403
5319 7 0.001019115656468354 -0.003593632722944326 0.003543865021362802 1.084004655819535 -1.439463701614436 1.379352535154272 -0.3137209746305141 2.018189786522856
5320 7 -0.0121097386544636 1.574442436496043e-05 0.002500116368927886 1.083942643496917 0.2554143781680543 -0.002062336211345112 0.1356371655355856 0.2892026944552044
5321 7 -0.01115403905644536 9.850951517384053e-05 0.003502197276406995 1.083940684471625 0.2090413944132537 -0.04138278638741033 0.08080262676843494 0.2279032779055679
5322 7 -0.001472538893588065 0.01020086356126308 0.0004867771605588453 1.084035430166767 -1.075175322495745 -0.3440069509739991 -0.563398230777284 1.261649841622163
5323 7 0.005380461682990312 -0.007749024170880966 0.001559423604983966 1.084033576673544 0.342677659696665 0.4898536571388464 -0.07410115346151105 0.6023915377989737
5324 7 0.009765653922213173 0.00660914760820122 0.003020312925136194 1.084028793603491 0.0764064951065816 -0.1884841799504102 0.01240344271537284 0.2037598684168308
5325 7 -0.01161669894297879 0.0005534092406023123 0.003007382326951919 1.083941703073029 0.2265883635766976 -0.07263689947918352 0.09953709971609184 0.2579264234121931
5326 7 0.0038262829707562 0.0009804895573885374 0.003417289649116547 1.084013349844179 -0.4445700800115224 -0.05251864087808768 -0.1385299994969769 0.4686057238679073
5327 7 0.002240933092224921 0.001858615947463244 0.003490803720623934 1.084007462032291 -0.7484699684469354 -0.3681033079553974 -0.2919645351877178 0.8837141103332247
5328 7 -0.002836999148391029 -0.006594793699359254 0.001011215664094502 1.084002515369465 -1.449953031350435 1.310488875580361 -0.2579062474316348 1.971360068228648
5329 7 0.005655391178254876 0.0001383772897580715 0.003480300378460846 1.084018081916696 -0.2568727124654581 0.0007274443115535912 0.03118464054306071 0.2587597368030587
5330 7 0.002746049235469867 0.008334424885983162 0.001495259388772364 1.084039758464832 0.2746647542722692 -0.9327837476166955 -0.1817890415005146 0.9892287413267817
5331 7 -0.00106964191565176 0.00538260442701353 0.003500851209436649 1.084006875485817 -1.171219187617516 -2.227104662414185 -0.2083099608797127 2.524904473953844
5332 7 0.01011877683441748 -0.005236696679350812 0.0004878437088686505 1.084027021566738 0.04415545732128862 0.1564384758466567 0.01710229772081904 0.16344781957496
5333 7 -0.004019375327923829 -0.007028641715749302 0.003487338107884064 1.083998311835389 -1.620348053086075 1.747052984576278 -0.125895642322853 2.386120629141074
5334 7 -0.01149791931056529 -0.00242316056618231 0.001013201435703267 1.083946084331667 0.06979907508816632 0.4912975913797411 0.1339685581853426 0.5139968956724915
5335 7 -0.005777342352933142 0.001952521825098327 0.002991880799712496 1.083914115814676 0.1882650944596329 -1.314423385276227 3.264170093705696 3.523912453821116
5336 7 -0.004594768953257709 -0.007831272710370773 0.001001490119358126 1.083998447265355 -1.273609861290087 1.160436079245131 0.01780835170176961 1.723081864038822
5337 7 0.01030027161255599 -0.005849448105629761 0.0009792237388680917 1.084027519081298 0.04279138521542396 0.1669814259409233 0.01171344966529343 0.172774720838959
5338 7 0.003126708967647548 0.002701386325048806 0.003448376604785651 1.084013544689402 -0.5939604656333908 -0.2135916708471451 0.06468631013803591 0.6345035502737425
5339 7 -0.003857897901423103 0.01151294946271965 0.001473154276900621 1.084021621882636 -1.110461587124796 -0.508439683183716 -0.1059850471824765 1.225915444939802
5340 7 0.003309637975475575 0.008902720605214203 0.0009854124316227351 1.08404055237159 0.4363250952727257 -0.6913800592748149 -0.28621618779805 0.8662018709776886
5341 7 0.002410358670871976 -0.00522877263208037 0.003500184171939087 1.084022806185102 -0.4986806262273515 1.378979791314632 -0.2890262631167725 1.4945915203158
5342 7 -0.01080536656350185 0.005474642949603252 0.001525626872220285 1.083957510221565 -0.1520711533967126 -0.7134071089093947 0.01927204385828427 0.7296894890378668
5343 7 0.01210352679040767 0.001107172269849563 0.001946025042517321 1.084024996418165 -0.03024294212267174 -0.01610046160744215 -0.001562235465611249 0.03429724466860282
5344 7 -0.01007036152123966 -0.005181310779661106 0.003490709893798895 1.083956915998885 -0.3328811137186932 0.8808863043553157 0.002456179799949147 0.941688138340169
5345 7 0.006602400302596611 -0.009154657253071958 0.0005106422606330468 1.084034696287131 0.2461114145531917 0.2432843344320974 -0.01185408773841208 0.3462637941650145
5346 7 0.000247688034082779 0.01204271595081201 0.003510920252056628 1.084055410280354 -0.507114422986502 0.4371697699384805 -0.7328448343891352 0.9926449501407015
5347 7 0.001800822252775068 0.007834450777902492 0.0005098469571496295 1.084035807308868 -0.0420854765797184 -1.054613068025294 -0.3557499550313524 1.11379438905638
5348 7 -0.003756396327556077 -0.002934400053294492 0.000483376219661647 1.083958713409205 -1.387663450557155 1.51127110061437 0.6315694917868908 2.146725463239375
5349 7 -0.0106659549884763 -0.004967560699518475 0.002967527850372857 1.083955186039555 -0.1860060106192948 0.7789896660599943 0.1056755597907134 0.80783071231035
5350 7 -0.005726089617497257 0.002843181063419502 0.0005210971994120068 1.083947045254462 -0.6247460765022714 -1.448477368450254 0.7391041900985839 1.742030238210244
5351 7 0.001864821753789402 -0.007474451911508947 0.003687459334259444 1.084043531119926 0.6898492165548172 1.747367353029117 -0.6616116258706537 1.991711462913363
5352 7 0.006732746567099056 -0.009316882319843791 0.003510642260633047 1.084035410890619 0.3504552507776079 0.2726950652286898 -0.08197049181601027 0.4515535881002763
5353 7 0.002345053122350711 -0.003158461553793853 0.00251791579228504 1.084010784009952 -0.6265756500713869 0.6210713498607299 -0.00912753607332191 0.8822754551697446
5354 7 -0.007023230759889658 -0.002594191202250225 0.003469801561681093 1.083924664040083 1.820429003383973 4.195650162362967 2.442674811082609 5.184988165270526
5355 7 0.00235442164628124 0.007160450127193798 0.0005098469571496295 1.084032404515863 -0.2065147614776066 -0.8618168317976248 -0.3485320694199378 0.9522873524792781
5356 7 0.01152642691066156 0.002114991862513385 0.001303218623700881 1.084025189853699 -0.03361174275785182 -0.05932495829387532 0.01480007274335447 0.06977278897248292
5357 7 -0.002606268003590776 -0.006100008298801052 0.001009357385403422 1.083999247341708 -1.116987738720683 2.152149919735798 -0.2564658441247234 2.438275131045254
5358 7 0.00895041373590115 -0.004403228433876317 0.0004878437088686505 1.084026035868563 -0.04859807748661036 0.2272262119049076 0.01025042161598296 0.2325910480980598
5359 7 0.01017077738534683 0.001083836578917106 0.00351419864220469 1.084024233905713 -0.1045090349555478 -0.03888758370126238 0.0240379431717744 0.1140710535823706
5360 7 0.01202711602901597 -0.000876689523715873 0.00191964430225104 1.084024864221498 -0.04870411409400395 0.01217814758998116 -0.007202357211963488 0.05071757050385833
5361 7 0.002592304480876766 -0.003806834195632241 0.003025861953376168 1.084014505531513 -0.6686655660430296 0.764657761298843 -0.08415093387035784 1.019262729033813
5362 7 0.009531529417472775 0.003114267821157217 0.0004913716355457505 1.084025251437621 -0.0652673860146377 -0.1491218919432702 0.01437817004997399 0.1634132862037541
5363 7 0.008748874620686097 -0.001352453353167087 0.0005075933896495858 1.084023343791933 -0.1811385149357539 0.04188751410447199 -0.001037445496823897 0.1859214934431777
5364 7 0.001407749313633053 -0.001180461953786266 0.003000816894582412 1.083998755436541 -1.781660859026185 0.003604670673080405 -0.01713204142033472 1.781746872336195
5365 7 -0.001703620520865699 -0.006748818283357388 0.003523877556210437 1.084022456694075 -3.139899815071712 4.183425518584724 -0.8346884700984006 5.296859896235547
5366 7 0.01122792870338873 0.001673919433482301 0.003126474851700691 1.084024925048373 -0.03214153988422015 -0.05342977968744071 -0.003411827922438705 0.06244566048453406
5367 7 0.002312580828550801 -0.007219829041439479 0.000493387427409996 1.084032247153034 -0.2121513653446174 1.0359023835478 -0.2883069318559007 1.096003119071183
5368 7 -0.01195137193646947 -0.002004795447302828 0.001505935477679234 1.08394520455438 0.1429652839690808 0.3097505029121165 0.04259128905414615 0.3438000354536963
5369 7 -0.01178736388586513 0.003643749162407324 0.003016326776496474 1.083948688909531 -0.003863904324170663 -0.6041191015457382 0.1817940094467221 0.6308913380922037
5370 7 0.0002459516088545344 -0.01206762320879458 0.003506777707585291 1.084055073469944 -0.2815022825027857 -0.362930010644057 -0.681214180825959 0.8215926532283233
5371 7 -0.01080536656350185 0.005474642949603252 0.002525626872220285 1.083957251033729 -0.1506408550868363 -0.7106066301283781 0.0692659799071122 0.7296932410103544
5372 7 0.01157870147223452 -0.003671010188337463 0.002477057878126513 1.084025779889974 -0.02589128411272971 0.09591865321552312 0.01220523799933254 0.1000985237768581
5373 7 -0.008699816076567437 0.004946563575126477 0.003509300095723848 1.083956057014212 -0.3122592077419972 -1.515052961990316 0.3480828709571512 1.585576543566744
5374 7 0.0009359134523784065 0.002363922562130485 0.003490803720623934 1.083997755813217 -1.505485773968005 -0.7573482032463799 0.1026683818173692 1.688373333479761
5375 7 -0.01076785924717986 -0.005029908853724697 0.0009675278503728563 1.083956290011125 -0.2002027176321284 0.640017873379138 0.05880904927155667 0.6731734625401304
5376 7 0.002316755743332006 -0.004760408618183707 0.003044049193301889 1.084018654685575 -0.4580299885985696 1.089164064566105 -0.1385389894896084 1.189648217586429
5377 7 0.009482148912070013 -0.003112233515705077 0.0004831399512307885 1.084024985237552 -0.1061772793605194 0.1093641667709915 0.01243046428034594 0.1529334890340895
5378 7 -0.01008485742644791 -0.000524251809227781 0.0005021972764069947 1.083941780467226 0.173218301582296 0.1781669812437688 0.1114748214515761 0.2723503057208372
5379 7 -0.0009980281401216842 -0.007920250017422782 0.0004794771961427927 1.084028940926463 -1.206511969756153 1.388091083426868 -0.9328276546132303 2.062191897536519
5380 7 -0.008043722836481575 0.006303058516264853 0.0004855612195396782 1.083968819352273 -0.5752959145797585 -0.9338696253322035 0.1570955394647318 1.108041910294907
5381 7 0.0014891703090652 0.009572622427834637 0.00349906200267011 1.084072443563542 4.262125073311135 0.8184029429306318 -0.877451187601852 4.427800142753608
5382 7 0.003880694640597254 -0.00400680069457553 0.003481996932013366 1.084019676425364 -0.3113385429576391 0.5442639015190956 -0.08626509749466627 0.6329269704109138
5383 7 0.001259366384896237 0.001072668616593631 0.002999566776297474 1.083997927642867 -1.794805276578602 -0.157569827794915 0.0516843275686847 1.802449860934261
5384 7 -0.009743585948265836 -0.002282496618927982 0.003488482383418866 1.083940869798798 0.6256719007646562 1.107267005932123 0.2777696293867046 1.301791656465032
5385 7 -0.006948799091383713 0.005726855032929795 0.003485561219539678 1.083966460063387 -0.4197173131902367 -1.705161540651843 0.1269322851895467 1.760639175905512
5386 7 0.007284050158224151 -0.009217783577792385 0.001002559045888596 1.084033924980526 0.2094338557730784 0.2364864100750176 -0.0272751553703486 0.3170682831735534
5387 7 0.009634153554247961 0.004510461005746835 0.0004913716355457505 1.08402650484656 -0.0203215686012089 -0.1944071235784587 -0.007022666198518899 0.1955924683851594
5388 7 0.003594900045138195 -0.009990850726717973 0.003510131128494887 1.084045029064243 0.7296021631984402 0.3635369602888846 -0.3157372947581821 0.8741673051202159
5389 7 0.01023951658677934 -0.005840843229993833 0.002979223738868092 1.084027530892734 0.04674165350029641 0.1704826802993848 -0.01267150316005714 0.1772278009973022
5390 7 0.001088881742635251 0.003985616681569394 0.0004744222377414007 1.084008097344271 -1.114787163964821 -0.886888978663233 -0.1725904666980393 1.434959912544629
5391 7 0.005180080544476086 -0.007143860356780895 0.003048781344350919 1.084032302807394 0.2272051923767751 0.591427991103911 0.0291614454477975 0.6342394327103764
5392 7 -0.006962241180839374 0.0004477481625664463 0.003474762207754114 1.083897324244837 1.996645094184278 -0.9246190718107781 2.545952120643943 3.365023664210664
5393 7 0.009820149054179467 0.007175310147509151 0.001513765807246601 1.084029417189477 0.07591243347460136 -0.183957577898933 -0.01164588364157423 0.1993457163529501
5394 7 0.008924847808519884 0.0008649656331512254 0.003474896871125994 1.084022884042534 -0.2616127569021209 -0.05645145022292702 0.05038242061639998 0.2723350677260783
5395 7 -0.003344935181422562 0.005561010111938685 0.003503171674414813 1.083985852435594 -1.600242638629513 -2.442128581073202 0.06518754669221416 2.920448240463492
5396 7 0.01157870147223452 -0.003671010188337463 0.001477057878126513 1.084025802325511 -0.02624744501847777 0.09414794722008947 -0.004687625060128799 0.09785059102764333
5397 7 -0.004015206930894595 0.001772332320454264 0.003494510583437191 1.08390902971062 -2.242518955767518 -2.387214893047604 2.740377432645663 4.270521594128586
5398 7 -0.009124938540827547 -0.002062694156050489 0.00142354788252167 1.083942406488702 0.3067839636342425 0.8063915678331498 0.2053887907328023 0.8868868678553227
5399 7 0.008271389558747186 -7.612021394607082e-06 0.000474896871125994 1.084022595460959 -0.1640019773262891 0.01787695911655203 0.01169631865670977 0.1653875391446007
5400 7 -0.0007135524722418449 0.007398843094920487 0.003684724317412645 1.084047248455755 -4.267003690129318 -6.11691354090772 -2.711635229038272 7.935799731210389
5401 7 0.006485611953060309 -0.00978321455873405 0.0009997220085764236 1.084035810009893 0.2470956471414557 0.2454233014592544 -0.0130056779372977 0.3485082544130391
5402 7 -0.009878862047382878 -0.002551055514599121 0.0004884823834188663 1.08394629288057 0.05618966534031761 0.7057559821157233 0.06712756013213261 0.7111644634769647
5403 7 0.01167501719970464 0.001688046728918071 0.0003195501908166308 1.084025104123421 -0.01424740062520028 -0.05660294469249084 -0.01249197111078805 0.05969029330359248
5404 7 0.01006482790094112 -0.007070614169358849 0.003014562073425484 1.084028886628926 0.09472631756778126 0.1798880870305246 0.01546820561367148 0.2038922864660666
5405 7 0.006537872487445281 -0.003972568258400486 0.003037875598471871 1.084023539376939 -0.1849787813383533 0.3804661457096793 0.01404427990114497 0.4232834503905662
5406 7 -0.000253185487912784 -0.004694287995360882 0.003493567053292282 1.084005810113434 -1.426944208525547 2.24790574846841 0.05826571850275466 2.6632020055179
5407 7 -3.653765978440516e-05 0.008610515268334092 0.0004867414926955115 1.084038243703433 -0.7272631838447109 -0.8191366170803728 -1.017567654185588 1.495105503589156
5408 7 0.006456022989570707 -0.001457314396113053 0.0004859628134167387 1.084020268849906 -0.2636599396897543 0.1627311118428497 0.04254325919200935 0.3127425578035286
5409 7 0.004989767972919204 0.01069650808506957 0.003523294185131161 1.084042275144212 0.6351855098357189 -0.2363968219386076 -0.1384903311346989 0.6917540467143899
5410 7 0.007335055380226767 -0.009339142255654569 0.003002559045888596 1.084034315131357 0.2211758414486374 0.2587369336423552 -0.01689931153060408 0.3408066026375806
5411 7 -0.0117516110022725 -0.003610480412945509 0.001001537008858362 1.083949854127855 -0.1321784943390089 0.5847887787989385 0.001305467726508114 0.5995421373188595
5412 7 -0.0008345920202969103 -0.006821260260302535 0.001008576661457806 1.084019840314408 -1.147095756573095 1.525358680574225 -0.2739817986405341 1.928111460766064
5413 7 0.005733830805387283 0.01084756494083776 0.00301464529123683 1.084040038349499 0.3618247367296331 -0.2223836803297548 -0.005679342903665383 0.4247397983734185
5414 7 -0.008024165744323816 0.002461506609290276 0.0004976853310426649 1.083943605491089 0.1637262164439079 -0.8409049651715104 0.2367180082873777 0.8887985428929772
5415 7 -0.001400691456406521 0.005434801433225741 0.0005008512094366488 1.084002692717012 -1.173713354005546 -1.620752198364821 -0.01114872876384624 2.001140929577025
5416 7 0.003163057158199679 -0.003547762632260108 0.003481996932013366 1.084015820807527 -0.6700869689975043 0.7637335975168219 -0.0849911909999178 1.019572977546891
5417 7 0.004112718385176546 -0.01121238017986594 0.003507355044943333 1.084045258379654 0.7343705204380698 0.1196220114258685 -0.02350375044628131 0.7444205217423101
5418 7 -0.0009384604757051828 -0.002255290619185669 0.003011427737729603 1.083975654305689 -2.164554998895992 1.59392597743342 0.3058181523513896 2.705443236715627
5419 7 -0.004610036115898426 -0.003060705070257528 0.000483376219661647 1.083954232532303 -0.8483055353378209 1.591066865672023 0.652652197384035 1.917569019116233
5420 7 -0.001393822709012587 0.007922587042745611 0.003684724317412645 1.08404713948992 -5.103066635716334 -5.773637553723261 -2.820933159769782 8.205720174501044
5421 7 0.005652737650035891 0.007576150522697516 0.0004913913970982377 1.08403271116254 0.08990332410857943 -0.3867961999479532 -0.01868762433106688 0.3975463938750902
5422 7 -0.004823596409039224 -0.009180899410962305 0.0005141520114740618 1.084004909928697 -1.159532780205986 0.8068564150733887 0.01310902643727704 1.412694372287027
5423 7 0.00302148622238154 0.003461142490303287 0.003448376604785651 1.08401546204781 -0.5939615161840817 -0.7807992235299681 -0.002012045314223662 0.981041160450998
5424 7 0.007947789831723598 0.008721873186834529 0.003006675013507022 1.084032889239312 0.2093298656027959 -0.2544456753403846 -0.04616904839654346 0.3327058390869498
5425 7 -0.008289499670632628 -0.006165089112215459 0.003501256810142374 1.083966479152112 -0.2630360489539593 1.207203833585422 0.1752870541526196 1.247900080225237
5426 7 0.01061682759367365 -0.004959290694570111 0.001011869165850686 1.0840266860997 0.01766656834670723 0.1361127985287943 -0.00235661160477892 0.137274743411688
5427 7 0.01204578358451767 0.002193232456834541 0.0007890199814961905 1.084025313535026 -0.01115867824635932 -0.04783084263370126 -0.007395902116161512 0.04966895383806175
5428 7 0.009820149054179467 0.007175310147509151 0.002513765807246601 1.084029422443374 0.07575394746544491 -0.1831355437397224 0.009954764573632173 0.1984348388644434
5429 7 -0.005844004225429984 -0.006238629461038987 0.0005619832972154113 1.083978156443761 -0.7709236120524546 1.460000626488938 0.01862222193953337 1.651142583824322
5430 7 6.943499618148391e-05 0.006135715126231146 0.003547510077209633 1.084025325617923 -0.745767112159689 -3.027468236721762 -0.497093745920977 3.157346148614676
5431 7 -0.00390443924100396 -0.0007864844209316841 0.003475493913933231 1.083901420869127 -2.730226846693717 1.025074674969613 3.310680062148923 4.411974523677757
5432 7 0.007984510813624918 0.008754326596911652 0.001006675013507022 1.084032740512134 0.1839714158930567 -0.2450938790542477 0.01348817137043184 0.3067546612237088
5433 7 0.001313937464327964 -0.01183949567018372 0.003506777707585291 1.084055168236601 0.2878961560033554 -0.4355140567900474 -0.5144149440565744 0.7329252519677306
5434 7 0.002814825512083901 0.005438227613533082 0.003488285932918712 1.084025560252441 0.07806057980042262 -1.036747860419988 -0.1519070257553264 1.050721335406315
5435 7 0.008521433978756543 0.005816333934932296 0.003509392708264721 1.084028174920837 0.04330222969417378 -0.2716005745354491 0.01224765535388897 0.2753033967210369
5436 7 -0.001710013934252304 0.007446870375829541 0.0004849179433211965 1.084019241174349 -1.283651263606918 -1.296204266738869 -0.4347690138977761 1.875348011201476
5437 7 -0.003235659835767002 0.006145099521547666 0.0005031716744148134 1.083995006784811 -1.443564605059062 -1.450314656703236 0.03906677898136516 2.046660105060812
5438 7 -0.008537632252668011 -0.003264815430533078 0.003498911354880796 1.083942413851789 1.216613249413599 2.027021694374505 0.4615581913936168 2.408734255196316
5439 7 0.01079832237181215 -0.00557204212084906 0.002503249195850127 1.08402718034492 0.01669988773489417 0.1423937562966069 0.006533677305644432 0.1435184901737398
5440 7 0.008528495830598748 0.008699175968081214 0.002500127895617428 1.084032225651125 0.1404086929776408 -0.2178114707380872 -0.006677212151481087 0.2592316011039046
5441 7 0.0103562937367825 -0.0002568734058410185 0.0005003241664634497 1.084024385465894 -0.1126790307375776 -0.006983681425228923 -0.01032629446129619 0.1133665212111162
5442 7 0.009429443766203277 -0.007253234197884949 0.003523182043426043 1.084029467207962 0.1217823807263332 0.1936178836878056 0.001093198531172643 0.2287357169795455
5443 7 -0.002885309385916219 -0.00462390001069249 0.003485479829192984 1.083979126388913 -2.054526124926307 2.335276587248786 0.18165211910787 3.115700856843196
5444 7 0.0002869542308438223 0.009930614872419063 0.0005031635976452445 1.084043963589552 -0.6025656871049592 -0.5264558306075522 -0.7385822386286495 1.088919130181239
5445 7 0.005789058269329492 0.004250645067980639 0.003473499115198168 1.084023874390824 -0.07905703122850163 -0.4768775758397321 -0.03607965948521848 0.4847308308267724
5446 7 -0.002074621849449148 -0.001545538259168775 0.003010213392834173 1.083948490984813 -4.83664828042239 1.676099991288071 1.652707485908089 5.379025915840652
5447 7 0.007531000373294386 -0.00709848525570971 0.0004871712423444145 1.084030264165487 0.06887289978556158 0.327954714688818 -0.02362297393995215 0.3359401972215646
5448 7 0.002538510805716838 0.009644175759319785 0.00349906200267011 1.084053754493983 2.004570466393415 -0.9855427692768979 -1.061082262143261 2.472952258302968
5449 7 -0.005492675021944454 0.00496622402373572 0.00349515430380515 1.08396230838041 -0.3676932279729178 -2.853619791575861 0.4299629746792311 2.909160082285885
5450 7 -0.001577503333152953 0.005312890868064172 0.003500851209436649 1.08400084459635 -2.031309343121628 -2.444731680599394 -0.03304480155920649 3.178682525275157
5451 7 0.004186225692966103 0.00157881915115368 0.002914116876967146 1.084014736574161 -0.505733813322101 -0.3519800972839441 -0.08475059912215246 0.6219641009518896
5452 7 0.007665548098153607 0.007493485052239676 0.003483380841685051 1.084031334727327 0.1266487885121582 -0.3373834564927009 -0.02479312798415326 0.3612232156739074
5453 7 -0.004514746779977827 -0.003245387936193929 0.003483376219661647 1.083936897209897 -2.71712588930495 5.163291086039745 1.638346205243571 6.06024143295832
5454 7 -0.009129144016687865 0.001601304343699273 0.0004976853310426649 1.08394176801019 0.4047937111903701 -0.2918664352686444 0.08273442665227472 0.5058546728154037
5455 7 -0.003807455262061939 0.00217878537918653 0.0004945105834371912 1.083951673063123 -1.347950110876604 -0.8674748716179359 0.9933228287373413 1.885781640697448
5456 7 -0.008480905709686353 -0.002149391081890911 0.000935065499102804 1.083942346347398 0.2673892795211709 0.8107126776412891 0.2254691117084678 0.8829430292073012
5457 7 0.004810880490749137 0.004399191672619185 0.0004734991151981682 1.084022673903166 -0.3888098877764306 -0.4862857823912012 0.03186993389721127 0.6234281704215457
5458 7 0.007706126539885116 -0.001854320232048908 0.003507593389649586 1.084021679887707 -0.261849807035103 0.1120822748988346 0.046028552145976 0.2885244970595624
5459 7 0.002871522416995097 -0.005531833715175709 0.003500184171939087 1.084025570667557 -0.01760216488999457 1.038055714090988 -0.1559416295584291 1.04985108162782
5460 7 0.002703640234031795 -0.005896307954923889 0.000500184171939087 1.084025014798122 -0.2959128831108013 0.8136126446163082 -0.09707810846110281 0.8711797340462388
5461 7 -0.00628755651708759 -0.002534778913429199 0.003469801561681093 1.083917391630506 1.008956752640289 4.190162732102269 2.390101588232433 4.928290073876373
5462 7 -0.0004841244426604262 -0.006497817940933574 0.000484699105247369 1.084018678193235 -1.181815484584606 1.445121711198104 -0.2243595519462115 1.880266419508041
5463 7 0.005445459438364731 -0.004543495554881751 0.0005020825972271893 1.084023796511155 -0.2076469023598254 0.5345681385423421 -0.002256616734088438 0.5734853294752535
5464 7 0.007781821942665879 0.004534910537561531 0.0004988886172633515 1.084025808615198 -0.1272869801094304 -0.2508978798985128 0.009537014603813083 0.2815007568204754
5465 7 0.007634020017980646 -0.004165178707025327 0.000535793001244682 1.084025096122289 -0.1149787597555575 0.2202925570103041 0.01722629208428842 0.2490896846680679
5466 7 -0.009369815636211382 0.003913134934921179 0.003509300095723848 1.083948901897871 0.308751700774978 -0.9746835504545615 0.2545461474111767 1.053626773302588
5467 7 0.008797949245223652 -0.008558672414162631 0.003015098828681592 1.084031525044685 0.1544910040321576 0.2094396547335448 0.0172980230360489 0.2608287961531975
5468 7 -0.006518739077428995 0.007741591524910236 0.003499395166421551 1.083984893153721 -1.072757952018645 -1.286602491221501 0.05831640610015173 1.676173140596475
5469 7 0.006564952995560138 -0.0098240809476437 0.002999722008576424 1.084036299157828 0.3462626411572555 0.2633616318025296 -0.08727492959043891 0.4437049459966674
5470 7 -0.001548344914831448 -0.01029779756150284 0.0005720303182787963 1.084036316671807 -1.019248201092646 0.329470464988221 -0.6380086337069482 1.246784945134788
5471 7 -0.008115135276333896 -0.003481628495567629 0.0004989113548807958 1.083950121601923 -0.2818921640595913 1.229062262829081 0.1838364558763554 1.274304940184225
5472 7 -0.008264890822447288 0.0004621363978731648 0.0004747622077541135 1.083936028411745 0.3254265150451605 -0.2039598541708775 0.8707773490871152 0.9517117370774764
5473 7 0.003852811463076478 0.01159610216579728 0.003016747077487462 1.084046234663057 0.4124150660549324 -0.06878392276034005 -0.1462004256284445 0.4429356377548921
5474 7 0.006984135060822667 0.007594848119531926 0.003483380841685051 1.084032195773304 0.1922515429318996 -0.3311255455059358 -0.02947403314558134 0.3840227874438786
5475 7 -0.000157859648172503 0.01239661263949488 0.003018981900033425 1.084051274056903 -0.4661443321259836 0.4151641163137257 -0.7115048165834752 0.9465151271211785
5476 7 0.002438038736969477 -0.0115661209043193 0.003494042760250503 1.084051962550298 1.171708773519328 -0.2766838260563236 -0.07442563849688083 1.20623155538603
5477 7 0.01079832237181215 -0.00557204212084906 0.001503249195850127 1.08402718361426 0.0173682156549702 0.1429188753769177 -0.005238598153270937 0.1440656196483115
5478 7 -0.006745156895499182 0.005665205375093089 0.0004855612195396782 1.083969097625804 -0.7656763287791354 -1.259700464627588 0.01028958275583653 1.474181595512895
5479 7 -0.001512908880840467 -0.009075821183028685 0.001549729524102381 1.084036059914737 -1.749352556469596 0.7520603902550999 -0.3800937346442247 1.941726150756887
5480 7 -0.01023489488722851 -0.005801818754552365 0.002998793108283816 1.083959656635966 -0.3307505340569015 0.8001535863379652 -0.02144714938848771 0.8660840939108195
5481 7 -0.003260704558562636 -0.005327776553044394 0.003485479829192984 1.083984941008888 -1.922755214424952 2.627952265780777 0.1746973461228692 3.260926231695994
5482 7 2.487700793798764e-05 -0.004347291959419213 0.0004935670532922815 1.084003312838443 -1.034388606886818 1.38121132722249 0.01147800396028646 1.725640827368163
5483 7 0.005022572893991376 0.007062436958818072 0.003491391397098238 1.084032680121223 0.2850192313746567 -0.6552998644375573 0.02180250613491301 0.7149330205404167
5484 7 0.003161496208932824 0.0114052340533575 0.003493452892356301 1.084050029132826 1.132223728378114 -0.1716746782224059 -0.5002250227860745 1.249651087170548
5485 7 0.01155727595177297 0.002185025413083459 0.00259594464238025 1.084025157985445 -0.03339692077480158 -0.0616722714115348 0.0007395956862552337 0.07013822338836018
5486 7 -0.002191259173692549 -0.009431553701020768 0.001070252327959589 1.08403003909512 -1.598246961803681 0.8815515299418116 -0.3387109411917049 1.856408239730803
5487 7 0.008649801817101 0.006230581751895025 0.0005093927082647207 1.084028726009929 -0.007005065853840265 -0.2732903662541575 -0.0248674188825048 0.2745088045160413
5488 7 0.000981566366978456 0.0005643480967032653 0.00350876305567354 1.08399298966213 -1.985332704342502 -0.697511017627628 0.4556632221808676 2.153066775251546
5489 7 -0.0001967738237280836 0.0105213869389385 0.0005031635976452445 1.084043535862023 -0.7839896876948376 -0.3153375329441302 -0.7203644598158967 1.110406477404103
5490 7 0.004802731608352667 -0.007351470095502074 0.00356631428284276 1.084033804713115 0.361774884083476 0.7161733170779471 -0.1307825390212325 0.8129510190416656
5491 7 0.0003555378206415284 0.01045961440828018 0.003503163597645245 1.084073269930466 0.6898324603410756 4.148577224200936 -2.586726703829695 4.937379552840212
5492 7 -0.00864836095556284 -0.002782853707388472 0.0004989113548807958 1.083945969643437 0.2292768924557714 0.7263564033026524 0.17257448709066 0.7809887781700484
5493 7 -0.004998303266616808 -0.008387483554099899 0.0005141520114740618 1.083999088873258 -1.311009472718961 1.106025976916448 -0.02770237031397526 1.715461081019865
5494 7 -0.007568857270419832 -0.006416855553198 0.003501256810142374 1.083970643971281 -0.7561710611878251 1.412544667347925 0.1161516283409686 1.606414738415096
5495 7 0.002937503757613316 0.009420981571493771 0.0004990620026701105 1.08404219913153 0.2717129268928911 -0.5337330648554416 -0.4429129889959172 0.744896512934503
5496 7 -0.006886934846839667 0.002750950684637789 0.003521097199412007 1.083926281718187 1.398059631422457 -4.369109974642767 1.971173472537675 4.992916738978556
5497 7 -0.001303878044938398 -0.001628448793313284 0.002502784684526874 1.083968044009896 -1.994103981324238 0.8859684200273192 0.6509742068650024 2.277094233364619
5498 7 0.005644174023038936 0.00143043969180091 0.002977127606311445 1.084018472787296 -0.274981031981791 -0.0975601269274667 0.05362830215645361 0.2966623351692257
5499 7 0.002580605147533382 -0.009219076249098694 0.0005101311284948868 1.084040875536459 0.07418696710909051 0.6335918327397663 -0.312782832495639 0.7104754864929375
5500 7 -0.009363027545381822 -0.004751707721911009 0.003490709893798895 1.083955053389178 0.06280481868579388 1.089047340174642 0.04838173519418253 1.091929185749707
5501 7 0.009522804984912767 0.004012550985411856 0.003491371635545751 1.084025785832228 -0.05059114988380264 -0.198209263053871 0.01825494550973368 0.2053767743501864
5502 7 0.005836123843049826 -0.004954435564921055 0.003502082597227189 1.084025380894069 -0.1194605847494793 0.4556593500046108 -0.01586394960187865 0.4713257254301774
5503 7 -0.002149770812166989 -0.0009101097342312917 0.003491356946797271 1.083934907591955 -4.873680408229724 1.862081636303157 1.739118361576494 5.499512834551093
5504 7 -0.01030586376042877 -0.005800574808406777 0.0009987931082838159 1.08396013328605 -0.327390164065824 0.8038407474614644 0.1264354738534985 0.8771146993723293
5505 7 0.0005527941084481914 0.00466171001790747 0.0004744222377414007 1.08400942188988 -0.7947092877400878 -1.290493788327281 -0.1344492140863933 1.52151689471399
5506 7 -0.0001747675458072618 -0.002318187226220326 0.0004925712916927011 1.083988342911808 -1.376949822769001 1.048646501625774 0.1185725529344736 1.734851506644
5507 7 -0.0001510689303151063 -0.01240422158644055 0.00298348353576331 1.084051307740422 -0.3730091516659881 -0.4130292615499645 -0.7284733182647356 0.9167346254760556
5508 7 0.006801851737144744 0.008071777389198096 0.0004833808416850515 1.084032906834917 0.1828878609110606 -0.3560805943226113 -0.01856604464823765 0.400731902068762
5509 7 0.003717018782451954 -0.0008080396458898524 0.0004903823477501665 1.084011682590371 -0.8648661364593944 0.08514124221536057 -0.02153497000952819 0.8693136488365323
5510 7 0.007167261808687849 -0.00984634088345448 0.001491638793831973 1.084035038703288 0.2114896958056695 0.2406815269153289 -0.0294624229392606 0.3217507159210694
5511 7 0.003717073392857596 -0.01167348168343942 0.003001397805193835 1.084046115466327 0.3979759047072466 -0.05539269428443554 -0.2135900912247096 0.4550537313076557
5512 7 -0.01014060682216112 -0.001738266661431332 0.003488482383418866 1.083940119720102 0.9128168052992692 0.6111520590340738 0.208423758788512 1.118115299298728
5513 7 0.002734663414507152 0.005142084664160928 0.0004882859329187122 1.084021492459565 -0.5821458669032129 -0.7884449583295812 -0.1886831832999408 0.9980684376975495
5514 7 0.008215398919714515 -0.006495946093795651 0.003487171242344414 1.084029057750614 0.02467440757984609 0.2757970304951934 0.01648715612923609 0.2773889953415831
5515 7 -0.005658018403350886 -0.01043808734063125 0.0005059572285865033 1.084005018793896 -1.234782752634602 0.7346848463076792 -0.1017041657749813 1.440414526077132
5516 7 0.01226206656160833 0.0006049660290890444 0.003112276209496001 1.084024908642325 -0.03046596391019552 -0.02024085163574546 0.01263923148938312 0.03869905947900814
5517 7 0.005603988319707946 -0.00156565602319863 0.0004859628134167387 1.084018549183929 -0.4567495593816696 0.1336623945401175 0.02394466888362115 0.4765072327651423
5518 7 -0.002135462958543905 -0.01003780113431632 0.0005720303182787963 1.084031648682793 -1.364269213254317 0.4434381253025246 -0.553568822629011 1.537630091599485
5519 7 0.005628002824623735 -0.006560681379967246 0.0004824670615081595 1.084029670333687 -0.01631520872591231 0.5228272876873123 -0.03978957560141785 0.5245929556454059
5520 7 -0.00190705624638807 -0.01037553951564857 0.003572030318278796 1.084043390697357 -1.951585553918175 -0.5338287019247051 -0.8934589486249922 2.211770365598292
5521 7 0.00708270112855818 0.003628042751705756 0.003498888617263351 1.084023440310219 -0.213129062864874 -0.4067607291701458 0.002068531553501587 0.459219519462616
5522 7 0.00564030908574091 -0.008472707393154342 0.003076956543475807 1.084035447401447 0.3353899761485493 0.4335585666056792 -0.01044689018531558 0.5482413741160362
5523 7 -0.006048364939528688 -0.004298318755586472 0.003488932541432266 1.083952903294154 -0.172010831658061 2.54359538940644 0.6391706498290685 2.628308267844605
5524 7 -0.007803362157454051 -0.002288229532078876 0.001404867060783897 1.083940109722508 0.7131247541458408 0.8138210063122968 0.4103455237355246 1.157253210900928
5525 7 0.004924410451942494 0.002393560819853565 0.0004968272278505997 1.084018058971797 -0.5411011812129985 -0.3059188926032598 -0.01286147896354182 0.6217252406029827
5526 7 -0.0006852134164458481 0.001244401296569929 0.003472879509169025 1.083971499450534 -2.967662694660296 -0.4854632149184321 0.8876392985879499 3.135378753311162
5527 7 -0.001803533909747786 0.009486985853289496 0.0004867771605588453 1.084030827524271 -1.242364181291225 -0.7143952037837106 -0.6490992183823466 1.573263824490082
5528 7 -0.003889409477364077 -0.0009250735195507529 0.0004754939139332312 1.083943751224614 -1.231655615773497 0.5390906398449803 1.24224767713527 1.830511831478518
5529 7 0.01226811167262432 -0.0006047510688758419 0.003112276209496207 1.084024906125047 -0.02677744297863316 0.01660472639602141 0.01263923146003343 0.03394846923001064
5530 7 0.01184430607709336 -0.001700373611438301 0.0003070439262913835 1.084025073519508 -0.009495036525247452 0.05138403096372984 -0.01367985005050603 0.05401492991851104
5531 7 0.001370060860752497 -7.274449011442103e-05 0.00350876305567354 1.083996901118416 -2.464589610109629 -0.02718066775382691 0.2886756224030366 2.48158706273418
5532 7 0.002080126471979343 -0.002037920809439321 0.0004920538389088719 1.084004949954547 -1.171466342591746 0.3442254746002821 -0.08670144843938894 1.224067690264946
5533 7 0.00990333490127897 0.003744834754844747 0.0004913716355457505 1.084025867894001 -0.04092230896320268 -0.1150206273618449 0.003699036572627675 0.1221395225189531
5534 7 -0.001628246634893316 -0.0005690793442828514 0.000491356946797271 1.08396624662533 -2.011417195905699 0.1530405549809068 0.6598844702172842 2.122420331010791
5535 7 0.002353661765960781 0.005135166530437743 0.003488285932918712 1.084022793573764 -0.5503988639569836 -1.483489700736777 -0.1693031074800496 1.591334076754354
5536 7 0.0001696399989899486 -0.01050750771224732 0.0004909654977707615 1.084044587629251 -0.5361518030264066 0.2244025330614496 -0.7508960198292378 0.9495578367473214
5537 7 0.001509825249137843 0.001888372651826572 0.0004908037206239333 1.084001508946821 -1.316347162208976 -0.4809709903832168 -0.01725996939118403 1.401570851433926
5538 7 -0.005385980635891734 -0.008789019662027966 0.003514152011474062 1.084000104372574 -1.532434957541849 1.048439904597545 -0.1329639711618834 1.861521568576613
5539 7 0.003545682813753979 -0.003792537003017106 0.0004819969320133665 1.08401738934285 -0.4967203785502376 0.7133386452750915 -0.03422217299194188 0.8699162686341052
5540 7 0.008528495830598748 0.008699175968081214 0.001500127895617428 1.084032174119966 0.1404259902272055 -0.2174540327702582 -0.01069584388163802 0.2590755028474906
5541 7 -0.00337348583340786 -0.0005594358620552118 0.003475493913933231 1.083908743378799 -2.802644808565554 1.004234384241956 3.325007084017683 4.46306808487626
5542 7 -0.01083048835446514 -0.005588068674409733 0.002475611064857778 1.083957926676635 -0.1961610843690539 0.6777672441969859 0.06383970311896002 0.7084653245018677
5543 7 -0.005463733427135989 -0.0110566656323904 0.0009984338772510253 1.084009049361874 -1.14699872341179 0.6280199726012391 -0.03827230167067194 1.308235424749502
5544 7 0.007329413980094372 -0.006899747350303739 0.003487171242344414 1.084030210927208 0.125567383672898 0.343828906636024 0.01079633044563449 0.3661994615398442
5545 7 0.01010049435584599 -0.0008610365751401911 0.00350032416646345 1.084024112228885 -0.1093908707713352 0.03240492419184385 0.02132177828853925 0.1160648954222409
5546 7 0.007167261808687849 -0.009846340883454478 0.002491638793831973 1.084035203398567 0.2115505206457384 0.240568372667703 -0.02635608581378881 0.3214364757971528
5547 7 0.001420375849605463 0.01185432110275415 0.003510920252056628 1.084055844236739 0.3478944163210586 0.391239489513466 -0.5929530580497339 0.791007074628703
5548 7 0.002011628717963984 0.01213065043243862 0.003004373144412929 1.084052630861981 0.2062054283127967 0.3814569266279657 -0.5219145846064456 0.6785461658303256
5549 7 -0.004034583919488902 -0.002643264197861808 0.003483376219661647 1.083926371864803 -2.746976592442111 5.110901791313498 1.64111676296982 6.029963660717777
5550 7 -0.005750686024994444 0.004830796882115688 0.00049515430380515 1.08396582335026 -0.5966299976063993 -1.476207115108312 0.2252341411018045 1.608068785549327
5551 7 -0.003330951376275557 -0.006978961941268806 0.0004873381078840642 1.084000893086793 -1.400016030256666 1.436713137139146 -0.179390673739156 2.014043330524055
5552 7 -0.00351030822546866 0.009917617094277771 0.003488743033681845 1.08402428691798 -2.142207967429459 -0.6533263909132611 -0.4038616948074666 2.275740454734406
5553 7 -0.005301779108320029 0.0008312477618520525 0.0004707836003004895 1.083936055467931 -0.5866729444557923 -0.563727962174277 1.273261841104771 1.51101623919371
5554 7 -0.002441596215750397 -0.008176936244550449 0.0004982220096807925 1.084018492680024 -1.34575386427718 1.37517291865376 -0.3256159973501456 1.951455814807498
5555 7 -0.002157601925735207 0.00332065257170633 0.0004680799906554873 1.083976524528958 -1.825931181876135 -1.374408508841387 0.2778214416825591 2.302218100784928
5556 7 0.001637341894910168 -0.001893942403821437 0.003492053838908872 1.084002205994782 -1.910368621663038 0.3316492707446867 -0.1796607722625539 1.947248700733985
5557 7 0.005557608422844381 -0.007729525467179581 0.002559423604983966 1.084033502243732 0.3475264823017035 0.4934568011651139 -0.04163937658704136 0.6049860396733634
5558 7 -0.001456285819504918 -0.002589803249952245 0.003518856446036902 1.083971682845395 -2.039314187972781 1.668010939780231 0.194879415220353 2.641787432586173
5559 7 0.003782531000717356 0.002255877886594814 0.001362493481752797 1.084014408994952 -0.4934941199069757 -0.3802344032990032 -0.03382872488586869 0.6239062673689961
5560 7 0.002330741508107554 -0.0102869209147902 0.003510131128494887 1.084055100488796 1.478781884867751 -1.718920463659467 -1.189887395553114 2.560725568563814
5561 7 -0.00759354457768667 0.0009065064453856994 0.003474762207754114 1.08391046500689 3.260329816992036 -1.448055605579034 2.444568493231384 4.324642259252868
5562 7 0.01175230389193088 -0.001752960762571271 0.003612276209496207 1.084024978216717 -0.0171680265439229 0.03931747444605956 0.01233204993776731 0.04463949358916355
5563 7 0.006047592733378503 -0.008493075492691304 0.0005106422606330468 1.084034146591307 0.1499440790031789 0.3831566388265208 -0.02718008399173966 0.4123481461953558
5564 7 -0.001525408817372803 -0.01180753607473802 0.000476705828178019 1.08403768203187 -1.014741055685807 0.2922662279888531 -0.2202712114891717 1.078720707471626
5565 7 0.007829641102888134 -0.006320014355417179 0.0004871712423444145 1.084028819385289 0.04144260877700563 0.2565659083984784 -0.02104068810281785 0.2607417606184717
5566 7 0.003736132556996653 0.008117569654312784 0.003486350428952624 1.084040418145254 1.028929832842093 -0.8997158433164627 -0.2286468385440164 1.385808275485208
5567 7 0.007124125044878382 -0.003622497813007654 0.003535793001244682 1.084023323840926 -0.1754879310961621 0.385382521062365 0.02021172911182324 0.4239389289679414
5568 7 0.01174728537724484 0.001752160027803456 0.003612276209496001 1.084025018785417 -0.01607449732488585 -0.05114743449687879 0.01376783254995209 0.05535343469906624
5569 7 -0.006654717015154543 0.007598326889888925 0.000499395166421551 1.08398348688229 -0.9598779192381894 -1.092494906822444 -0.006588759501754846 1.454288194625051
5570 7 0.005558660802475418 -0.006588083272404883 0.00348246706150816 1.084030102120172 0.08222332974407844 0.4570304382481593 -0.003889682595781209 0.4643841374015739
5571 7 -0.01083048835446514 -0.005588068674409733 0.001475611064857778 1.083958241606947 -0.1957924856711815 0.676432468500095 0.04246212658563632 0.7054775787228156
5572 7 -0.009683998819417618 -0.004755718899490152 0.0004907098937988948 1.083956368512093 -0.02153572975499677 0.9228121349025343 0.05849855772871037 0.9249151881312107
5573 7 0.002420546968028961 0.01012676591901422 0.00349906200267011 1.084055050224513 1.629957342887815 0.872918060434982 -1.480063359494169 2.368403349935277
5574 7 0.00211554880966725 0.009219173502726217 0.0004990620026701105 1.084042552787672 0.1426456459560592 -0.557454918781651 -0.469725075042103 0.7427956737268923
5575 7 0.003185037111115734 -0.009752774454247892 0.0005101311284948868 1.084041947311287 0.3117780366328718 0.4383203559223597 -0.3181984893235464 0.6249644447089286
5576 7 -0.0007665353016753559 0.001551545879642076 0.0004728795091690252 1.083980335189953 -1.599936876482468 -0.6762439950048332 0.1297781364685641 1.741822698845616
5577 7 0.005991142885864905 -0.001092003360402793 0.003485962813416739 1.084018752159727 -0.2745513053060173 0.02252337087042294 0.05443006352392199 0.2807994894863998
5578 7 0.009457434806788194 -0.004946236353154488 0.00348784370886865 1.084026750480458 -0.02895077163124487 0.2006230646951403 0.007434579839337849 0.2028374576923662
5579 7 -0.003673420256129915 0.009918955603465122 0.000488743033681845 1.084017105591648 -1.276838610795762 -0.7723673537594005 -0.1534370927753357 1.500137029944764
5580 7 -0.0004922953317413414 0.001938696101656756 0.003472879509169025 1.083978885178845 -3.011686590596423 -1.43149989204128 0.9115275400749522 3.456925008907135
5581 7 -0.002718714644851895 -0.005590626427409985 0.0004854798291929843 1.083992882110505 -1.354678719617906 1.551280888769213 0.09370319611319122 2.061651551113339
5582 7 -0.009355358837160212 0.004634548116138308 0.003509300095723848 1.083953583263624 0.2935651774140211 -1.204349025125144 0.1870732252300523 1.253648068362084
5583 7 0.008442232899564136 -0.001914662974218175 0.003507593389649586 1.084022751151467 -0.2130633332156505 0.1120823856596802 0.05292504791498242 0.2464944336753505
5584 7 0.005845889358339849 -0.004223192074227544 0.003502082597227189 1.084023520273791 -0.1158951243706469 0.416252997485594 -0.02308349132537557 0.4327020745737167
5585 7 0.002374033919229402 -0.001884039946513361 0.003492053838908872 1.084008003331022 -0.7472583464362333 0.3316510443960252 -0.1554939996292955 0.8322054046257471
5586 7 -0.002067530429114397 -0.0121645998929418 0.0009840074329032114 1.084035710514574 -1.014153787315994 0.2924015543442149 -0.2205663437717792 1.078265313044585
5587 7 0.002827840901226244 -0.007843568335105661 0.000493387427409996 1.084035599471487 0.08284943849269844 0.660726550369812 -0.3482228859339435 0.7514537790911103
5588 7 -0.006153772853376332 -0.004284410605296477 0.000488932541432266 1.083959862988515 -0.4487063036384586 1.582840005415898 0.2106745262389896 1.658645105402572
5589 7 0.01024615796306083 -0.002977555589701563 0.0004831399512307885 1.084025259886482 -0.04965968112184312 0.1230113409807104 0.00273330689937289 0.1326851344559816
5590 7 0.01003592206945804 -0.001002508859083651 0.0005003241664634497 1.084024305118165 -0.08337135015081287 0.05463187192091664 -0.00324662801783639 0.09972945427023597
5591 7 0.004706778410721958 0.01119960643568957 0.0005232941851311605 1.084041490505957 0.3031120165099263 -0.2657922452953858 -0.1061655232305349 0.4168855125027609
5592 7 0.008514777895624274 0.006514780961820781 0.003509392708264721 1.084029260597286 0.04769128828783626 -0.2505363788052338 0.01416180839334687 0.2554280581697378
5593 7 0.00467879437496039 0.008636012497497047 0.0004863504289526245 1.084036652767977 0.1987209613502987 -0.4762935133925738 -0.1756836860210505 0.5451699633268251
5594 7 0.00551644966833472 0.006736098693036879 0.003491391397098238 1.084031062057321 0.05180307317633231 -0.4814152780238238 -0.01154919641063712 0.4843321300956601
5595 7 -0.0103566758803283 0.006365864581272805 0.000492683700686266 1.083962782020409 -0.3264319605076858 -0.769699079748524 0.08553925077510954 0.8404233823673537
5596 7 0.01217298218140122 -0.002186538534408145 0.0007769363962050724 1.084025256794142 -0.006128432762725243 0.04439600729604374 -0.009357266447849125 0.04578342044161463
5597 7 0.006276853519942385 0.0005782627854892117 0.0004803003784608457 1.084019523351583 -0.3084027786982825 -0.04898464275154702 0.01800727349520144 0.3127875173868828
5598 7 -0.007804785768455851 -0.006346527561912121 0.000501256810142374 1.083970536285898 -0.7103475347892404 1.056676521420784 0.05079622175424579 1.274260235292456
5599 7 -0.005750079933957486 0.003299489396469889 0.003521097199412007 1.083932210432823 1.041591749042926 -4.986701301464737 2.113138716227012 5.515202487282035
5600 7 -0.001060021398448766 -0.01013548717766001 0.003572030318278796 1.084067470281148 -4.059579071424663 -4.31321875602973 -2.241506498488863 6.333118478070941
5601 7 -0.009092094192032565 -0.005034336906382848 0.0004907098937988948 1.083958678409751 -0.3804499547472653 1.028488528541421 0.06373313628442132 1.098450150925904
5602 7 0.002792191884497366 -0.01180561350653348 0.0004940427602505031 1.084044574800939 0.2298856597169711 0.08062334214248017 -0.202174766565879 0.3165788623355926
5603 7 0.0003696119093778784 -0.006371608563390161 0.000484699105247369 1.0840222266539 -0.666358168081876 1.517724640779215 -0.3485245531683903 1.69380951041109
5604 7 -0.0004357322138965887 -0.008621686813999805 0.0004794771961427927 1.084036914198747 -0.7068849353561305 0.8859395532984382 -1.08693329972003 1.570350025304024
5605 7 0.007447662005464734 0.007601534789368336 0.0004833808416850515 1.084031469799601 0.08208912914433705 -0.30194932875498 -0.01622663334152632 0.3133294207202046
5606 7 0.01044832976397737 0.001734351151128783 0.00351419864220469 1.084024618052778 -0.1204018969447688 -0.06596729250579256 0.01761240597862118 0.1384142236650529
5607 7 0.001488958966173351 0.001859188166558459 0.003490803720623934 1.084001566167015 -1.8691038143842 -0.3681013059009695 -0.02226282390604472 1.905136024980851
5608 7 0.0009968484687107916 -0.0007191673151449693 0.00350876305567354 1.083992895609591 -2.063939163167307 0.7231192179981298 0.4274875199555321 2.228338361293392
5609 7 -0.0002084998396075677 -0.00404893891587706 0.003493567053292282 1.083999270109516 -1.301695090893725 1.46238561230164 -0.001325437487575109 1.957800690956104
5610 7 -0.01177210483609465 0.002818062831810456 0.0004926837006863033 1.083947394722296 0.06709746169387744 -0.469058098768518 0.07252723213480333 0.479351404282113
5611 7 -0.009222577563294821 0.004479295845386417 0.0005093000957238485 1.083955134324231 -0.07274649848646864 -1.003825245668676 0.08999621972765445 1.010473402148264
5612 7 0.005430752468232639 0.00667237896586846 0.0004913913970982377 1.084030277768181 0.03269163257718586 -0.5548948149840049 -0.04968682511541995 0.5580732739764064
5613 7 0.003066693182894194 0.003159856632536719 0.000448376604785651 1.084013912185752 -0.7932955334105153 -0.5534589245081842 -0.05650967822120641 0.9689313330569377
5614 7 -0.01217819851329357 -0.0009575694459667744 0.003492734041975967 1.083942588667989 0.3123666571716545 0.1958253433508972 0.03727427465754594 0.3705534579009307
5615 7 -0.006581817562729048 -0.002268006669433313 0.0004698015616810932 1.083941707704875 -0.2403414642950899 1.074476938974038 0.9161807816952556 1.432358871440484
5616 7 -0.00325491766499402 -0.004914503197722852 0.0004854798291929843 1.083982324092422 -1.371766233847611 1.572828868874026 0.08942090558884877 2.088906256739238
5617 7 0.01024271090227136 0.001778912707000248 0.00051419864220469 1.084024706975255 -0.1029809277631067 -0.06869380358578298 0.004551112808076004 0.1238734142656291
5618 7 0.005081764252921345 -0.008573736617342499 0.00356631428284276 1.084037289240083 0.5020433933433274 0.4254840630049018 -0.1524966751108923 0.6755290464448729
5619 7 0.0009032151850559089 0.012185686787013 0.000510920252056628 1.084046276604623 -0.2962405563157045 0.1566133697383146 -0.4093531861324429 0.5290144098073423
5620 7 0.0028297701077919 0.01183311049473571 0.0004934528923563015 1.084045751000517 0.206648207652098 -0.1082293097273336 -0.2155714145945525 0.3176288714839635
5621 7 -0.006376262224538146 -0.01041927946426209 0.0005059572285865033 1.084000393727458 -0.9675427916924754 0.7181789549423545 0.01717372255237526 1.205078836352405
5622 7 0.008434303993396152 -0.002110726804004423 0.0005075933896495858 1.084023472963297 -0.1346793328797697 0.1478986631456731 0.0179627213914408 0.2008362433053447
5623 7 -0.005538775880047305 -0.006434243552895294 0.003561983297215411 1.083980538954977 -0.9953436276559365 1.857065803194944 0.1783157844910651 2.114520951305525
5624 7 -0.003978500132085351 0.002477855289735283 0.003494510583437191 1.083924644727748 -3.355083519913893 -5.073139750407164 2.343528350893473 6.518086949726932
5625 7 0.007562069440155429 0.003798220313662993 0.0004988886172633515 1.084024603975336 -0.1205530732144814 -0.2311189317917212 0.01525839503699213 0.2611164926103047
5626 7 0.005617622967358218 0.002042486481313306 0.0034968272278506 1.084018850353054 -0.2544343182052357 -0.1981595359080968 -0.005285860648405125 0.322539864628653
5627 7 -0.01214781868834218 0.001028353948704518 0.003505185050544924 1.083942474866731 0.2565535748452198 -0.1260102927675081 0.0732598224761391 0.2950683518075945
5628 7 -0.01044569251089805 0.006389905623751812 0.003492683700686266 1.083961886773126 -0.3049503403933094 -0.7861503808586695 0.001541196406510886 0.8432256558695246
5629 7 -0.01051077250109452 8.94522275766226e-05 0.0005021972764069947 1.083941991375331 0.2990418350012694 0.001706101013163811 0.1508307486644512 0.3349311042651494
5630 7 0.008574999228004429 0.0007856346332817244 0.000474896871125994 1.08402302518339 -0.2019971490414985 -0.06103887104904176 0.03016763977609333 0.2131635017762071
5631 7 0.007733679780436823 0.004015090900838711 0.003498888617263351 1.084024820759918 -0.0621754123447044 -0.3041439952002676 0.004972319808656013 0.3104739533050944
5632 7 -0.01038247773280416 -0.001806773508582376 0.0004884823834188663 1.083944285373129 0.2724227338132121 0.3952308167794655 0.1044332305744518 0.491251304404013
5633 7 0.003099668405520138 -0.009645131510221797 0.003510131128494887 1.084048072762569 1.499159073771442 -0.1270373311935317 -0.6661222153952842 1.645398194307732
5634 7 0.002552242250274245 -0.009857586032012051 0.003510131128494887 1.084054225098474 2.499819150925998 0.2658143291743604 -0.7793785056402712 2.631954387899771
5635 7 0.01207553305028076 -0.002264590674511413 0.003082168679409896 1.084025188395392 -0.02048151829977601 0.04868183405108108 0.0148637078968384 0.05486659612991855
5636 7 0.01207663262562908 0.002263266007404614 0.00308174600017556 1.084025251722489 -0.01674868616756633 -0.05306086252145161 0.01428524266808216 0.05744599009457502
5637 7 -0.008787795919834872 -0.0007629242206566996 0.0004361541442220083 1.083939225481046 0.51402973711265 0.204717657889331 0.218912275102113 0.5950281289806192
5638 7 -0.007947363958688693 -0.009277996832440124 0.0004926449535114375 1.083986474666101 -0.8486219582450865 0.8047552256576289 -0.007987453789871164 1.169552906309514
5639 7 0.00101227745325419 -0.007452534459677759 0.003687459334259444 1.08405439514252 0.7115477360566059 6.586660217306456 -3.296853218223858 7.399975279786266
5640 7 -0.004399880233395263 0.007885317143006205 0.000496703183449469 1.083999983394801 -1.19955162260395 -1.187746050767828 -0.1023402297778261 1.691194341002038
5641 7 0.002109644165219925 -0.004097873084549464 0.003543865021362802 1.08401467841015 -0.4339518633344316 0.917503890231933 -0.2073703604767321 1.035919917120241
5642 7 0.009363897506415296 -0.005095562302199971 0.0004878437088686505 1.084026946870981 -0.01556858735125374 0.1685325948024153 -0.001765931805366821 0.1692593717880635
5643 7 -0.009330786521627452 -0.007955351414040858 0.0005109202168714585 1.083973702014855 -0.578236222655922 0.8025738744046262 0.03253371062345738 0.9897173310572936
5644 7 -0.008675163341947543 0.002290638765554871 0.003497685331042665 1.083934660838222 1.478426934537141 -0.9577026083470908 0.7164749638453312 1.901651088032943
5645 7 -0.01132776713326292 -0.004670494785642324 0.003476817956573962 1.083953121786791 -0.07044251645428877 0.6988154688340644 0.04785042085476755 0.7039849930092007
5646 7 -0.002919910128043358 0.01188502836775462 0.003476356924189834 1.084034864067575 -1.553332083645255 -0.05298971141544347 -0.4670526494708913 1.622894527988612
5647 7 0.004344582231913275 0.002042486481313306 0.0034968272278506 1.084016239600529 -0.4857692673651317 -0.2542286019086729 -0.0290037068748275 0.5490402336417398
5648 7 -0.002865394023048529 0.01185085252172102 0.0004763569241898338 1.084028591745113 -1.056382527344806 -0.3194277314631997 -0.1600798508951733 1.115169797999276
5649 7 -0.007506190613901032 0.0005630855838845674 0.0004747622077541135 1.083934666298585 0.335844538018206 -0.2024332090697499 0.8675477670696744 0.9520556107699367
5650 7 0.00299906605333325 -0.01187593668358529 0.003494042760250503 1.08404899699274 0.5961747091448352 0.04772259952572962 -0.3213732469414123 0.678956916290782
5651 7 0.007953320555176295 -0.00930278894581181 0.0004919167852555493 1.084033222228145 0.1751676764079086 0.2301354209760534 -0.01127243725855409 0.2894358213623862
5652 7 0.006351238156418227 -0.01045210161078426 0.0004890797479433767 1.084036905035254 0.2416806169117458 0.2336532343990534 -0.01864172732619199 0.3366762072580792
5653 7 -0.007650191291282705 0.005606169147760689 0.0004855612195396782 1.083965479176106 -0.4378390032436124 -1.216535332252142 0.0599148297945057 1.294314874444582
5654 7 -0.005896182169427975 -0.005913675327715882 0.003561983297215411 1.083973131283671 -0.8579050354186554 1.674386439707745 0.1780177846490033 1.889778116850018
5655 7 0.004981102599635746 0.002405966113590834 0.0034968272278506 1.084018123980836 -0.3204890132534385 -0.1608338646532766 0.01876763702854458 0.3590723657358031
5656 7 -0.01044573154991846 -0.006389842059564357 0.003508083214484921 1.083962188119566 -0.3317777732257838 0.8390364294487224 -0.03847722082160969 0.9030720443413556
5657 7 -0.00796712445117285 -0.009347690953550543 0.003492644953511438 1.0839867884576 -0.8089689758107346 0.7609957318017128 0.0002119066321131791 1.110650868882348
5658 7 0.005641800631114273 0.004511427421970884 0.0004734991151981682 1.084024203584742 -0.1062405789105776 -0.4360856639808154 -0.004043530119869559 0.4488586827417663
5659 7 0.01194373490541361 -0.002859343192280897 0.003469892469913689 1.084025385607404 -0.0307712546512411 0.07776197408051037 0.002956535945040572 0.08368115576701729
5660 7 -0.002831470787161191 -0.002751012071778163 0.003518856446036902 1.083946973782688 -2.240174302392139 4.960762789686622 1.725214274898498 5.709983594980904
5661 7 0.0119448344807619 0.002858018525174336 0.00346946979067956 1.0840254479622 -0.0242218146860716 -0.07427047685182665 0.005616239593701235 0.07832204150593861
5662 7 -0.007962330451755947 0.009351778208146873 0.003492083020370654 1.08398649247085 -0.7968308612589261 -0.7901640357194546 -0.01525653713405573 1.12228845967711
5663 7 -0.01130751915122061 0.004683727789229017 0.0005236430758101707 1.083954136597141 -0.1271988923141197 -0.6513666941368167 0.0510519452752191 0.6656308508122564
5664 7 0.009364210443216781 -0.007935702513415802 0.0005231820434260428 1.084030226989383 0.1075971587893432 0.1994985472559912 -0.004484195941442382 0.2267089035526204
5665 7 0.003363448313571893 0.001152575078722931 0.0004172896491165465 1.084010555131323 -0.8635701588017727 -0.2262434931295466 -0.02725088518105863 0.893130532508843
5666 7 0.007785888803599292 -0.004002855334539158 0.003535793001244682 1.084024673879087 -0.0948463385084255 0.3297834036659264 0.02947355046122749 0.3444148827195607
5667 7 0.00193613956849011 0.009338100783719973 0.00349906200267011 1.084062962741994 3.927702857239544 1.013363307436891 -0.9878576558738408 4.174879360639739
5668 7 0.006437580347869872 0.01036907136279001 0.0004913511061056695 1.08403718857222 0.2557355504833404 -0.2511631317440948 -0.05504820613538408 0.362648446194441
5669 7 -0.004712507551160771 -0.0113760046891177 0.003492476648664522 1.084017434694881 -1.315157355988427 0.5745363574911617 -0.1811804942122174 1.446567408927999
5670 7 0.0104946574328197 0.006396958560909435 0.0005109202168714735 1.084028267022986 0.05295598680309262 -0.1729249198812973 -0.0009595524076846634 0.180854320366049
5671 7 0.006355085737735015 -0.008635801855761753 0.003510642260633047 1.084034622069704 0.2651921563046423 0.4369596917365798 -0.02485496332989516 0.5117405799525411
5672 7 -0.002211298567468381 -0.002277010592621809 0.003518856446036902 1.083951083029049 -5.141166763625609 3.20306314186751 0.8752463740135328 6.120234096619394
5673 7 -0.009321871416745266 0.007968473009015931 0.003505185050544919 1.083973413514074 -0.6234952996242487 -0.9003931893011204 0.0144090699399318 1.095290785723092
5674 7 0.009372482364662536 0.008008566661223203 0.003493452882110407 1.08403070736619 0.1137003095064188 -0.2186503886103056 -0.01530548735773108 0.2469210618083252
5675 7 -0.009321672724157086 -0.007968705757729098 0.003510920216871459 1.083973754614169 -0.5864349238706034 0.8762759861988436 -0.04136351566261936 1.055213942455201
5676 7 0.01130754970681478 -0.004683654018875465 0.0005240254569820352 1.084026458703943 -0.005094089484564491 0.1186479058025712 0.009726005153886471 0.1191548172558121
5677 7 0.006041911545977347 0.0008321100980357675 0.003480300378460846 1.084018752681279 -0.2873797314437163 -0.03685514235996343 0.02721728452638545 0.2910089210660489
5678 7 -0.004184592422900259 -0.00710526554983291 0.0004873381078840642 1.08399565062017 -1.08038128972677 1.44155237518082 -0.1282623620799981 1.806031067038295
5679 7 0.002743304398208824 0.01198506955914725 0.003493452892356301 1.084051979835686 0.7731789104865493 0.4205976207787822 -0.2514875457922853 0.9153982586364071
5680 7 0.004688373358791546 -0.01133626613527986 0.0005073550449433327 1.084040988539555 0.2715808556324255 0.1650428493997038 -0.1203674874286861 0.3398288323758131
5681 7 -0.008872070527222883 0.002390147555791642 0.0004976853310426649 1.083944027883343 0.1475235495927523 -0.8430920211828502 0.2333634270949285 0.8871447700190306
5682 7 0.005862302763290747 -0.001842063943155717 0.003485962813416739 1.084019100646865 -0.2339497866641002 0.220402059226857 0.03718751721748109 0.323562176139946
5683 7 -0.006427624445071492 -0.01048722075702259 0.003505957228586504 1.084001091746247 -1.14499622260814 0.7707935610513191 -0.08509376814295656 1.382888286493833
5684 7 0.000938800338606096 -0.01227070838664401 0.0005067777075852905 1.084045984979271 -0.09929643126162307 -0.06037097571050773 -0.3581407671466593 0.3765225691269125
5685 7 -0.006429969353921604 0.01048341800478447 0.003510761436187152 1.084000989671694 -1.137983608017367 -0.7615531718910996 -0.03302762711122533 1.369693670090586
5686 7 0.001494752367328209 -0.004031807627920351 0.003543865021362802 1.084011522651706 -1.124317418352546 1.038159035499213 -0.168814740255681 1.539598082853828
5687 7 -0.0122364572343528 0.0009484568871560945 0.0005051850505449243 1.083944307875123 0.1606788328622175 -0.1169595210272466 0.09746015468915804 0.221349720218757
5688 7 -0.004719022404207738 0.01132967232585139 0.003508054319028943 1.084017150767312 -1.351439190616795 -0.700236968468805 -0.192405635942983 1.534190218547878
5689 7 -0.001494567616758281 -0.01006011789299744 0.003572030318278796 1.084056486913201 -6.168245869061697 -3.790177126524294 -2.041183534053285 7.521909994895904
5690 7 -0.001587676148908032 -0.0004077284055044998 0.003491356946797271 1.083948076504839 -5.845981925704048 0.9285055697642318 1.57909878392527 6.126269683758288
5691 7 0.003918583602644264 0.008415345897469314 0.0004863504289526245 1.084036951877153 0.2098474953955392 -0.4744838424750361 -0.1724158876859233 0.5467157638299636
5692 7 0.009344978329709559 0.007967193745355493 0.0004934528821104065 1.084030586714281 0.1030002010675745 -0.207111983786145 0.005993457066405319 0.2313878492388916
5693 7 -0.0009884445719398629 0.01228240293867296 0.0005080616479767973 1.084040315290052 -0.6869227883724371 0.01071750324952205 -0.438289425589217 0.8149082173132097
5694 7 -0.0009452712741162961 -0.01220625356158814 0.000476705828178019 1.084040963697308 -0.7297302505987137 0.0834297233034209 -0.3810492246381923 0.8274450247398401
5695 7 0.004552581270001781 0.01133788409542581 0.003523294185131161 1.084044439570407 0.5591984289219966 -0.08976537951934219 -0.07033815777216589 0.5707084743613527
5696 7 -0.01198995685153134 0.002925408691150916 0.003492683700686303 1.083946077077628 0.1317962485439515 -0.4730616455635969 0.1035972783973074 0.501886409185312
5697 7 0.004621714653901397 -0.008038164430088916 0.00356631428284276 1.084036845988089 0.3542367680489688 0.6119767467288599 -0.08831828261496033 0.7126004107623529
5698 7 -0.01051670042311873 -0.00638859811341877 0.000508083214484921 1.083962736288954 -0.3254325655639242 0.7459379149861846 0.1017799210379944 0.8201761274689446
5699 7 -0.0009051771069665043 0.007853442905005224 0.003684724317412645 1.084058483811117 -4.370591294610721 -5.884699401718483 -2.646809392022136 7.793417432090332
5700 7 0.008043667261627009 0.009345002363710372 0.0005232941718219705 1.084033507454145 0.1759811515419591 -0.2217334252462716 0.003133378008694258 0.2830987383003027
5701 7 -0.01033714488219573 9.850951517386016e-05 0.003502197276406995 1.083937475780232 1.33240052085629 -0.1123621791828733 0.2689734222685627 1.363914626791464
5702 7 -0.009364688835622317 0.008021802961783814 0.0005051850505449193 1.083973763845054 -0.5604519953520162 -0.7846048061560643 0.005829794394397679 0.9642329217776857
5703 7 -0.01190100258663528 -0.002857172166955984 0.003524719052284401 1.083946539252853 0.07506205603326704 0.4756714620767366 0.01279277395076036 0.4817274199747372
5704 7 -0.007984906843002515 0.009338436213642349 0.000492083020370654 1.083986148480194 -0.837640267136416 -0.8048219842440434 -0.007825018700886272 1.161654369581828
5705 7 0.01140383508317309 0.004733446067549713 0.0005077384188985893 1.084026638851533 0.008198176535423211 -0.1165498763189103 0.00282983938272312 0.1168721171169209
5706 7 0.01201853801629594 0.001836867839169031 0.001915494833196881 1.084025143585581 -0.03492928206056942 -0.057966419960968 0.01030753522455681 0.06845732883164232
5707 7 -0.006431043952074792 0.01049442999968768 0.0005107614361871515 1.084000224299771 -0.9798969647343188 -0.7457973533040522 -0.03988965761386338 1.232072618994275
5708 7 0.003961548806532219 -0.0008887387098265619 0.003490382347750167 1.084013756893869 -0.4850258335964138 0.004137420287440652 -0.08525507219216927 0.4924790399976663
5709 7 -0.00291333200031588 -0.01194372930666018 0.003507301604725193 1.084034114219475 -1.439697876946901 0.26209871293918 -0.261791434031352 1.486593578333359
5710 7 0.006430579198918056 -0.01049296799969391 0.003489079747943377 1.084037830910993 0.3401769405820048 0.2498137554094008 -0.08112475556528445 0.4297772554021535
5711 7 -0.01134521580586882 0.004673036291102395 0.003523643075810171 1.083952789373521 -0.1392764958007164 -0.7501448734624271 0.08556873089780813 0.7677481886477814
5712 7 0.006384887742454342 0.0104829349316874 0.00349135110610567 1.084038299652325 0.317013159206717 -0.2200862713182325 -0.02539203281414727 0.3867558212405092
5713 7 0.001381424833104066 -0.007706912540223639 0.003687459334259444 1.084055103632675 5.012777350636203 3.811888610723665 -1.95164336800091 6.592976822610408
5714 7 0.01046451897792292 0.00646245858689019 0.003510920216871474 1.084028341927477 0.05503357640084864 -0.1764503412855407 0.001263977029272111 0.1848378075751343
5715 7 -0.01224897143121778 -0.0009622190918989036 0.000492734041975967 1.083944448819618 0.1771581866052381 0.1559853948809811 0.1199806023426257 0.2647863505468725
5716 7 -0.004732227225475064 0.01140864395691339 0.0005080543190289428 1.08401489622274 -1.098458696408592 -0.5411756178902416 -0.1060052881006832 1.229113370775803
5717 7 -0.01195407348463623 -0.002892455004102912 0.0005247190522844008 1.083947823285232 0.03780282852038963 0.4144443064982007 0.1011226102256231 0.428274350541519
5718 7 0.0008965298647875691 0.01228693024890312 0.003510920252056628 1.084055062507623 0.07794802921148072 0.6787952002171358 -0.4392846503235132 0.8122867862433973
5719 7 -0.0002618218304647293 -0.002016284919278733 0.003492571291692701 1.083982021341433 -2.524900407212392 1.380753799730757 0.198070745417083 2.884585783436212
5720 7 -0.0008971154582284725 -0.01237493996485532 0.003476705828178019 1.084049955050418 -1.050691618376095 -0.7840598950497082 -0.4126563659938879 1.374404624681691
5721 7 0.01047926321782382 -0.006450295773187329 0.003491380029999441 1.084028083075416 0.04807094380255163 0.1562125012318318 -0.006887729622594882 0.1635866803823805
5722 7 0.001337014589102714 -0.008202461953448755 0.003687459334259444 1.084066094996721 4.952651753665694 2.755500023530293 -2.254637471955984 6.099584404097659
5723 7 0.01136938430301669 0.004709166750378062 0.003507738418898589 1.08402656111316 0.01175762715085495 -0.1254751576913908 0.004405011500077776 0.1261017887272569
5724 7 0.01190481762498486 0.002872004415677751 0.0004694697906795598 1.084025553897683 -0.02081019989834873 -0.07524158523675371 0.005265497712542244 0.07824376035767769
5725 7 -0.006153016898701812 0.002696736820267867 0.003521097199412007 1.083918675163913 1.453698618416734 -4.369453778128294 1.990656828860909 5.016779903750703
5726 7 0.008004325777178909 -0.009424147623673995 0.003491916785255549 1.084033635220501 0.2147173014860773 0.258039477946846 -0.01966381327772208 0.3362656052723278
5727 7 0.004774069582402071 -0.01140817862846801 0.003507355044943333 1.084043126962592 0.4707219404621829 0.223963193373622 -0.1302498355550553 0.5373115268451926
5728 7 -0.008334891373145518 -0.001436945085600312 0.0004361541442220083 1.083939941289258 0.1731961462442192 0.6022274625364357 0.3185191171002814 0.7029432762785812
5729 7 0.01219072572123473 0.001023546266202977 0.0003195501908166308 1.084025010928217 -0.03237207195567494 -0.02885579720209198 0.00578010498005789 0.04374948786502701
5730 7 0.008006946279725688 0.009312548953633249 0.00352329417182197 1.084033842661574 0.2090191164502895 -0.2536494748174499 -0.04576676595767789 0.3318458135686703
5731 7 0.003918129555428457 -0.008198897982013283 0.00356631428284276 1.084039825342551 1.04921670198332 0.6340815889569358 0.07438542795158747 1.228189049400152
5732 7 0.0008938358235512802 -0.0123047070102126 0.003506777707585291 1.084054337233943 0.1788353161072781 -0.5593322192679971 -0.4523783398154689 0.7412696972982592
5733 7 -0.000903992351570857 0.01236733780835596 0.003508061647976797 1.084050116365163 -0.9040374866893064 0.6503562365587365 -0.4892940290442036 1.216410974395032
5734 7 -0.002799428142723081 -0.01201900152868471 0.0005073016047251925 1.084030267969617 -1.082568473723059 0.2765220503516825 -0.2520573322221548 1.14540466358258
5735 7 0.0113741446605393 -0.004712860883456624 0.003524025456982035 1.084026437229611 -0.004978169121587482 0.1256482298590326 -0.006188937036990916 0.1258990181699574
5736 7 0.01222297704299789 0.001101645455591779 0.003612276209496001 1.084024942535627 -0.03400605868517386 -0.02695109128566079 0.006167766233081182 0.04382709993934627
5737 7 0.01222902215401388 -0.001101430495378572 0.003612276209496207 1.084024927712601 -0.02989506339423604 0.02243368161170709 0.007020275346092998 0.03802984554183461
5738 7 0.01054001824360047 -0.006458900648823257 0.0004913800299994412 1.084028066606765 0.0442939580339113 0.1553685030956359 0.006945840184641607 0.161708290351358
5739 7 -0.00275903469775047 -0.008979362725985176 0.0004982220096807925 1.084021349692895 -1.565669593535497 0.8205691484787583 -0.3118190103341579 1.794961308430501
5740 7 0.009299965510185857 -0.008014550991601904 0.003523182043426043 1.084030435406794 0.1218725768042028 0.1954311673979446 0.0003206118878338428 0.2303179735917333
5741 7 -0.01142967139196648 -0.004732842939848547 0.0004768179565739615 1.083954503269139 -0.2202490251767835 0.650524576786365 0.04941923491170247 0.6885739748739134
5742 7 0.01223348348455532 -0.001035033293579214 0.0003070439262913835 1.08402498443198 -0.02938106436828547 0.02191767155057159 0.007366597702118155 0.0373884745786308
5743 7 0.01203127576003465 -0.002873153242947285 0.000469892469913689 1.084025493187195 -0.02105441803818113 0.07537774702881619 0.004566416844406739 0.07839608044324395
5744 7 -0.004785894806924386 -0.01136915877408272 0.000492476648664522 1.084014529954062 -1.108453017713563 0.5811811234516836 -0.06588123085358155 1.253307594851977
5745 7 -0.002819596424412424 0.000427823868079612 0.003491356946797271 1.083916201194913 -3.692858234690657 -1.680041132219552 3.109151438693764 5.11141495245726
5746 7 -0.003183670013922757 0.00101943975075462 0.002985867530234462 1.083924491018837 -3.494504136069588 -1.776786763968623 3.369496205000407 5.169336034456814
5747 7 0.00479513071382133 0.005905175453149758 0.002964890512296406 1.084028608480461 -0.0137894273541184 -0.5184248755159795 -0.04619391842543622 0.5206614811564316
5748 7 0.004257183797529041 0.005655696037877009 0.002453176445215118 1.084026924927531 -0.1918007016055612 -0.5071742920976475 -0.2122312609407895 0.5822846209729851
5749 7 -0.004519631294929808 0.006469013174571558 0.002495029161669433 1.083987303359528 -1.362330235695438 -1.527167117330331 -0.02788186881282734 2.046695012441648
5750 7 -0.004708625301800584 0.0059344531959737 0.002998325978219963 1.083980500448924 -1.23206085080653 -1.791185528801196 0.2221862177916778 2.185334357496239
5751 7 -0.004492322726890315 -0.01020120385234376 0.001006628660138584 1.084012155014539 -1.304376512419573 0.73201085968031 0.013194080341038 1.495798137650198
5752 7 -0.003980282130454127 -0.009783802098688465 0.001504850669819376 1.084015288866021 -1.555224593551538 0.6954717340444684 -0.2396198729445825 1.720413366825643
5753 7 0.0008539571867160437 0.007703991364868695 0.002996588449845141 1.08405308408573 -1.036559032113841 -4.224264624172029 -2.8724109740278 5.212447701972978
5754 7 0.0007306608634768189 0.007300294755254125 0.002544098527054774 1.084040472824542 0.05021851999361469 -1.906734302606784 -1.620837090672307 2.5030522317736
5755 7 0.009119645660436913 0.001783404465332803 0.002989095513330684 1.084023603569571 -0.1480682492593112 -0.06649482016415804 0.00370463821435193 0.1623560651521232
5756 7 0.009173279648003341 0.002321923544262362 0.002480467148876435 1.0840241075633 -0.1235005908331425 -0.1253306038395161 0.07504033327505233 0.1912882845679367
5757 7 0.009349770674158592 0.00242767140231446 0.00351419864220469 1.084024139472574 -0.184015271249461 -0.1105765355938398 -0.01183145074025354 0.2150087754106038
5758 7 0.009403404661725019 0.002966190481244018 0.003005570277750441 1.084024643466303 -0.1779156526843034 -0.1458915160161262 0.0200125364839998 0.2309519766793277
5759 7 -0.007316309588494862 0.003315244304771389 0.003521097199412007 1.083939495168315 -0.1328281443496489 -2.476422565757017 0.6245763703047191 2.557422077496195
5760 7 -0.007805399975413668 0.002961805778561713 0.003018782530454672 1.083938941517096 0.586549524260006 -2.174173809702927 1.338520183777715 2.61967715216744
5761 7 -0.001110247908096728 -0.005752178688163669 0.003523877556210437 1.084011125319487 -1.396749971986281 2.26481904426451 -0.5253855975484955 2.712258434150086
5762 7 -0.0008256144613427636 -0.005298710689346698 0.003017444609502719 1.084007621072808 -1.801528712082472 2.038272713529612 -0.1081062098660429 2.722452627280868
5763 7 0.002578469986858704 0.006595371061335668 0.00350984695714963 1.084033272222982 0.09511109922607762 -1.368747485175867 -0.4279346366704483 1.437234793843205
5764 7 0.002562048263013577 0.006141452677188665 0.002998132890068342 1.084029476248935 0.07695179166429969 -1.015156094739857 -0.1588886177372453 1.030392676494877
5765 7 0.004681261396686477 -0.005924299734611772 0.00348246706150816 1.084028265181753 0.04020952160087331 0.6087166679766022 -0.03943765103295691 0.6113167066414146
5766 7 0.0041901072198517 -0.005762441716396843 0.002982651233447247 1.084027067384894 -0.07288829096531678 0.7403197472077296 -0.1861044595983048 0.766825208863101
5767 7 -0.0009571060572093035 0.01000915248885479 0.00298994075820409 1.084057960761565 -2.956990842286326 3.95180579600658 -3.296362515144268 5.935197530155558
5768 7 -0.0006341957580638185 0.01018302030735678 0.003503163597645245 1.084070724223287 -3.714271347898536 3.712396341109876 -3.950447487747063 6.571433146030863
5769 7 0.003642358278506919 -0.007330748151318412 0.003059701710252756 1.084035099021626 0.3730721917817122 0.980018385016453 -0.240238524080209 1.075794331507331
5770 7 0.003345215576588405 -0.006890776209427691 0.002559885882191843 1.084032309907255 0.3938969222437258 1.03782380086246 -0.3014131639652153 1.150253416600535
5771 7 0.003208941535562466 -0.007066944609262939 0.003493387427409996 1.084035205602813 0.4087980942560072 0.9920928019218359 -0.2679457637309062 1.105965163010934
5772 7 0.002911798833643952 -0.006626972667372217 0.002993571599349083 1.084032416488442 0.338405542995342 1.044270076198879 -0.2807255208087863 1.133060069726115
5773 7 -0.001421718922671807 0.0008573087097522427 0.003472879509169025 1.083951535258858 -5.489956023611663 -1.304363100680663 0.1189388904155572 5.644034611805684
5774 7 -0.001481059744071516 0.000320432833036378 0.002964236455966296 1.083952340203576 -5.865017257875529 1.047741796974889 1.541405256867621 6.154032862619852
5775 7 0.003532181412404644 0.007180572158094544 0.003486350428952624 1.084035262474484 0.5776661374269241 -0.9893812522060698 -0.2541159296402282 1.173519635218563
5776 7 0.003038065648904869 0.007190106307226803 0.002996197386102254 1.084035479243685 0.3644862598130079 -1.156976541803737 -0.4830800685614162 1.305684228486318
5777 7 -0.004280124429622798 -0.004896652798042295 0.003485479829192984 1.083969239511129 -1.26951546648954 2.696365991371606 0.3844062203027029 3.004967091548416
5778 7 -0.004831021321750712 -0.004790881214847885 0.00297441237062525 1.083966711631102 -0.7626554855494486 2.726058963174474 0.8769254261963184 2.963450533322962
5779 7 0.004197929204876127 -0.006959891986087052 0.00356631428284276 1.084032892903042 0.1106799803616465 0.8913355865706368 -0.2674883168524689 0.9371655059767419
5780 7 0.004575278140999546 -0.006752282247365873 0.003048781344350919 1.084031390997321 0.06062630691710073 0.6905980947808412 -0.04335967779128685 0.6946087670505595
5781 7 -0.008925387640688209 -0.005861452145230256 0.0004907098937988948 1.083964054762111 -0.3789163486214744 1.018265783527328 0.06667970602208802 1.088526062320212
5782 7 -0.008466465082078687 -0.006027268543355765 0.0009919667039412689 1.083966186183241 -0.4929774803852502 1.031484644252235 -0.006108426131586171 1.143251800945424
5783 7 -0.009114559981247298 0.006994153949109861 0.001483429970770864 1.083968998956783 -0.4356863874393523 -0.885733719571389 0.11711804358735 0.994013826020267
5784 7 -0.008949108773213527 0.006336570130238787 0.0009782449202259441 1.08396611452767 -0.4565612545238952 -0.963845612239677 0.06194392302632541 1.068308753575483
5785 7 -0.002233417529517523 -0.009232247504252897 0.003070252327959589 1.084035839461948 -3.375646202682799 -0.7102004121636569 -1.150660089628343 3.636398019055084
5786 7 -0.002101567781283248 -0.009541508112292815 0.003572030318278796 1.08404113727105 -3.437726120980637 -0.2943227578496642 -1.431875842138165 3.735619787392674
5787 7 -0.001400581972529701 0.00907154506433446 0.00317150147797149 1.08405374477105 -6.748142836656145 -3.27066508011568 -2.409739138177238 7.876644242586111
5788 7 -0.001289686652742377 0.008805159241805402 0.003684724317412645 1.084063848579407 -7.181318102357675 -1.070947466972109 -5.436697004987047 9.070608165294052
5789 7 0.003391794585647962 0.004491031546348712 0.002936662537704363 1.084020957801497 -0.3040554081748289 -0.7962936259491462 0.009907770843962049 0.8524267674649225
5790 7 0.003984845508134771 0.004468348814874021 0.002410161652902532 1.084021795660328 -0.2650034004245733 -0.7842629100586517 -0.03110126383648684 0.8284095623195559
5791 7 0.001844058524979451 -0.0115175149834139 0.00151095159633068 1.084046706707996 0.2184814657616969 0.05124254516566871 -0.3120221646316711 0.3843407089261672
5792 7 0.001185860526685153 -0.01104384795475445 0.001507874333850939 1.084048005616778 0.4282315664803777 -0.07240685923098683 -0.4258740869261853 0.6082711284527206
5793 7 0.001519952624368859 -0.01019702663648079 0.0005101311284948868 1.084044242591416 -0.06178531607085038 0.3353399205860107 -0.2354348761994084 0.4143668284885237
5794 7 0.001029749185705391 -0.01024781001643979 0.001001096626265648 1.084046153208375 0.3124235342341219 0.4228547166033924 -0.6343459079620908 0.8238988451535324
5795 7 -0.008484464251528104 -0.004716934930306498 0.0004907098937988948 1.083958026522753 -0.3417580496268673 1.04822109369419 0.08368617296931613 1.105698603280503
5796 7 -0.008553510136759411 -0.004161291921523959 0.0009896212486796905 1.083953707438779 -0.2909649092730089 1.201660154828173 0.1939512315869321 1.251505008525339
5797 7 -0.006800907294194482 -0.005556170117417145 0.002552172648790051 1.083966983312718 -0.7832994504772769 1.632850472094955 0.01038483511198262 1.811040181260213
5798 7 -0.006421412643614144 -0.00523250400011452 0.003050915838647677 1.083965027907999 -0.5194989569584176 1.702892476414281 0.2589723457310914 1.799107731171958
5799 7 -0.008219833296248803 -0.008189255554066729 0.00250482198052527 1.08397936462446 -0.6465478959550048 0.9441885511195045 -0.1920048658963106 1.160337050324971
5800 7 -0.008251430469489236 -0.00757041176271077 0.003012177027013833 1.083975925567163 -0.7650834299167331 1.064847420920512 -0.0273619256868451 1.311488223184452
5801 7 -0.00731656952246414 -0.001188368930724024 0.002380717913657215 1.083922893278248 0.3396996720835275 0.4822916365089475 3.100654809731031 3.156273330839443
5802 7 -0.007534693930982506 -0.0006384962754491731 0.002910916351976122 1.083912828866666 0.6805884993461904 0.3256903174268139 2.819040942040537 2.918264333676556
5803 7 0.005965916901456113 -0.007306044067812012 0.0009931093221412063 1.084031618641879 0.08529438563286448 0.39762096908709 0.01345910821478509 0.4068890694921427
5804 7 0.006359739342004235 -0.007739902690822977 0.0005106422606330468 1.084032285803912 0.1333732142998709 0.3383767099128608 -0.04078776677166627 0.3659929699083734
5805 7 0.007900503620296194 -0.007914784382298465 0.0009790880275999639 1.084031353646276 0.1383417651456536 0.2487041939859884 0.02304307199356206 0.2855226843120101
5806 7 0.008539588361009426 -0.007897766255328294 0.001502270071026007 1.084030783846005 0.1190897136555977 0.2449418143829087 0.01537382034047692 0.2727915077190359
5807 7 -0.007960562243120604 0.004850200559716368 0.0004855612195396782 1.083959633487377 -0.3680189607955287 -1.076865079846171 -0.004266616719723955 1.138022214069371
5808 7 -0.008550226738222083 0.004862957107358003 0.0009948613152635268 1.083958411869368 -0.3780647860318354 -1.079348807071617 0.004047055209711808 1.143653447693002
5809 7 -0.01012218824185548 0.003522098075823754 0.001499669127452817 1.083949310589084 0.09710564790871598 -0.9741901049436885 0.01881460680051854 0.9791985788669346
5810 7 -0.01032007034747259 0.002950938729761765 0.0009903690317289683 1.083946907102241 0.1493769680853377 -0.7080479510157661 0.2398394218703421 0.762343969488244
5811 7 -0.01164204808464416 0.002226846627276415 0.003492683700686303 1.083943950613989 0.1129737774009287 -0.4373048541754269 0.119384768703859 0.4671737715926483
5812 7 -0.01205868664085601 0.001775377361756682 0.002997868751231227 1.083943756617991 0.1640561542855422 -0.3265536449144871 0.1790756581594971 0.4069641214052605
5813 7 -0.009628601461638414 -0.0008113609237632667 0.002426833804047869 1.083937683608377 0.5740114535765523 0.2851009061449509 0.662145189181056 0.9215247837564409
5814 7 -0.009240202774608311 -0.001215555483178677 0.002924636527640875 1.083935527088716 0.4937321793088446 0.4444452484864913 0.5349272228353885 0.8529068985051425
5815 7 0.00876070423747537 -0.00571240955416262 0.000975014951213065 1.084027805805882 0.0271363725601365 0.2488504536978087 -0.03123709551225312 0.2522670948763818
5816 7 0.008567828969773048 -0.006218325995602863 0.0004871712423444145 1.084028506301707 0.03045606804181639 0.2550941259135453 -0.02555545371534806 0.2581737135549643
5817 7 0.003597753336043666 -0.01151077699864025 0.001511528933688723 1.084044322009573 0.3569101017130106 0.06487698737241283 -0.1426400088923395 0.389794838770498
5818 7 0.003907702104752091 -0.01097776300187863 0.001017486173438219 1.084042807823413 0.4215591917512901 0.1424796484266128 -0.1855778126599459 0.4821324785963109
5819 7 0.01147902515319922 -0.001963710083752266 0.002582492845873345 1.084024998028814 -0.03642892977632623 0.05692181400567937 0.001861558286510859 0.0676063993539054
5820 7 0.01086343328390491 -0.002322264206727737 0.002453356587607927 1.084025024665622 -0.02523054407107514 0.06808534508295681 0.008482613331434876 0.0731036886765532
5821 7 0.001094345494092162 0.01011580467209751 0.0005031635976452445 1.08404588324955 -0.002206832638966658 -0.416953558059122 -0.6225222302427899 0.7492590118476488
5822 7 0.001484589204542755 0.00977526788523749 0.001002225600315355 1.084046304549255 0.1408055846041984 -0.5556715637414852 -0.4691670635229291 0.7407528824792825
5823 7 0.001700516293883088 0.01006501328168567 0.00349906200267011 1.084066039709389 4.15353971561557 0.07665103969994584 -0.7683479395993921 4.224704262711129
5824 7 0.001345850628039696 0.01020556004082426 0.003002225600315355 1.084062196156496 1.903029896951768 3.061411189192403 -3.09829931580746 4.753232574610427
5825 8 -0.0008783930958530049 -0.009518235313456639 0.02063232018306722 3.999980001255004 -6.16538764402708e-05 -0.0001703953641788532 -0.001105309869650463 0.001120065037647582
5826 8 -0.0008665598456237609 -0.009466702489174274 0.01986780509472117 3.999951977280479 -0.0006126567210366211 -0.001011669479734639 -0.003857168139748694 0.004034423063134343
5827 8 -0.0004146776710537587 -0.009597462925118316 0.0207145463185766 3.999983023852828 -0.0003193364011596488 -0.000273882099806083 -0.001266317368437197 0.001334371319875204
5828 8 -0.0003960581638075131 -0.009843837620647718 0.005425644812673458 2.239263710146176 2.260980869923636 1.575347577163094 -23.02099874133997 23.18534316182986
5829 8 -0.0003653226879844915 -0.008816797907511975 0.07775377682752729 4 0 0 0 0
5830 8 -0.0006658745339508345 -0.009235103245822213 0.00605996399583488 2.59845253602405 -1.283047463162259 -0.4100529677703222 -20.99622600575632 21.03938831605858
5831 8 -0.0006999887304039965 -0.009166386516747111 0.07811446145910597 4 0 0 0 0
5832 8 -0.0005854664460854491 -0.008174581171131845 0.005379506751025698 2.206819106428816 0.04636385892690914 0.9893699199549472 -21.88216286388353 21.90456696781403
5833 8 -0.0006907628899835814 -0.00949089741751305 0.04193738946098741 4 0 0 0 0
5834 8 -0.0005801609456366108 -0.008619836489563276 0.00650796005328865 2.813715190859484 -1.307254554918842 0.100602591022264 -20.71488310467846 20.7563343920156
5835 8 -0.001018003297901195 -0.008896804152607128 0.006241011439389215 2.675028621787169 -2.435806698843122 -0.06164463934982688 -20.98838689696353 21.12934780991406
5836 8 -0.0004837812981693689 -0.009337289562263028 0.06004337439700731 4 0 0 0 0
5837 8 -0.0001072001133385337 -0.009335394294980167 0.04205781370222531 4 0 0 0 0
5838 8 -8.626471747225076e-05 -0.009249575121936136 0.07797081132760736 4 0 0 0 0
5839 8 -0.0004508855124711469 -0.009580839032752701 0.07169999027232438 4 0 0 0 0
5840 8 -0.0007477784651416471 -0.008878643347836382 0.05981387016603917 4 0 0 0 0
5841 8 4.742242617193292e-05 -0.009396643437836694 0.03481783689070388 3.999999999999647 9.97376410240425e-13 -1.675388414425719e-12 -1.739103201792605e-11 1.749999087689548e-11
5842 8 -0.0003983314278593416 -0.00929888936755803 0.07921659412216303 4 0 0 0 0
5843 8 6.657397172493817e-05 -0.00939522413896614 0.03513905305191456 3.999999999999739 1.010722401261749e-12 -1.65751638460244e-12 -1.931305941704204e-11 1.941038856859476e-11
5844 8 -0.0007915748320062493 -0.008917056020844243 0.0790359624503347 4 0 0 0 0
5845 8 -0.0007432206641671549 -0.009579914841870122 0.05373903546497454 4 0 0 0 0
5846 8 -0.0001541828637106016 -0.008958481195587589 0.07817695710099598 4 0 0 0 0
5847 8 -0.0007652423505397259 -0.008637344397443519 0.04259202340657715 4 0 0 0 0
5848 8 -0.0007737695334939369 -0.009235372464931672 0.06098244384608004 4 0 0 0 0
5849 8 -0.0001168252481340474 -0.009030895789103394 0.005914285300749019 2.549973142040404 -1.701393831884612 -0.5706984991366425 -19.66991908897772 19.75161144603199
5850 8 -0.0002925644608637337 -0.009568303214775711 0.06596989782434087 4 0 0 0 0
5851 8 -0.0003609835524966228 -0.009195946407364139 0.006808204028199708 2.943255920324111 -1.039896541711252 -0.207890291875351 -19.24446226749167 19.27365899760161
5852 8 0.000116559344024072 -0.009603818385878345 0.005650524821358071 2.384219464083827 -0.439970729975062 -1.648344580912234 -25.13382018355397 25.19165598208824
5853 8 -0.0005028910679863949 -0.009135312065991028 0.07863417653474149 4 0 0 0 0
5854 8 -0.0003695415278372993 -0.00897942761836564 0.02081095611534734 3.999986713686034 -0.0001896804204337462 -0.0001054016300022106 -0.0009524180512173917 0.0009768256291620219
5855 8 -0.0008012544131088693 -0.00926685846224121 0.02501118074724144 3.99999988013066 -2.742192910757982e-06 -3.211178439721194e-07 -1.223551400478391e-05 1.254314719640935e-05
5856 8 0.0002833703086036236 -0.009724438532869126 0.0214196000639545 3.999992445714946 -4.275778090985624e-05 6.239521003300913e-06 -0.0005595459221530973 0.0005612119015566634
5857 8 -0.0001910682908338416 -0.009337802627241615 0.02172449201646068 3.99999469919535 -5.064537494970318e-05 9.924459122254617e-06 -0.000538963088641193 0.0005414283515021353
5858 8 -4.10109868106838e-05 -0.009244337119225223 0.006166408635989686 2.673007497876919 -1.838825892728863 -0.5836707580804291 -22.51398730937929 22.59649478977878
5859 8 -7.812588300459644e-05 -0.008418903509403107 0.005646708275758651 2.385232397164832 -0.5403321237291433 1.6340087355976 -24.27255185977023 24.33348962103829
5860 8 -0.0004121330417693864 -0.008993399463078389 0.09366974030795699 4 0 0 0 0
5861 8 0.000155258709153523 -0.008991826106178057 0.005382947796367702 2.219478719208255 -0.09845947283065717 -0.3658295770166388 -24.94458670935051 24.94746343112895
5862 8 -0.0001073270303203689 -0.008297369450418986 0.0775662724694173 4 0 0 0 0
5863 8 -0.0008439801272747645 -0.00859279171273813 0.02111584806785351 3.999988967166438 -0.0003091988721044478 4.308284568082378e-05 -0.000634015376886932 0.0007067075577858913
5864 8 -0.0003568330069178593 -0.008782820125414611 0.007078144135157623 3.045744300140391 -1.185272997264497 0.08164241361805687 -18.79478318582416 18.83229706020708
5865 8 -0.0004677552361977123 -0.00910048059013099 0.06347034692403916 4 0 0 0 0
5866 8 0.0005901154302659418 -0.009185296730111743 0.03457439075817038 3.999999999999468 1.2924565958714e-11 4.181880560538793e-12 -3.850737790739055e-11 4.083320564866725e-11
5867 8 -0.0003585095857358158 -0.00867086988337913 0.03737185895632937 3.999999999999993 -1.219665823313954e-14 4.431975515986386e-14 -4.295530083029409e-13 4.320055394454945e-13
5868 8 -0.0001122968052713863 -0.008335322443793283 0.07835920649301903 4 0 0 0 0
5869 8 -0.0007168070159828132 -0.008824206233999248 0.06179541845918655 4 0 0 0 0
5870 8 -0.0006019999824954264 -0.009210181915013551 0.0376504426701534 3.999999999999995 -3.886975170744522e-14 1.228553685432966e-14 -3.435660320285229e-13 3.459760257263811e-13
5871 8 -0.0001493700946545037 -0.008712321222923869 0.04235189941546397 4 0 0 0 0
5872 8 0.0001033826331780907 -0.009188239319670949 0.05994111689139654 4 0 0 0 0
5873 8 0.0006092669758189469 -0.009183877431241189 0.03539560691938107 3.999999999999803 2.177945078354814e-12 -1.109389907143001e-12 -1.71728925239547e-11 1.734596288390184e-11
5874 8 -0.0001606145337941876 -0.008729593105244302 0.0597116126604284 4 0 0 0 0
5875 8 -0.0001096476638394871 -0.009517145412704814 0.07881480820656983 4 0 0 0 0
5876 8 -0.0003971331918891933 -0.008790927778339164 0.06125860569047387 4 0 0 0 0
5877 8 1.95585330611412e-05 -0.008648835953151333 0.03817766860047277 3.999999999999998 -3.890892765914052e-14 2.358791331055182e-14 -1.569696406183264e-13 1.634312160567157e-13
5878 8 6.554973299689142e-05 -0.008471353946203275 0.0797076538379765 4 0 0 0 0
5879 8 -0.0001966741251155194 -0.009399739285528071 0.07751300032233178 4 0 0 0 0
5880 8 -0.0004389745197229641 -0.009093896932301235 0.06567161115503256 4 0 0 0 0
5881 8 0.0001083894355952003 -0.009212519644451217 0.03343765984070103 3.999999999997184 -1.864911664443579e-12 4.517738699853574e-11 -2.159202201680027e-10 2.206037526175164e-10
5882 8 -0.000337563968129327 -0.009336625249304033 0.03997992305549899 4 -3.927443129495699e-15 -9.542207329996255e-16 -2.546055737837256e-14 2.577935857929965e-14
5883 8 -0.0001589353914484031 -0.009402028491000265 0.0668436898372539 4 0 0 0 0
5884 8 -0.0004519121165934532 -0.009154169396396733 0.0929064064411973 4 0 0 0 0
5885 8 -0.0005242971423580084 -0.009061812627348863 0.01308442193265539 3.972816245363586 -0.04971515626512731 0.04380708261868035 -1.416372551906327 1.417921670277899
5886 8 4.35375513322237e-05 -0.008648327637036454 0.006321748215215625 2.749848796374891 -1.358359770186317 0.153218115623361 -20.09737072143792 20.14380616892264
5887 8 -0.0003938360206622541 -0.009244321593667396 0.0615551488713082 4 0 0 0 0
5888 8 -0.0001698893107518762 -0.008728047729624341 0.05939164417454476 4 0 0 0 0
5889 8 -0.0007231890240817068 -0.009324475587772985 0.01106780308507353 3.885381949578722 -0.3067981952067488 -0.1067469986368327 -4.442525157010828 4.454385459855733
5890 8 -0.0001459591512650683 -0.0100190489454029 0.01348495246219825 3.979425196846313 0.009000649591305998 -0.1978964231368741 -1.089783044605771 1.107642130967244
5891 8 -0.0001772754808583415 -0.009292099792714684 0.02540710295870304 3.999999939338312 -6.715501667988404e-08 5.555572966547904e-08 -4.80306773190969e-06 4.803858435952921e-06
5892 8 -0.0006691837644808194 -0.009184245365504249 0.06663761355208647 4 0 0 0 0
5893 8 -0.0004596841633878229 -0.008365404963327012 0.08066828642745749 4 0 0 0 0
5894 8 -0.0005500881920731505 -0.009026669730986663 0.07082119572779799 4 0 0 0 0
5895 8 -1.685104728527096e-05 -0.009415783454044761 0.04117643535913751 4 0 0 0 0
5896 8 -0.0002270904870487934 -0.008678902787706054 0.04544043514141952 4 0 0 0 0
5897 8 0.0001781664063293042 -0.009820447037026087 0.006466652610900743 2.802548227341546 -0.5578158584580641 -1.753659555165544 -20.04223614970364 20.12654243152206
5898 8 -0.000800786794225908 -0.008648305007833406 0.07023692797914746 4 0 0 0 0
5899 8 -0.0001029342142528319 -0.009767766256294641 0.02850760668932869 3.999999998858804 -2.594285365385774e-08 -3.288933851618325e-08 -1.1045944415108e-07 1.181356383395931e-07
5900 8 0.0002627657694755483 -0.008718974249231888 0.03753031140699806 3.999999999999995 -1.212389690434065e-14 4.433320420404013e-14 -4.294985550473204e-13 4.319507271192866e-13
5901 8 1.92753727159377e-05 -0.00925828628086631 0.03780889512082209 3.999999999999997 -3.604770824884652e-14 1.219610196983617e-14 -3.390654735314262e-13 3.411943398040813e-13
5902 8 -0.0004799743647983119 -0.009586804552147084 0.04069426065818596 4 0 0 0 0
5903 8 -0.0005205226791652436 -0.009150834297614745 0.02392317760007077 3.999999579813867 -5.792514096097701e-06 6.342028551396712e-06 -3.353361878219014e-05 3.461615423945122e-05
5904 8 -0.0002439851388501028 -0.008715277963520425 0.0214519533470247 3.999992788397353 -6.545997993719764e-05 -3.052977643865938e-05 -0.00045735716987243 0.0004630255468724071
5905 8 5.742726184890483e-05 -0.009162921840389616 0.0451627665357294 4 0 0 0 0
5906 8 -0.000461368642763849 -0.009146771838936311 0.04328658443781775 4 0 0 0 0
5907 8 -0.0004960335391420726 -0.009093353472080769 0.07050712951607949 4 0 0 0 0
5908 8 -0.0008536272412339877 -0.008647938998990558 0.02574490892158518 3.999999954029191 -6.362222887743762e-07 1.772713762688832e-07 -3.284513034492166e-06 3.350258171443883e-06
5909 8 -0.0006017111343930493 -0.008802448202502932 0.01134487991828166 3.904144233037428 -0.01615192603919654 0.1736341398154379 -4.164944092778456 4.168593167388056
5910 8 -8.880183205382873e-05 -0.008834710441936958 0.08066251737362494 4 0 0 0 0
5911 8 0.0001187066789126108 -0.0091866781422208 0.0593425092989881 4 0 0 0 0
5912 8 -0.0009245585005362299 -0.00888453514730507 0.05614770690292542 4 0 0 0 0
5913 8 -0.0005305704208270076 -0.008997271015820485 0.01914941187926597 3.99991592304892 -0.00101840928843247 -0.000611519473023435 -0.005430015623861878 0.005558433522138813
5914 8 -0.0001245833075809937 -0.008509189655131881 0.04716072659951104 4 0 0 0 0
5915 8 -0.0007343947754362251 -0.00961842054047608 0.0152027796714631 3.995385590715772 -0.0735368725569369 -0.02567483894950367 -0.2691546552821739 0.2801983180545593
5916 8 -0.0007309890942956499 -0.008670143161360741 0.09270673003057017 4 0 0 0 0
5917 8 -0.0001277716086884395 -0.009530741601655759 0.06310579668086062 4 0 0 0 0
5918 8 -0.0005034633741174843 -0.008292867879860468 0.07976397756561197 4 0 0 0 0
5919 8 -0.0002801232346979538 -0.008678793906550922 0.09315633112789692 4 0 0 0 0
5920 8 0.0001391011098151835 -0.009081952502329229 0.07949337803954704 4 0 0 0 0
5921 8 0.0004676222562936737 -0.009001059979581068 0.004989392436522507 1.903742435726446 9.570689134666909 -0.5809135081310672 -29.77189063351376 31.27780399756775
5922 8 -0.0007165976360002644 -0.009559409769480024 0.06793143714471002 4 0 0 0 0
5923 8 -0.0001999107915563506 -0.009515269585464824 0.0243600938514447 3.999999775782036 -2.610495786508759e-06 -4.434271358988816e-07 -1.281078869834007e-05 1.308157570592125e-05
5924 8 0.0002304534605873624 -0.009101913869147937 0.02114706139451852 3.999990534916949 -3.797204346483716e-05 -6.00648906003007e-05 -0.0005139556622746114 0.0005188449575276376
5925 8 -8.324529605201395e-05 -0.009458239401532328 0.08100500835165456 4 0 0 0 0
5926 8 -8.812894495117512e-05 -0.009417010037885728 0.07105144892786758 4 0 0 0 0
5927 8 -0.0001144281476095854 -0.009399685681484742 0.06971716388157602 4 0 0 0 0
5928 8 -0.0004258096984115178 -0.00897764454816964 0.04688818213214836 4 0 0 0 0
5929 8 -0.0005860670758426547 -0.009134810645346957 0.08965733766189496 4 0 0 0 0
5930 8 -0.000777657876617693 -0.009084914515619713 0.02850645920078227 3.999999998315314 -3.372411530664025e-08 1.556815295188817e-08 -1.106918066684179e-07 1.167576952627421e-07
5931 8 -0.0004367249373757449 -0.00908470412317804 0.06906828742515668 4 0 0 0 0
5932 8 -0.0001346776898322845 -0.009402308927153036 0.02205029398371242 3.99999664145571 -7.34140321893864e-05 -1.495805091402475e-05 -0.0002623198817610331 0.0002728096108581463
5933 8 -0.0007084266869966171 -0.00957378840546059 0.02186112898374669 3.999994610146554 -0.0001744006847824223 -8.082787344164454e-05 -0.0003653125030126092 0.0004127977335633202
5934 8 -0.0008528695499676947 -0.008577519081167606 0.07117053093203241 4 0 0 0 0
5935 8 -0.0007466945504468382 -0.009651721095092788 0.03419296028305616 3.999999999999074 -2.024851397413063e-11 6.38949729808621e-12 -5.346269539189592e-11 5.752467116333186e-11
5936 8 -0.00015930762809865 -0.009388104827426885 0.0853618127471842 4 0 0 0 0
5937 8 -2.864080082749262e-05 -0.008483074726154389 0.06098690398248315 4 0 0 0 0
5938 8 -0.0002050105464405768 -0.008815916612920818 0.03362215683369563 3.999999999997687 1.800808640860053e-11 1.323068445222588e-11 -2.796692365472732e-10 2.805605532823684e-10
5939 8 -0.0005376323290477741 -0.0096981082731026 0.08751810749829286 4 0 0 0 0
5940 8 0.0001456997682665751 -0.009223380609192752 0.08334426241597653 4 0 0 0 0
5941 8 -0.0004096745257639352 -0.009041623625709374 0.04755043084418125 4 0 0 0 0
5942 8 -0.0009222112729901253 -0.00881479183189952 0.0120198009730588 3.938930678220913 -0.3471032450779919 0.129240498990191 -2.453080486950203 2.480884448090791
5943 8 -0.0006556671336515887 -0.009697288507430016 0.01608883653428096 3.997942097895184 -0.02620832001031744 -0.01041441746470689 -0.1116182799857403 0.1151259160913281
5944 8 -0.0005338679842775765 -0.008449811675127176 0.03839928204438812 3.999999999999998 -2.122048925393016e-14 2.028627388481659e-14 -1.740340498422154e-13 1.764927550263428e-13
5945 8 -0.0007687727052093354 -0.009654014860072077 0.07834690103652647 4 0 0 0 0
5946 8 -0.0002040015463528293 -0.009440374387367837 0.03394951415052266 3.999999999998893 -3.813792956681348e-12 1.008774437495497e-11 -7.936662186692574e-11 8.009599409370259e-11
5947 8 -0.0008265173377806521 -0.008757323912013391 0.04358360003523372 4 0 0 0 0
5948 8 0.0001951581144732139 -0.00984339522255083 0.04242024717372504 4 0 0 0 0
5949 8 -0.0004628841227279783 -0.009145345325014181 0.04295445687807688 4 0 0 0 0
5950 8 -0.0005279189677719017 -0.009073370797998286 0.08722873950343105 4 0 0 0 0
5951 8 6.318146517896374e-05 -0.008877004288273999 0.06370640329893357 4 0 0 0 0
5952 8 -0.0001668274517035685 -0.009293205259916058 0.05015266468059118 4 0 0 0 0
5953 8 -0.0007895094365355979 -0.009381040961286075 0.0955253010845494 4 0 0 0 0
5954 8 3.45414696881301e-05 -0.008918375200762229 0.07841096045212548 4 0 0 0 0
5955 8 -0.0001292733375860382 -0.009530896279960512 0.04919832606702211 4 0 0 0 0
5956 8 0.0001529881331572439 -0.009220322150494533 0.0427143328869637 4 0 0 0 0
5957 8 0.0002627149444722117 -0.009224437554837317 0.006621992190126684 2.879389525839517 -0.7814444018659095 -0.362820738405421 -19.35115082573614 19.37032091943273
5958 8 -0.0001305834293765867 -0.009468237380655406 0.01586575483602761 3.997708365418442 -0.01270986858039091 -0.005868885500532962 -0.1295135686740281 0.1302679893413243
5959 8 -0.0006677188075838023 -0.009685988060394246 0.04321688805109202 4 0 0 0 0
5960 8 -0.0005655020737109514 -0.009192347769503471 0.05636584235396619 4 0 0 0 0
5961 8 5.988997281876955e-05 -0.009807932014246751 0.0596211484055129 4 0 0 0 0
5962 8 -0.0005096690425749413 -0.009177851772291528 0.01784568079021679 3.999621218829404 -0.003494816182969541 0.003320772849380987 -0.0240558239611296 0.02453413823468819
5963 8 0.0002107150389403091 -0.009030009827728421 0.09383675480798828 4 0 0 0 0
5964 8 -0.0002060083994868653 -0.009974375529231961 0.07986773528031495 4 0 0 0 0
5965 8 -0.0001576408789090795 -0.01001774176443439 0.04549078268273575 4 0 0 0 0
5966 8 -0.0007406471514898591 -0.009566592551611802 0.07065142856255874 4 0 0 0 0
5967 8 -0.0004854352610642467 -0.009157759948501874 0.03101088435025821 3.999999999935933 -7.498610447207913e-10 1.177466646128825e-09 -4.812293954280799e-09 5.010677837532877e-09
5968 8 -0.0002378554297034831 -0.009314148365700669 0.09222038721003677 4 0 0 0 0
5969 8 -0.0005408743119006862 -0.009205313235995679 0.02630265653762004 3.99999997927413 -2.340128922544876e-07 -1.197492968652695e-07 -1.714711696156802e-06 1.734744398687592e-06
5970 8 3.155310619297445e-05 -0.009857085223787136 0.0656917322264419 4 0 0 0 0
5971 8 0.0005667117293597767 -0.009260280331511878 0.04129685960037541 4 0 0 0 0
5972 8 3.277962989008412e-05 -0.009521649576981279 0.0877528669017284 4 0 0 0 0
5973 8 -0.0006945401819587701 -0.008614041100932349 0.05863505310061543 4 0 0 0 0
5974 8 -0.0005688563740153044 -0.009189164542264807 0.05663898576256186 4 0 0 0 0
5975 8 -0.0007190799898108613 -0.009272975284031201 0.00732978547719095 3.13196138275489 -1.198164729818951 0.09753722608554326 -19.30663293431159 19.34402200915052
5976 8 0.0001093984356829478 -0.009836977418898237 0.03376501715752807 3.99999999999839 1.968850322666593e-11 -2.953985299588768e-11 -1.484625151949637e-10 1.526478250494907e-10
5977 8 -0.0004723013960716678 -0.009157613682945754 0.08310858476600015 4 0 0 0 0
5978 8 -0.0004733511998756089 -0.009156636046967294 0.08282976489936958 4 0 0 0 0
5979 8 -0.0003371009907505849 -0.008980703720254193 0.04081470096010119 4 0 0 0 0
5980 8 -0.0005374917132731629 -0.008970892177395639 0.09173074927629483 4 0 0 0 0
5981 8 -0.0001520825535357717 -0.008783705233215837 0.04807944185174843 4 0 0 0 0
5982 8 0.0001922600319294023 -0.009232771841351795 0.08398150760825347 4 0 0 0 0
5983 8 -0.0001781114390512056 -0.009438082819767518 0.01233663630413678 3.953847531841856 -0.163382086140936 -0.02391492878634725 -2.075362775013825 2.08192129481489
5984 8 1.012776894781226e-05 -0.009397138732819998 0.08467702774502826 4 0 0 0 0
5985 8 -0.0005050839860412466 -0.009126951550721463 0.03450530044235513 3.999999999999342 -1.881428881405718e-11 7.944533083160073e-12 -5.230258824420059e-11 5.614849781187891e-11
5986 8 -0.0005803923904567153 -0.008781167312138155 0.02483476677938286 3.999999869739522 -4.585204032288828e-06 -1.445881754149196e-06 -1.07450018867668e-05 1.17715647053109e-05
5987 8 -0.0002009295569490608 -0.009541710485630763 0.05564009028021679 4 0 0 0 0
5988 8 -3.8386831531977e-05 -0.00977326353032016 0.03964215827788276 4 5.780135755836156e-15 -1.818808645997028e-14 -4.075886771039544e-14 4.50055747154146e-14
5989 8 5.335209441738943e-05 -0.009451748579424222 0.06877653319851333 4 0 0 0 0
5990 8 -0.0006430674463022566 -0.009625384714625426 0.06938868157119714 4 0 0 0 0
5991 8 0.0003865169967548078 -0.009315867671214458 0.06043968298274402 4 0 0 0 0
5992 8 -0.0007114962911829801 -0.008470094135950063 0.0601688016233103 4 0 0 0 0
5993 8 -0.0004972513689198141 -0.009078684376728922 0.08136139309406916 4 0 0 0 0
5994 8 8.238384539672132e-05 -0.009832516499952232 0.07773003482241186 4 0 0 0 0
5995 8 -0.000193221055062515 -0.00956270932255761 0.01835192817997002 3.999789085096053 -0.001407445483596972 -0.001148515494062147 -0.01162575996014996 0.01176682987386256
5996 8 6.132153254860315e-05 -0.008880310828435083 0.07732549596422181 4 0 0 0 0
5997 8 0.0004379902538014248 -0.008696591533184141 0.04739674260450526 4 0 0 0 0
5998 8 0.0001962284546734422 -0.009846084052902224 0.08364981306359959 4 0 0 0 0
5999 8 -0.000455191649000314 -0.009218829633283715 0.07468622730927782 4 0 0 0 0
6000 8 -0.0002170892656915503 -0.008827400248158111 0.08224609789030732 4 0 0 0 0
6001 8 -0.0007842535209626778 -0.008618089063681684 0.09551744507933799 4 0 0 0 0
6002 8 -0.0004454790867894995 -0.009125062783125602 0.0769165762672277 4 0 0 0 0
6003 8 -0.0005844245689077206 -0.008569192808336307 0.05697452553165315 4 0 0 0 0
6004 8 4.249299116595655e-05 -0.008896912101876967 0.08746349890686658 4 0 0 0 0
6005 8 0.0001035884118467358 -0.009431301429614201 0.04031468489942387 4 0 0 0 0
6006 8 -0.0001766070510080475 -0.009451041724701027 0.08187492752176573 4 0 0 0 0
6007 8 0.0001446499644626341 -0.00922240297321429 0.08256544254934597 4 0 0 0 0
6008 8 0.000427784873835038 -0.009300208547476015 0.07859159212395384 4 0 0 0 0
6009 8 -0.0005383868942730928 -0.009048615682382202 0.01515864931814691 3.995333030158355 -0.03885279512533645 0.01270595869660592 -0.3016505686802345 0.3044076980967467
6010 8 -0.0002537233002137986 -0.009613082349564444 0.06815980315217851 4 0 0 0 0
6011 8 0.0001728794166045603 -0.009844237921659692 0.01055558285620755 3.83975463687156 0.3312565396741331 -0.2931196226983265 -5.458876620412162 5.476767656672154
6012 8 -0.000424224656411435 -0.009172727634905948 0.03707079593027217 3.99999999999999 -9.713885792774647e-14 -2.960926141327907e-14 -8.521144488303215e-13 8.581443351711584e-13
6013 8 -0.0009790467009162373 -0.008733609302322949 0.07789742695902591 4 0 0 0 0
6014 8 0.0001970506987999291 -0.009220832000758707 0.03672924838094085 3.999999999999979 5.196960874642134e-13 -1.894274450072396e-13 -2.078728421177179e-12 2.151064533959256e-12
6015 8 -0.0001860053890529722 -0.009445084271907329 0.07356114450334883 4 0 0 0 0
6016 8 0.0005979010095091428 -0.009249216817503627 0.08446107840186839 4 0 0 0 0
6017 8 0.0002599185449101563 -0.009723431099546462 0.04549470374364203 4 0 0 0 0
6018 8 -0.0008350904300297933 -0.008761633321911115 0.08251042024033092 4 0 0 0 0
6019 8 9.191436131692632e-05 -0.008859005090037352 0.06939676973553555 4 0 0 0 0
6020 8 -9.85135134180988e-05 -0.009338712881824722 0.01067102774202687 3.852448683236395 0.2941886962515985 -0.0875438154236115 -5.317264607050849 5.326116203202552
6021 8 -0.0007987231774068278 -0.008815577715676669 0.07405517295542842 4 0 0 0 0
6022 8 -0.0004904797157141065 -0.00914386854445046 0.03539385516036324 3.999999999999817 -3.669499692194943e-13 -1.053019362749149e-12 -1.65911770526563e-11 1.662860962470476e-11
6023 8 -0.0005250160846733934 -0.009065411725298582 0.08681005749615475 4 0 0 0 0
6024 8 -0.0005561887862925283 -0.009079343281227076 0.04475664162705238 4 0 0 0 0
6025 8 -0.000708100073806997 -0.00974480076382709 0.005819518440765132 2.461545602025033 -2.805681070536435 -2.655970140670468 -21.28271473592324 21.6305332848819
6026 8 9.288096698938107e-05 -0.009799103385355393 0.02563366022849603 3.999999951657026 -1.234610599734607e-07 -8.517764418668762e-07 -3.602242972375295e-06 3.70363607449171e-06
6027 8 -2.751540147356592e-05 -0.00950780809500882 0.08623988902265095 4 0 0 0 0
6028 8 -0.0003028892282307448 -0.008930039114847438 0.05598938182414485 4 0 0 0 0
6029 8 9.153091676163222e-05 -0.009798353870706551 0.05037127549515679 4 0 0 0 0
6030 8 0.0004017376942561905 -0.009307492656526951 0.04936511092214613 4 0 0 0 0
6031 8 -0.0005187162229826099 -0.009061981188567525 0.09095580886168859 4 0 0 0 0
6032 8 -0.0002032060350862367 -0.009371455689859191 0.06403992477572179 4 0 0 0 0
6033 8 -0.000101258356082254 -0.00900420617325871 0.06627390233947086 4 0 0 0 0
6034 8 -0.0008753593124505549 -0.008841224814290224 0.02667606728898439 3.999999984253945 -4.843554879102313e-07 1.574236658835702e-07 -9.446637163069931e-07 1.073206404265237e-06
6035 8 -0.000206432863597818 -0.008783266527495477 0.0700656307377793 4 0 0 0 0
6036 8 -0.0005024423293736845 -0.009143783080204205 0.03171802899743051 3.99999999997401 -1.255063357004575e-10 1.689657908112475e-10 -2.07836510446297e-09 2.088995640544709e-09
6037 8 -9.13588014086179e-05 -0.008714279838897547 0.05210998820832308 4 0 0 0 0
6038 8 -0.0004374251521438008 -0.009085821020696612 0.0488781720200641 4 0 0 0 0
6039 8 -0.0001081410135859545 -0.008706753526010773 0.09237374453060146 4 0 0 0 0
6040 8 -0.0002641949842162749 -0.008715673818858814 0.07235368254120235 4 0 0 0 0
6041 8 6.031485804338901e-05 -0.008898154099873762 0.01616295480490867 3.998230248146825 -0.01646096135294136 0.003066674443189709 -0.09463297948851934 0.09610290603138942
6042 8 -9.180728528091311e-05 -0.008823795976470376 0.06195374826531217 4 0 0 0 0
6043 8 7.384930576871601e-05 -0.008243194317277399 0.04833545791465453 4 0 0 0 0
6044 8 -0.0001244471950384378 -0.009335686573395447 0.05160998820832308 4 0 0 0 0
6045 8 -0.0007146561149181902 -0.008596303355163577 0.0478434258467542 4 0 0 0 0
6046 8 0.000168084315225505 -0.009845522162351185 0.05733817422448286 4 0 0 0 0
6047 8 0.0001528990356184833 -0.009229025503761631 0.04778644684917547 4 0 0 0 0
6048 8 3.760901805276227e-05 -0.008915604842996513 0.03426185430982163 3.999999999999162 -4.401979202332751e-12 1.291926301023465e-11 -7.021221928256255e-11 7.152650218071646e-11
6049 8 0.0001391145540979052 -0.008237188522391675 0.0596191033614402 4 0 0 0 0
6050 8 -0.0007888933343003576 -0.008620088993254497 0.004409456526723265 1.46851522030709 0.4689890501820448 0.9759539762069402 -20.63549366954804 20.66388240091445
6051 8 0.0001809831171199218 -0.009235817937587459 0.03845210591450221 3.999999999999998 -2.539267265326688e-14 -5.905184178763281e-15 -9.438639737015289e-14 9.792063640100328e-14
6052 8 -0.0001059441922947625 -0.008760421613608908 0.05833591822505875 4 0 0 0 0
6053 8 -4.076239359865296e-05 -0.008774454562484726 0.0849747192440336 4 0 0 0 0
6054 8 1.405181300513433e-05 -0.009413313991606109 0.04664183046887944 4 0 0 0 0
6055 8 -0.0006561364896530434 -0.009605919754345429 0.05780985065537771 4 0 0 0 0
6056 8 -0.0001399119308145489 -0.009480832977470793 0.02364641618347453 3.999999466716566 -3.914947925277757e-06 1.818373179141041e-06 -4.103060399979844e-05 4.125704500887735e-05
6057 8 -0.0003290172157848756 -0.00883725830096452 0.09008803461014646 4 0 0 0 0
6058 8 0.0004089900169501624 -0.009221989298754726 0.06647997862463831 4 0 0 0 0
6059 8 0.0004031650926882365 -0.009307265299798768 0.06334185305575503 4 0 0 0 0
6060 8 -0.0002975357623265173 -0.008829029125951258 0.01212302563001213 3.945460667379804 -0.2234037426768316 0.1113274243036421 -2.362197969521608 2.375348874345852
6061 8 0.0007004926241826967 -0.009303244313539448 0.004751805066994186 1.690892664589438 0.000755863736017742 1.732383204404441 -20.57403531465126 20.64684191993414
6062 8 -0.0008231554014461001 -0.008521633089272639 0.07936907009535417 4 0 0 0 0
6063 8 -0.0004531402685841568 -0.00860129806577839 0.07499844505351071 4 0 0 0 0
6064 8 -0.0001974455561441857 -0.008749121693277066 0.06430855506382373 4 0 0 0 0
6065 8 -0.0003863316734230361 -0.008612677448268212 0.08931043508783942 4 0 0 0 0
6066 8 4.122154799871364e-05 -0.009798174600736663 0.09242006362066388 4 0 0 0 0
6067 8 0.0007046296321109769 -0.008697815666041621 0.004737587369528321 1.687244726330551 0.0007538178635428283 -2.381834034672881 -20.51834822394285 20.65613099725954
6068 8 -0.0005811123067493014 -0.009069931944235039 0.07291747491956535 4 0 0 0 0
6069 8 4.358654179381249e-05 -0.008806408642611627 0.02523068899084447 3.999999928947174 -3.816155142394096e-07 -1.931046045742525e-07 -4.115138467266405e-06 4.13730400064966e-06
6070 8 -0.0001737758369331466 -0.008821314389880725 0.07391155000911981 4 0 0 0 0
6071 8 0.0001695108219546123 -0.009241523254655049 0.0585598623126901 4 0 0 0 0
6072 8 -0.0007506275720096316 -0.008519804195877318 0.04109657000709807 4 0 0 0 0
6073 8 -0.0007232305353896247 -0.009686101565980728 0.007059845370233036 3.02947300293861 -1.498885024771307 -0.4572767777606778 -19.1735122691451 19.23744606500615
6074 8 0.0004284656124626806 -0.009240182912110513 0.08564586340402433 4 0 0 0 0
6075 8 -0.0005409836517987481 -0.009263648248907252 0.09516514635218393 4 0 0 0 0
6076 8 -0.0009018364453539836 -0.009442985173389495 0.04592711792596593 4 0 0 0 0
6077 8 -0.0005110204613248948 -0.009112498670378444 0.0891003348590598 4 0 0 0 0
6078 8 -0.0006913842578691674 -0.008591865126190484 0.0524112607161403 4 0 0 0 0
6079 8 0.0001417313455225352 -0.00861006839764232 0.08367595696063042 4 0 0 0 0
6080 8 0.000154403412519716 -0.009035024749204382 0.05535690422327526 4 0 0 0 0
6081 8 -0.0006978384835457973 -0.009516608883349618 0.04998587982546718 4 0 0 0 0
6082 8 -0.000758934970152347 -0.009598266254171376 0.01265927380774884 3.961537119435986 -0.4095066906149513 -0.2250805832790454 -1.806380020186511 1.865841841088538
6083 8 -0.0007941702790510922 -0.009375607903243606 0.004451778042771604 1.501976896479787 0.6731261204377078 -1.399220633487887 -20.92044334878632 20.97798529566106
6084 8 -0.0004540207622296976 -0.009219930108325143 0.07435478419558972 4 0 0 0 0
6085 8 -0.0001749263663555785 -0.009471897403656081 0.0360749086877431 3.999999999999941 4.662116015838471e-13 -3.173740559114343e-12 -6.124626850901534e-12 6.913829362719537e-12
6086 8 -0.0006714166794473575 -0.009639540481714283 0.0527407625997695 4 0 0 0 0
6087 8 -0.0005569082291870599 -0.009105484320250597 0.08841103730348507 4 0 0 0 0
6088 8 0.0001553891716324111 -0.009245478718676982 0.07659108030300579 4 0 0 0 0
6089 8 -0.0005749837708816861 -0.009174061438261315 0.01885310011798115 3.999874088294939 -0.002235412633793793 -0.001060491857792513 -0.009669290093648111 0.009980825794436581
6090 8 -0.0007107558637445132 -0.009634631867457189 0.08944723743311533 4 0 0 0 0
6091 8 9.832039148601743e-05 -0.00922831499174284 0.07033583227471132 4 0 0 0 0
6092 8 -0.000721929140201091 -0.008645520865153689 0.07667873335362463 4 0 0 0 0
6093 8 0.0001545036131213732 -0.009221748664416662 0.04354646044670456 4 0 0 0 0
6094 8 0.0001089062693060431 -0.009213075470871183 0.03262553040471579 3.999999999993315 -6.887321774440287e-11 4.517738699800053e-11 -4.158923669014866e-10 4.239704910313403e-10
6095 8 -0.0006693384845454006 -0.009697882206737615 0.08294330534343479 4 0 0 0 0
6096 8 5.652638874313285e-05 -0.008901629192945005 0.01276178442904332 3.965126657769456 0.0107961905412852 0.09475623927623719 -1.529878405101437 1.532848080211375
6097 8 -0.0004700247103713506 -0.00832406414185646 0.08473396463507656 4 0 0 0 0
6098 8 -0.0007644188392008434 -0.009609237514429235 0.07324340565137002 4 0 0 0 0
6099 8 -0.000209477798522281 -0.009516643695215403 0.08880727550922105 4 0 0 0 0
6100 8 5.114153932025989e-05 -0.00883858525554671 0.01933480245889643 3.999932086788673 -6.32156931124325e-05 -0.0004539488883144725 -0.004104267585484239 0.004129779440879895
6101 8 -1.489600670552131e-05 -0.008651641431637698 0.05451704745919247 4 0 0 0 0
6102 8 -9.356404268504338e-05 -0.008915960488599418 0.07497159391362029 4 0 0 0 0
6103 8 -0.0001414220416303775 -0.009427273081581856 0.06221037796388168 4 0 0 0 0
6104 8 5.221328837990227e-05 -0.008932521836725509 0.03565040902782974 3.99999999999988 7.174939589573804e-13 -5.814964891764701e-13 -1.476101251296426e-11 1.478987579920644e-11
6105 8 0.0004889046753703101 -0.00866941749465883 0.08043280531060405 4 0 0 0 0
6106 8 0.0005005882297038211 -0.008708207525463946 0.06078946322622382 4 0 0 0 0
6107 8 -0.0002293978794656639 -0.008669871965308721 0.02569339712081455 3.999999956703254 -4.874287936477519e-07 1.627975978773542e-07 -3.415113926327285e-06 3.453562366100561e-06
6108 8 -8.350583077108714e-05 -0.008688881668774552 0.0503934524463746 4 0 0 0 0
6109 8 -0.0004464268837026938 -0.009110238467500252 0.06273033765189362 4 0 0 0 0
6110 8 -0.0002286965674205618 -0.008923708967769202 0.0569304422470366 4 0 0 0 0
6111 8 -0.0005561331294663054 -0.00882554644952749 0.01640670741515544 3.998462350645848 -0.01187390867050858 0.004659635639220618 -0.1005810055382872 0.1013865897764534
6112 8 -0.0001988321738129221 -0.008780636393580916 0.02226952748750723 3.999997365537414 -7.053732614550502e-05 1.021049876820722e-05 -0.0002079589811371883 0.0002198333607541638
6113 8 -0.0007341427364629127 -0.009594931991716182 0.06380386840082738 4 0 0 0 0
6114 8 -0.0006812444529314712 -0.009564880442977932 0.06497696703392181 4 0 0 0 0
6115 8 0.0003427248460117417 -0.008715404271200954 0.09332334562792818 4 0 0 0 0
6116 8 -0.0008756013125007073 -0.009001625943894516 0.09576044477908816 4 0 0 0 0
6117 8 -0.0007109009165944593 -0.009510078518747132 0.04727788637681857 4 0 0 0 0
6118 8 2.896122300239655e-05 -0.009165358588266543 0.07260031435330846 4 0 0 0 0
6119 8 -0.0001775283745592176 -0.008850057812365107 0.03640376755879061 3.999999999999975 7.801710173245533e-13 -3.630281981218053e-13 -1.517824876736298e-12 1.744777534628513e-12
6120 8 -0.0001586912485738995 -0.009146024710313129 0.02821183361547238 3.999999998255349 -4.908359182231099e-08 2.04203830155801e-08 -1.107786317118295e-07 1.228743108734587e-07
6121 8 -0.0001268503300443148 -0.009380841965565418 0.05804272330968839 4 0 0 0 0
6122 8 -0.0002854806290228135 -0.008989137910215864 0.0684534798137643 4 0 0 0 0
6123 8 -0.0007831644248093934 -0.009366763425030511 0.01642487811154101 3.998483502938854 -0.01381948252734442 0.003063037609581645 -0.1007632663605032 0.1017526222972116
6124 8 -0.0001907079476404053 -0.009441156772187424 0.0902622489056356 4 0 0 0 0
6125 8 -0.0002106450818954299 -0.008832300737493743 0.04384347604412053 4 0 0 0 0
6126 8 0.0002022725272928817 -0.00920004179459024 0.05461113998424717 4 0 0 0 0
6127 8 -0.0008969042791129036 -0.009489613488037615 0.07198070097890785 4 0 0 0 0
6128 8 -0.000149515949258863 -0.009471071932222635 0.01762057406860511 3.999560891025157 -0.002683687104295551 0.001502316088847181 -0.0265220076890957 0.02669973823776223
6129 8 -0.0007343566178564749 -0.008584624095855269 0.04925121880832529 4 0 0 0 0
6130 8 0.0001709359641162423 -0.009190779761046767 0.09257342094122856 4 0 0 0 0
6131 8 4.539587426446481e-05 -0.008888953029177263 0.08654481689959029 4 0 0 0 0
6132 8 8.64770687150931e-05 -0.009789874197875616 0.05435722187296727 4 0 0 0 0
6133 8 -0.0005357277362258298 -0.008771873688251336 0.09515729034697253 4 0 0 0 0
6134 8 -0.0001323459796060599 -0.009402928313201489 0.04828894081228201 4 0 0 0 0
6135 8 -0.0001210608817791806 -0.00876593680070507 0.07635323738940274 4 0 0 0 0
6136 8 0.0004041466814361001 -0.00930775608917293 0.016628329796899 3.998838352564736 -0.0003677446048723215 -0.005758443261630155 -0.05778803469913359 0.05807539805528752
6137 8 -0.0008283127182477001 -0.009456962915887782 0.09206338462717702 4 0 0 0 0
6138 8 0.0002311637100396459 -0.009243911336138524 0.06171347867743383 4 0 0 0 0
6139 8 -0.0001403011182267296 -0.01002599510053248 0.06706635054118903 4 0 0 0 0
6140 8 -0.0007645301092414242 -0.008567895438765532 0.06458672058474249 4 0 0 0 0
6141 8 -0.0001781500116370335 -0.009456267341880386 0.04425869824669188 4 0 0 0 0
6142 8 9.358587969842786e-05 -0.008862417397263051 0.04854495687518812 4 0 0 0 0
6143 8 -0.0007598335213815509 -0.009690767093335226 0.02610699665721466 3.999999968342312 -8.612300260970931e-07 -7.36520985404595e-07 -2.485793072904849e-06 2.731912795294588e-06
6144 8 -0.0007089239231053828 -0.008493521026752836 0.04648103835485905 4 0 0 0 0
6145 8 -0.0009402732398633654 -0.008745600851311952 0.08992046195484703 4 0 0 0 0
6146 8 0.0001979708822071687 -0.008814546308711143 0.05131356056198606 4 0 0 0 0
6147 8 -1.036789535191437e-05 -0.00889840614144285 0.08816015405133724 4 0 0 0 0
6148 8 -0.001027707952735687 -0.009105229239338293 0.04222801427544803 4 0 0 0 0
6149 8 -0.0003736627980399738 -0.00898920593702167 0.05097806753216994 4 0 0 0 0
6150 8 -0.0001189129439364225 -0.009388805381943482 0.07606031611559258 4 0 0 0 0
6151 8 -0.0005814339088520968 -0.009181867326462173 0.03027163798992426 3.999999999826101 -4.641803183624778e-09 -8.669827313028308e-10 -1.87065960468518e-08 1.929338569334003e-08
6152 8 -0.0006460156900110418 -0.009615965922921075 0.07588574316637273 4 0 0 0 0
6153 8 0.0005819913931100606 -0.009226049546283536 0.0691050155088922 4 0 0 0 0
6154 8 -0.0003448104052976225 -0.0086123580613469 0.02408138185101202 3.999999633636194 -5.887396180353587e-06 4.647844742765117e-06 -3.369158683191417e-05 3.451647313660108e-05
6155 8 0.0002464617858944627 -0.008825200597721308 0.04043512520133909 4 0 0 0 0
6156 8 0.0002208945635052563 -0.009683569387517892 0.07981915285702496 4 0 0 0 0
6157 8 -0.0008551825460969007 -0.008700586181310619 0.01899870533012864 3.999886574304458 -0.003908080205539456 0.0001819980635231262 -0.008510161688582847 0.009366379564905469
6158 8 -0.0003724434002187958 -0.009036793659563305 0.03867371935841757 3.999999999999999 -6.145071552886695e-15 -9.341674720459823e-15 -1.133928670772038e-13 1.139428413502199e-13
6159 8 5.244374123803189e-05 -0.008423353378421056 0.05570619576720333 4 0 0 0 0
6160 8 0.0001748525376941136 -0.009194030279565045 0.05061206326094021 4 0 0 0 0
6161 8 0.0001913694470655812 -0.009228093103221842 0.05235894900776222 4 0 0 0 0
6162 8 -0.0004730819351364546 -0.00917742903702462 0.02294549246410297 3.999998700982539 -1.548979998251085e-05 -1.316119606053847e-05 -0.0001099081374103229 0.0001117718643230422
6163 8 0.0001475299524735226 -0.009229614424954737 0.02263240871547691 3.99999845093396 -2.976230637395894e-05 -9.842267320656891e-06 -8.82027194656103e-05 9.360761095038063e-05
6164 8 -0.0004086560093949683 -0.009105678390514779 0.05266022151557945 4 0 0 0 0
6165 8 -0.0007709923996456221 -0.009690745515318368 0.02470072813315084 3.999999818048681 -3.038043563806437e-06 -7.245107662187069e-07 -1.251163484929429e-05 1.289556633684724e-05
6166 8 0.0001996527070035682 -0.009842671592049681 0.03640038950989334 3.999999999999945 1.153185810777419e-12 -4.083237390833658e-12 -5.233156500899742e-12 6.737105614949914e-12
6167 8 0.000102680417460523 -0.009183549943610569 0.06455895577207106 4 0 0 0 0
6168 8 0.0002749159984788725 -0.009387383316423758 0.06798828546255739 4 0 0 0 0
6169 8 0.0003370625353128645 -0.009309565516407653 0.08855639225707321 4 0 0 0 0
6170 8 0.000122101589497482 -0.00983676717999534 0.03233230652099953 3.999999999990072 -1.716199696608663e-11 -3.135314751636155e-10 -8.018661272090818e-10 8.611537644482709e-10
6171 8 0.00070691497644436 -0.009007556921587546 0.03894608985159294 3.999999999999999 5.688539406572042e-15 -5.465371878150467e-15 -5.653961751081222e-14 5.70872850870975e-14
6172 8 -0.0004644041356367156 -0.009002323689099034 0.06483712129298984 4 0 0 0 0
6173 8 8.450981767398221e-05 -0.008886762165643261 0.06246639402678801 4 0 0 0 0
6174 8 2.518894823583516e-05 -0.009226468094999524 0.08982491031719439 4 0 0 0 0
6175 8 -0.0004025348048313498 -0.009062608149342203 0.07572365241401793 4 0 0 0 0
6176 8 0.000491857567284549 -0.009255432762961412 0.0707313666532427 4 0 0 0 0
6177 8 -0.0002476684149414843 -0.008529799890784232 0.06597561567016257 4 0 0 0 0
6178 8 -0.0007238240701351867 -0.009669275319513513 0.03189945234696087 3.999999999978685 -5.671095874349019e-10 -2.73988129070524e-10 -1.653609726214089e-09 1.769493686245301e-09
6179 8 0.0001732631038622028 -0.009223130438632566 0.05733115070310851 4 0 0 0 0
6180 8 -0.0007864105112119666 -0.008679977455975483 0.06309488789507217 4 0 0 0 0
6181 8 -0.0008404139733087197 -0.008618763399389148 0.01492321539948459 3.99366973809923 -0.07458862759108896 0.05684446339545668 -0.3447972793421595 0.3573232713193961
6182 8 -2.419851768872964e-05 -0.008976793349196979 0.02451829810238595 3.999999829604364 -3.077380039131374e-06 -1.944480497242879e-06 -1.524586494362681e-05 1.567442726828355e-05
6183 8 -0.0007579199118738512 -0.008699762538073428 0.05740128990009373 4 0 0 0 0
6184 8 0.000177707425966123 -0.009881304044533485 0.01570694309876694 3.997225991427103 0.008191152606438492 -0.03121392155164527 -0.1693970915104221 0.1724435516099241
6185 8 -9.22716661123283e-05 -0.01003049300682592 0.02099987347020172 3.999986242736444 -0.0002885479102592528 -0.0008560613464076478 -0.0009000550626644094 0.001275225486396853
6186 8 0.0004309069579563346 -0.009311239770080616 0.05332184483954101 4 0 0 0 0
6187 8 -0.0007569173125704208 -0.009619845991017884 0.04457696256613451 4 0 0 0 0
6188 8 9.551706983445083e-05 -0.008195430541901373 0.06567288436754658 4 0 0 0 0
6189 8 -0.0007777890264328747 -0.00858862316539194 0.0810366682419186 4 0 0 0 0
6190 8 5.29655752710541e-05 -0.008828077627208528 0.09188775185915457 4 0 0 0 0
6191 8 0.0002116844364541601 -0.009851286958526858 0.0224131752116821 3.999997726852256 -8.338820552226412e-06 -9.173496000082926e-05 -0.0001485223496726958 0.0001747676376416827
6192 8 7.983307759185286e-05 -0.009778025985054051 0.009618121731161382 3.718689828206145 0.2361629771008182 -0.8549847623290254 -10.00845473590268 10.04768322033397
6193 8 -0.0006960808752855803 -0.009510346201705974 0.05127449517850695 4 0 0 0 0
6194 8 0.0007241903535354094 -0.008993706333748054 0.0370547487210275 3.999999999999982 9.990981262335547e-13 -8.549789102582819e-14 -1.625514003435834e-12 1.90992217919455e-12
6195 8 9.691993851847193e-05 -0.009805883940192696 0.06429032548396912 4 0 0 0 0
6196 8 -0.0001341055968304227 -0.008332277989682385 0.05370717998276243 4 0 0 0 0
6197 8 -0.0005459311261617045 -0.008315424020697681 0.004232798475267048 1.295973684284343 -0.0005250203266635571 0.0006737242438681155 -16.8988456265086 16.89884564809442
6198 8 6.728189265581434e-06 -0.00901537567798754 0.01853849069761161 3.999838216717604 -0.001427135887630878 -0.001240234517793393 -0.01176402604739229 0.01191499925911095
6199 8 0.00019032510747425 -0.009844734145732104 0.06998736541850806 4 0 0 0 0
6200 8 0.0006621897909705137 -0.009000726763986463 0.0769999999999999 4 0 0 0 0
6201 8 0.0008891064301801356 -0.008873088855584721 0.03499703344134335 3.999999999999583 2.537441826471689e-11 1.011955680770209e-11 -3.09837103959226e-11 4.130686192578069e-11
6202 8 0.0006500000000007913 -0.008999999999999814 0.033 3.999999999995095 4.79526631013893e-11 4.517738699889037e-11 -2.757013098868354e-10 2.834636951496252e-10
6203 8 6.758297181074387e-05 -0.01001968191341308 0.0349664103687416 3.999999999999676 9.30741049775216e-13 -3.133936551167056e-13 -1.831590796964777e-11 1.834221849279446e-11
6204 8 -0.0002517260173138264 -0.008856653499600563 0.0285004431378744 3.999999998637143 -5.419513308789973e-08 1.181103789797062e-08 -1.292622851212811e-07 1.406604117064138e-07
6205 8 -0.0007078097563176301 -0.009505578422152144 0.03879542463831011 3.999999999999999 -7.256686361011912e-15 -9.845146807753667e-15 -1.125368142392798e-13 1.131994742555569e-13
6206 8 -0.0005203555209834815 -0.009172603265783735 0.0274266423803287 3.999999994198441 -2.020199387709637e-08 5.385015963214665e-08 -6.520755202099181e-07 6.546070915488566e-07
6207 8 0.000689857653907805 -0.008995832761191135 0.06288504904857398 4 0 0 0 0
6208 8 -0.000911296759102476 -0.008961462169060127 0.09403626268486268 4 0 0 0 0
6209 8 -0.0008407065351902265 -0.008595324228543514 0.04503431023274251 4 0 0 0 0
6210 8 -0.0007034747444536221 -0.009644491240218591 0.07710408062533768 4 0 0 0 0
6211 8 0.0001851321791461369 -0.009846044449757204 0.08219427218080438 4 0 0 0 0
6212 8 -2.698856601430206e-06 -0.008905778701713133 0.07323521377154416 4 0 0 0 0
6213 8 7.174106556160713e-05 -0.008919166638380414 0.09061281144454833 4 0 0 0 0
6214 8 -0.0009234904563743064 -0.009490612032163412 0.0139593226922191 3.986224414299861 -0.2590490899688536 -0.1382209911089245 -0.7490264945107619 0.8045198337368104
6215 8 6.894194412101474e-05 -0.008254670291691872 0.0639750335870355 4 0 0 0 0
6216 8 0.000576878354942204 -0.008451012689171922 0.09576720152473298 4 0 0 0 0
6217 8 0.00014860468420506 -0.009861943606611559 0.05826666739731973 4 0 0 0 0
6218 8 -0.0006723587430070536 -0.009650749383438847 0.06247432158898727 4 0 0 0 0
6219 8 -0.0007025127352445358 -0.009436104192590986 0.008758187315048866 3.540133232103476 -0.9443471774656597 -0.4128488106416325 -14.89979200491051 14.93539545916447
6220 8 -0.0005412955427623293 -0.008311798147230343 0.09575700030024983 4 0 0 0 0
6221 8 0.0006690679177257383 -0.009001348441945296 0.06497543429528285 4 0 0 0 0
6222 8 0.0001575371094751692 -0.009868347299915394 0.07629815902919565 4 0 0 0 0
6223 8 0.0005828331872635502 -0.009547566651810708 0.004251805066994186 1.300592816167758 0.0005350608767786797 -0.0002302671245911587 -16.04106150959115 16.04106152016754
6224 8 -0.0008584508919896735 -0.008701339295413639 0.08870409665332384 4 0 0 0 0
6225 8 -0.0005453101613810088 -0.009900492982193625 0.07954039668912802 4 0 0 0 0
6226 8 0.0007495951617447078 -0.008987847268603235 0.07904906165965186 4 0 0 0 0
6227 8 0.000636194562782292 -0.008999343191252118 0.04484450221628677 4 0 0 0 0
6228 8 -6.656820258286311e-05 -0.008315268167157509 0.09043859714905918 4 0 0 0 0
6229 8 0.0005869701951918317 -0.008453493327770361 0.004237587369528321 1.296943984390809 0.0005329944390875895 0.0002973466861161638 -16.65006556542395 16.65006557661004
6230 8 -0.0001481041545766027 -0.01002998968257176 0.07135065506808996 4 0 0 0 0
6231 8 -0.0007543135584321863 -0.009616334671979155 0.08160463958478661 4 0 0 0 0
6232 8 -0.0006928285620369153 -0.009716847029146844 0.05653367815572743 4 0 0 0 0
6233 8 -0.0004647247927614517 -0.008187202915388476 0.05536210324214863 4 0 0 0 0
6234 8 -0.0002519554941217565 -0.008915336204421306 0.02704649984428596 3.999999989963215 7.699005472144895e-09 6.14930981624128e-08 -6.83629241366417e-07 6.86432527972047e-07
6235 8 0.0008117642302889988 -0.009020230098118498 0.006976313495040822 3.012963824131142 1.392127608932001 -0.08239781603316527 -18.1665647562117 18.22001327445375
6236 8 -0.0005760104000578474 -0.008206710207613748 0.006777900160246564 2.916203570675765 -2.5638759131329 2.36516072009385 -19.34169472362348 19.65371719832313
6237 8 5.616719859453363e-05 -0.009237851737045839 0.05620751727518563 4 0 0 0 0
6238 8 0.0007570955693440204 -0.009015650320119847 0.06121949474034018 4 0 0 0 0
6239 8 0.0001341245740234466 -0.008283285060531781 0.06220976432821852 4 0 0 0 0
6240 8 8.045513850432468e-05 -0.008913391429450794 0.08163168103104827 4 0 0 0 0
6241 8 -0.0006320211665051745 -0.008484057326231177 0.05075945671760432 4 0 0 0 0
6242 8 -0.0005512080709124418 -0.009680272875800429 0.004275119991315387 1.329440416204866 -0.0003987605439609575 -0.0004117367322137588 -17.14647570496597 17.14647571454628
6243 8 3.660001796501481e-05 -0.008291147068549493 0.0339344969929946 3.999999999997955 1.845875891123528e-11 1.081233268552202e-10 -1.616891711765364e-10 1.953836422696106e-10
6244 8 -0.0008343708581417234 -0.008770071920885471 0.03141938021347196 3.999999999951361 -1.540178422786044e-09 1.284852577098934e-09 -4.079866668841113e-09 4.546241057666669e-09
6245 8 0.0006706447172211848 -0.00899420078097117 0.08297850302358373 4 0 0 0 0
6246 8 0.0002136169986310872 -0.008106987913048841 0.0779655563615204 4 0 0 0 0
6247 8 -0.0002412156957979571 -0.01005849364625351 0.08070989773989973 4 0 0 0 0
6248 8 0.0001709265782439836 -0.009225666782529202 0.07421116124928111 4 0 0 0 0
6249 8 0.0003490108053786921 -0.008713530983538595 0.09540704679236749 4 0 0 0 0
6250 8 4.427646102632082e-05 -0.008941443258805644 0.02330885549681696 3.999999200214563 -9.515828626936035e-07 4.588795764172743e-06 -5.009628700700782e-05 5.031501295238194e-05
6251 8 -0.0006957804760368307 -0.009743054329845194 0.01141481128496162 3.907004176731359 -0.8263169761002758 -0.7684359380192332 -3.986162990761057 4.142799648153907
6252 8 0.0006842178834025916 -0.009003261729644036 0.0589999999999999 4 0 0 0 0
6253 8 -0.0005749923596290174 -0.008464710852551021 0.008120249482460519 3.38214369437496 -1.604967448606203 0.05856389547118823 -14.82233363540903 14.90908865894613
6254 8 -6.289793453217877e-05 -0.008292575499128747 0.01254817375491868 3.956739793307404 -0.01137572229297155 0.5008774728745677 -1.836891120295517 1.903989663236494
6255 8 -0.0007988037297705816 -0.008801953446512349 0.03674531510812193 3.999999999999987 1.858577665528646e-14 -1.000573148431368e-13 -6.70829670525316e-13 6.785052278388154e-13
6256 8 -0.0001626669696924977 -0.01001179761105301 0.04653362971554949 4 0 0 0 0
6257 8 -0.0007418198741185167 -0.008745526029833202 0.07541019663413667 4 0 0 0 0
6258 8 0.0006885730972472062 -0.008996048314050856 0.04890834239717314 4 0 0 0 0
6259 8 3.997292382082186e-05 -0.008289749952907878 0.08200285139958986 4 0 0 0 0
6260 8 -0.0001532445574759674 -0.00923215057042126 0.009346041999270908 3.675659115765462 0.3699775443043366 -0.05290649150144155 -11.06813353052496 11.07444185183449
6261 8 -0.0003156665301811786 -0.008874005326901951 0.02979418021806577 3.999999999664347 -8.505393587201281e-09 3.608590042689427e-10 -3.889298045462476e-08 3.98137648048761e-08
6262 8 7.104057160730847e-05 -0.008924011726266367 0.01732285034136553 3.999422118072064 -0.001066346811019987 0.00168167346927049 -0.03036108793649859 0.03042631725770342
6263 8 0.000687488559117003 -0.008996619376612639 0.01707909773111876 3.999190015573041 0.01111052469528744 -0.002104231621171807 -0.04666375341329839 0.04801434610964986
6264 8 -0.0005465514583352523 -0.009684079989948375 0.09576485630546122 4 0 0 0 0
6265 8 0.0007421908835514706 -0.009015559494901355 0.09288603332776926 4 0 0 0 0
6266 8 -0.0001597244213329979 -0.01002188428593765 0.04105599505722229 4 0 0 0 0
6267 8 4.961128017626313e-05 -0.008310682245434535 0.03597926789887726 3.999999999999914 1.349209612278916e-12 5.153558726810105e-12 -8.355989628042094e-12 9.909697109018694e-12
6268 8 -0.0007096955984705747 -0.008541368535584643 0.0939651423567774 4 0 0 0 0
6269 8 1.607673384113529e-05 -0.008264656071082762 0.08615027799454628 4 0 0 0 0
6270 8 -0.0008194301079433811 -0.008737805566705763 0.03283247928576734 3.999999999992125 -2.780831147124976e-10 1.794414273466418e-10 -5.773222500493399e-10 6.654550510278187e-10
6271 8 0.0006313403145327427 -0.008999810612577597 0.01893919724674894 3.999886208736683 0.002221556202187146 -0.0006310298258747088 -0.0066247778317778 0.007015781632935435
6272 8 -0.0006916551304348213 -0.009698437732959003 0.03056076123216491 3.999999999869994 -8.537430688663513e-09 -5.223150197899692e-09 -1.319873239529908e-08 1.656428560476637e-08
6273 8 0.0002431586696698577 -0.008763438877075178 0.06828196212414317 4 0 0 0 0
6274 8 -0.0003300936193911154 -0.008985879577701656 0.008454630680416745 3.472135005018739 -1.060133443023779 -0.4617085504678362 -14.57589227299689 14.62168571870572
6275 8 -0.0007201041872097523 -0.008370812418671018 0.06149887527835222 4 0 0 0 0
6276 8 2.25785146408591e-05 -0.008915764632089578 0.04443837730760975 4 0 0 0 0
6277 8 0.0003501404806008687 -0.00932260088229734 0.09540650615500433 4 0 0 0 0
6278 8 0.0006499999999989098 -0.009000000000000043 0.08699999999999994 4 0 0 0 0
6279 8 0.0006570571848101581 -0.009000362473879319 0.01511358067967051 3.994762098569151 0.07614027254533806 0.01198241986967724 -0.3047937392386063 0.3143885223227195
6280 8 -0.0007811652361846224 -0.009583971322374535 0.09060524632277586 4 0 0 0 0
6281 8 -0.0008307101775827192 -0.008733212017715493 0.06706542434905272 4 0 0 0 0
6282 8 -6.545340760419474e-07 -0.008273668666338538 0.08787078605647544 4 0 0 0 0
6283 8 5.071392053553437e-05 -0.008275129961272826 0.01597730341879895 3.997853471329865 -0.01256784146017095 0.01509488522486247 -0.107289493328763 0.1090726435806085
6284 8 -0.0007755576608159478 -0.008622093453969682 0.06874523404040765 4 0 0 0 0
6285 8 0.0001110151667847602 -0.008176307735078709 0.04187281436061097 4 0 0 0 0
6286 8 0.0002249243506554537 -0.008704334897920777 0.08947800774313885 4 0 0 0 0
6287 8 0.0002630489298207518 -0.008109523921516912 0.03789908488664875 3.999999999999996 9.791603011161421e-14 2.387415601777434e-13 -3.216681557027802e-13 4.123778411871201e-13
6288 8 -9.035467130627146e-08 -0.00824258593604809 0.06974523659173883 4 0 0 0 0
6289 8 0.0005780080301643792 -0.009548727264473186 0.09576666088736979 4 0 0 0 0
6290 8 0.0006467758965887406 -0.008997077941223262 0.08901702426221142 4 0 0 0 0
6291 8 -0.0008194440614228992 -0.008728451005650799 0.0225826112361333 3.999997615585993 -8.426892344592673e-05 1.381912898902233e-05 -0.000194220425437691 0.0002121645433194443
6292 8 0.0006804354724262837 -0.008993487648398489 0.0430404443837982 4 0 0 0 0
6293 8 0.00011083617276299 -0.008211151184009577 0.04572645051440058 4 0 0 0 0
6294 8 0.0007464862179412561 -0.009019370651254518 0.05094755629075633 4 0 0 0 0
6295 8 -0.0006633570114482886 -0.009626331936635049 0.04862215595715799 4 0 0 0 0
6296 8 0.0007173013063697221 -0.008999832087202949 0.0528649650706688 4 0 0 0 0
6297 8 0.000599780414561798 -0.009002034679670453 0.02491422031384755 3.999999888812016 2.190274583403901e-06 -3.789312595117648e-07 -6.969309129554735e-06 7.315200707665873e-06
6298 8 0.000295320969794528 -0.00817626798198174 0.05411670535509733 4 0 0 0 0
6299 8 0.0007822324166059478 -0.008943716982630275 0.07107733366958323 4 0 0 0 0
6300 8 -0.0005954542316984549 -0.0084405125427102 0.009780421187624247 3.739788557949051 -0.9790018627486666 0.5211415925166178 -8.720886004519572 8.791125406370988
6301 8 0.0006073746731502679 -0.009001205345744638 0.07291805320528727 4 0 0 0 0
6302 8 0.0006648883486362981 -0.00899362864673576 0.0229957717481909 3.999998950165984 8.78212944259405e-07 4.332547737041288e-06 -5.222283632788348e-05 5.24096065812186e-05
6303 8 -0.0001847487228312225 -0.008148828355213538 0.004470385844795369 1.508827375524912 0.2660166312230289 0.06169004466287541 -20.57111558265695 20.57292800805781
6304 8 9.530695518395351e-06 -0.008282008819686529 0.07358561927731515 4 0 0 0 0
6305 8 -0.0008374258295858056 -0.008632602776311997 0.01344006848760755 3.978926841915158 -0.3228413782656448 0.1539372982212656 -1.177621221235687 1.230737578856173
6306 8 -0.0008756055424390121 -0.008999999999999994 0.004176658051456217 1.256628523022771 -0.0006831832940256364 0.0002715547118812099 -17.3753549692052 17.3753549847583
6307 8 0.0001245679412432695 -0.00883544760836461 0.07589822536323777 4 0 0 0 0
6308 8 0.0008253595770097657 -0.008921292196900991 0.06877769913694985 4 0 0 0 0
6309 8 0.0003597164692599878 -0.008141935846359255 0.005913656889658085 2.523918966237148 1.261616382296901 4.825085647378112 -23.84429819894737 24.36028907876381
6310 8 0.0008456389224928932 -0.008949588978817473 0.04084736042372285 4 0 0 0 0
6311 8 0.0006860238077504923 -0.00900030495557369 0.09098995003899366 4 0 0 0 0
6312 8 -0.0008325230935052601 -0.008650073927255544 0.0870235564030214 4 0 0 0 0
6313 8 -0.0006068869850005671 -0.008553666134546681 0.02707878241435745 3.999999989875314 -3.734381079336939e-08 7.622386613299668e-08 -6.840038253623909e-07 6.892502238543097e-07
6314 8 -0.0006745996535338651 -0.009700123058997246 0.01734365576685845 3.999428046778698 -0.00282134476913532 0.001318189626580384 -0.02668793814003326 0.02686900914369924
6315 8 -1.197960914963913e-05 -0.008232669782566059 0.02180957372323917 3.999994941440914 -3.530470114677815e-05 0.0001213060592953275 -0.0003416709175565063 0.000364280932590123
6316 8 -6.25749405109636e-05 -0.008326470689173559 0.02364575943872236 3.999999349654734 -3.034484332180397e-06 1.1822706132193e-05 -4.116085455856836e-05 4.293251009948126e-05
6317 8 -0.0008742685139679729 -0.00862024717482731 0.07267084310745925 4 0 0 0 0
6318 8 0.0001697972475907464 -0.009844317932443137 0.01200872344924772 3.940683313811007 0.04408967939151324 -0.5278923373865745 -2.681896165518909 2.733711993302392
6319 8 0.0001869986833797696 -0.009845715268803307 0.04396168264927591 4 0 0 0 0
6320 8 0.000180699956794344 -0.009845268265320872 0.02408333243484847 3.999999662684735 3.217568517042667e-06 -1.41382491104164e-05 -2.292193849887456e-05 2.712301789285702e-05
6321 8 -2.11544339563414e-05 -0.008239858771730189 0.07184720462132678 4 0 0 0 0
6322 8 0.0001272534034424743 -0.008211200546559921 0.05822583747562385 4 0 0 0 0
6323 8 0.0001826799913885828 -0.00822068278751863 0.09204110917971925 4 0 0 0 0
6324 8 0.000632286666800272 -0.008998981276265052 0.02692044829019426 3.999999989963877 -1.666578931333939e-07 1.78009160667098e-07 -4.329436675781577e-07 4.96892678474027e-07
6325 8 -0.0005592002124001506 -0.008194767671514929 0.0929566547172698 4 0 0 0 0
6326 8 -9.916555617537303e-06 -0.008291798027702933 0.04402315510503841 4 0 0 0 0
6327 8 2.063570781803558e-05 -0.00821435452283102 0.01976148566191438 3.999953994672868 0.0001138068051029559 0.001034316075943621 -0.00278967937535398 0.002977427203328156
6328 8 -0.0007749330152097825 -0.009721395082831387 0.01866653760033956 3.999824956673387 -0.003223234022041091 -0.002541339894689792 -0.0104567054381571 0.01123344713975053
6329 8 0.0001669320382535633 -0.009855929482488717 0.01812682145835835 3.999728757291806 0.0008343084535996699 -0.00613761957940195 -0.0151669452986353 0.01638299955408049
6330 8 0.0002310592758369886 -0.008193139574213243 0.05181356056198606 4 0 0 0 0
6331 8 0.0001815489536901816 -0.009847388441250002 0.06197010837600334 4 0 0 0 0
6332 8 0.0008042024577516948 -0.008930434390840384 0.02083622639448426 3.999986788471233 0.0003144636332172621 8.360156108229265e-05 -0.0007355981881078098 0.0008043514729141047
6333 8 -0.0008240402433859625 -0.008748726837183403 0.03492977867532013 3.999999999999465 -3.313200264616192e-11 1.446186214113964e-11 -4.278796251715633e-11 5.601504076856664e-11
6334 8 -0.0008711779471361277 -0.00880494830914046 0.02817130527251572 3.999999997503789 -6.576751546772827e-08 2.390834475250041e-08 -1.293833649851504e-07 1.47095309831697e-07
6335 8 -0.0008085428599332949 -0.00857876862094452 0.09138053191483973 4 0 0 0 0
6336 8 0.0001634982163803054 -0.009830366566222428 0.08999912461268353 4 0 0 0 0
6337 8 -3.808490294906596e-05 -0.008634665219327917 0.009621885146937098 3.723222687560624 -0.1376753650350499 0.2342040799369297 -9.731381549812172 9.735172978700552
6338 8 0.0006615108053786923 -0.008713530983538595 0.09490704679236749 4 0 0 0 0
6339 8 4.174344749116421e-05 -0.008217285359132621 0.06785916945540403 4 0 0 0 0
6340 8 0.0001581268698762178 -0.009849523107829165 0.05585822573125756 4 0 0 0 0
6341 8 -0.0008202627948677584 -0.0085200622700642 0.08522080291475684 4 0 0 0 0
6342 8 0.000158697026124158 -0.009849436664555804 0.07386075574351014 4 0 0 0 0
6343 8 0.0001881278494759978 -0.008201972140544102 0.04997894547619074 4 0 0 0 0
6344 8 0.0001582810534357613 -0.009849499837719742 0.05185894900776223 4 0 0 0 0
6345 8 0.0006626404806008687 -0.00932260088229734 0.09490650615500432 4 0 0 0 0
6346 8 -0.0006905303459690122 -0.009710355927864588 0.02747843151709289 3.999999994329853 -2.048743246179758e-07 -1.409833654603231e-07 -4.996889862556897e-07 5.581566815952575e-07
6347 8 -0.000912058315934381 -0.008706400287606835 0.03804473974212649 3.999999999999996 -1.722362095005783e-13 3.653755379042564e-14 -2.255006235265395e-13 2.860958509153417e-13
6348 8 -0.0006572703269773243 -0.009716818755689768 0.02328305315076055 3.999998967484542 -4.118035810938431e-05 -3.921564101315686e-05 -8.23899315519869e-05 0.000100108886794485
6349 8 0.0001806999567747183 -0.009845268265302437 0.03808333243485153 3.999999999999997 2.552859861288511e-14 -1.255603073521645e-13 -1.827300727937714e-13 2.231756698941998e-13
6350 8 0.0004027655484440859 -0.009867939710630328 0.03997692012180764 4 1.481958719663611e-14 -2.976381253889316e-14 -3.714813220081617e-14 4.985467307623619e-14
6351 8 -0.000194162675510238 -0.009847928520865641 0.004526925058309574 1.545937906329989 0.6817192494147709 -0.1562126609460006 -20.60382865019817 20.61569544248239
6352 8 0.0001224200034005114 -0.008212579027126198 0.07619114663704793 4 0 0 0 0
6353 8 -0.0001902049796814751 -0.008142721843147762 0.09552420182498278 4 0 0 0 0
6354 8 -0.0007780581398194997 -0.009707927100708749 0.05529043238431192 4 0 0 0 0
6355 8 0.0001726356095481952 -0.009848248583747285 0.04799594580970905 4 0 0 0 0
6356 8 -0.0001578204146535269 -0.009566427231214657 0.09517136246046555 4 0 0 0 0
6357 8 -0.0006677150531710456 -0.009712039666540368 0.03734937964409619 3.999999999999992 -2.790964499531537e-13 -2.33922961098253e-13 -6.180225304422705e-13 7.173329967593121e-13
6358 8 0.0004154563117442113 -0.009846680944287116 0.06606069407329335 4 0 0 0 0
6359 8 -8.535856813509965e-06 -0.008184180815205664 0.02551698315295597 3.999999946312117 -3.424494891431366e-07 3.549503355436166e-07 -3.64965983214996e-06 3.682835630832008e-06
6360 8 -0.0001084174655521848 -0.01001078899776216 0.08506412124817886 4 0 0 0 0
6361 8 -0.0001943312200322196 -0.009852896247676065 0.09553151719283101 4 0 0 0 0
6362 8 0.0006642872119305835 -0.008996604386543448 0.03105806308002863 3.999999999971323 -2.569584768738811e-09 -1.700264140901356e-09 3.083670739022622e-10 3.096571375705162e-09
6363 8 3.72992997264445e-05 -0.00924413667657675 0.03011351065759908 3.999999999853328 -8.562574655466353e-09 -2.738360339817617e-10 -9.812586457151092e-09 1.302610931487244e-08
6364 8 0.0007794011101633207 -0.009033825179512255 0.05496079788015203 4 0 0 0 0
6365 8 -0.0001536941743027853 -0.008465582771799996 0.09516404709261732 4 0 0 0 0
6366 8 -0.0009343997387597198 -0.008811735976787374 0.02995230755039095 3.99999999963712 -1.822153628025172e-08 2.161685357976879e-09 -3.174481546402419e-08 3.666647756254165e-08
6367 8 -0.0007704723622669978 -0.009688766280259902 0.06127898702691437 4 0 0 0 0
6368 8 0.0004590663145379673 -0.009860719597512869 0.01998981659771352 3.999958677608536 0.0006777572850162992 -0.001791754310281161 -0.00332254107020984 0.003835233709832418
6369 8 0.0008296645111881707 -0.008928809270791784 0.06690352643441122 4 0 0 0 0
6370 8 -0.0007841726628818332 -0.009592936551990386 0.08801899075044069 4 0 0 0 0
6371 8 0.0002049324033304848 -0.008148828355213539 0.004237587369528321 1.296939924321185 -7.017505652091661e-05 0.0007783551916774787 -16.65040337568487 16.65040339402561
6372 8 0.0003343342129043545 -0.008184440604438585 0.009318328512304977 3.655224460475887 1.340341493820445 1.383302795724499 -11.75009120787035 11.90691754141214
6373 8 0.0002765296324819361 -0.008689489630203349 0.02737467521633796 3.999999992911182 6.786241367776169e-08 7.02040991280577e-08 -6.830958830692251e-07 6.900390628005623e-07
6374 8 0.0001948405630808571 -0.008146347716615102 0.09576720152473298 4 0 0 0 0
6375 8 -0.0007176193704495873 -0.009683244111381033 0.0358183548202766 3.999999999999878 -6.429959099888833e-12 -8.075147661346139e-12 -1.081921006462266e-11 1.495351765308817e-11
6376 8 0.0002620447678389633 -0.008413375759838193 0.09434435909252641 4 0 0 0 0
6377 8 -0.0006933530604268711 -0.009758610631409531 0.07457980574059889 4 0 0 0 0
6378 8 0.0001584772061075439 -0.009849470119690012 0.02814017019099063 3.999999998135182 -1.147008799290104e-08 -6.689753418505875e-08 -1.355683481289904e-07 1.516100920553416e-07
6379 8 0.0002282361563642209 -0.009634851206463981 0.0939224925974395 4 0 0 0 0
6380 8 -0.00102928564200175 -0.009106569201036103 0.08395060666262691 4 0 0 0 0
6381 8 0.0001580673425627406 -0.009849532070920385 0.02985793996193533 3.99999999978953 -6.703416266067645e-09 -4.378499938636982e-09 -1.660371809117796e-08 1.84334073301746e-08
6382 8 0.0002007953954022006 -0.009852231624367528 0.004251805066994186 1.300593811845961 0.0001648773273623641 -0.0005254793466546565 -16.04132295106772 16.04132296052184
6383 8 -0.0008295508499703782 -0.009383586658682334 0.09467357898042812 4 0 0 0 0
6384 8 -0.0008150822299643229 -0.008631811856091 0.09471228963598775 4 0 0 0 0
6385 8 -0.0009134444484544758 -0.008999698477604678 0.09446372196398213 4 0 0 0 0
6386 8 -0.001005362019988179 -0.009276098433966507 0.06525513263182078 4 0 0 0 0
6387 8 0.00045778475288601 -0.009864479870205015 0.08604040230906834 4 0 0 0 0
6388 8 0.0008386858458435436 -0.009559852450408964 0.0451764394241994 4 0 0 0 0
6389 8 -0.0005895524974423568 -0.008330030688496078 0.09438915715705851 4 0 0 0 0
6390 8 0.0002806955604850517 -0.009627287037332496 0.09442955624461445 4 0 0 0 0
6391 8 0.0008272493941408996 -0.009560546934583589 0.01476753322614703 3.99290766597375 0.1297252221032255 -0.03953086617821766 -0.3046844325242933 0.3335025128138947
6392 8 -0.0006305934235478873 -0.008175263278430055 0.05723345409833248 4 0 0 0 0
6393 8 -0.0005024875759213432 -0.008206845506748814 0.0751851750891275 4 0 0 0 0
6394 8 0.0001959702383030296 -0.009853392237030006 0.09576666088736979 4 0 0 0 0
6395 8 8.510942322640428e-05 -0.0100756930187728 0.06848285653692754 4 0 0 0 0
6396 8 -0.0002406602118425141 -0.008165427548099595 0.09460135939277624 4 0 0 0 0
6397 8 -0.0005865000000244999 -0.009686646869822971 0.09443618429095009 4 0 0 0 0
6398 8 0.0007432477117977445 -0.009786487652653952 0.06771826435843045 4 0 0 0 0
6399 8 -0.000227265334769344 -0.009871113386249816 0.09469441255007567 4 0 0 0 0
6400 8 -0.0007074580709124376 -0.008995696896498111 0.004684576518038652 1.713863593764106 2.068419768835482 -0.1386357490840892 -22.51987834381469 22.61509453509419
6401 8 -0.001019821618052588 -0.008986463023095101 0.005078131877883847 2.029599877245914 -1.436848758368481 0.3885039518415977 -21.71665159824613 21.76760038025845
6402 8 -3.971830678717889e-05 -0.008756737641309806 0.004722190911789556 1.725329144990431 0.4054373237512844 -0.399789024110465 -23.84119106488662 23.84798947667747
6403 8 -0.000319465446729741 -0.00929894121003756 0.004759723533576622 1.757823827206877 0.7905716029137334 -0.2196805689771854 -24.28368258097514 24.29754108351862
6404 8 -0.0003520818539273296 -0.008747503767906796 0.005115746271634749 2.04106542847224 0.3259399340523675 -0.3098680982940825 -21.58862558178291 21.59330937094548
6405 8 -0.0006318289938698916 -0.009289707336634551 0.005153278893421816 2.073560110688686 2.026046041897371 0.6108118737570953 -19.39318257930269 19.50829270498011
6406 8 -0.0004052771424322363 -0.008927519412746894 0.06071074213808931 4 0 0 0 0
6407 8 -0.0002006469345926517 -0.009464917913806537 0.0605419404883548 4 0 0 0 0
6408 8 -0.0002606995951366371 -0.008404307559390938 0.02023618313599426 3.999974078478733 -0.0002967739140670929 0.0001129283679718216 -0.001930768200740393 0.001956704734331109
6409 8 -0.0008848428739011551 -0.009185530478118202 0.02021709039518044 3.99997009754419 0.0001297125328216331 8.549504811097025e-05 -0.001903258847238045 0.001909588694984444
6410 8 -0.0003058357383530963 -0.009022342866143614 0.02013977333922352 3.999970388645527 -0.0003644217421205701 -0.0001591893596395519 -0.001975050218531505 0.002014688021524422
6411 8 -0.0004303776285443175 -0.008954883929667888 0.0414583044061344 4 0 0 0 0
6412 8 0.0001531851481007302 -0.008799380807135004 0.0415787286473723 4 0 0 0 0
6413 8 -5.683454189689538e-05 -0.00888351113691432 0.08584535011760694 4 0 0 0 0
6414 8 0.0002042074693270332 -0.008807948140058088 0.02050012111531307 3.999982967240318 -0.0001815006120709059 -8.970770865621902e-05 -0.001357331040658198 0.001372347441105469
6415 8 0.0001590713261105738 -0.009425983446810764 0.02040371131854233 3.999979277407111 -0.0002541152878791172 -0.0001838315653549881 -0.001552819183614958 0.001584176770741629
6416 8 -5.840749925702874e-06 -0.009457079016845719 0.01972587861839471 3.999949788846952 -0.0002385166304452276 -0.0007274235058199638 -0.003552352981529248 0.00363390242648287
6417 8 -0.0005875527100729704 -0.009615764777119496 0.01954048803876425 3.999933625107198 -0.0008597628335112184 -0.001053193818059162 -0.003688514074899524 0.00393109977347525
6418 8 -0.0003909103028457193 -0.008967859388066671 0.07140078413210196 4 0 0 0 0
6419 8 0.000189076209390005 -0.008806282113142355 0.07158070185747711 4 0 0 0 0
6420 8 9.666858875567337e-05 -0.008879836135592633 0.05350815227668935 4 0 0 0 0
6421 8 -0.0006845963721998556 -0.008966309254635353 0.05895150648723497 4 0 0 0 0
6422 8 -0.0003960003825353685 -0.00942493966723181 0.0589023716116783 4 0 0 0 0
6423 8 0.0001019833646284997 -0.008820122187433763 0.06525359981620162 4 0 0 0 0
6424 8 -0.0001148569526662559 -0.00938267894131266 0.0653934455571336 4 0 0 0 0
6425 8 0.0001040310170045095 -0.009166145145662266 0.02904621621173072 3.999999999358873 -8.912876246617737e-09 1.20628455571173e-08 -3.418290570421657e-08 3.732857683204316e-08
6426 8 0.0004229976450510348 -0.009539505240275491 0.02900159062642082 3.999999999449123 -8.733265487151541e-09 1.164633040240521e-08 -3.41829057048116e-08 3.715343833799372e-08
6427 8 -0.0004219008422993113 -0.009394406161681459 0.02954020014882284 3.99999999955471 -1.258302855399772e-08 9.361573836327459e-09 -2.392541301698873e-08 2.860763989421753e-08
6428 8 -0.000102934214252786 -0.009767766256294684 0.02949557456351294 3.99999999964496 -1.093689854121849e-08 5.569363310885508e-09 -2.394841657652085e-08 2.691022508103794e-08
6429 8 -0.000746104277135325 -0.009028992083792192 0.03324768723841141 3.999999999995907 -1.544191375236373e-11 4.42054398056121e-12 -3.473724103956181e-10 3.477435627204065e-10
6430 8 -0.0004327042950995479 -0.00942559511532259 0.03306319024541682 3.999999999995404 -1.041347644519708e-10 4.517738699775487e-11 -3.47591848799654e-10 3.656571328654398e-10
6431 8 -0.0003018275313286294 -0.009574961752743721 0.06749416133815531 4 0 0 0 0
6432 8 0.0002660978770699361 -0.009394922560498183 0.0676304501255397 4 0 0 0 0
6433 8 -0.0003204618045503029 -0.008950995143211508 0.06727150063422016 4 0 0 0 0
6434 8 0.0002474636038482626 -0.00877095595096597 0.06740778942160455 4 0 0 0 0
6435 8 0.0003133274558242415 -0.008771660443166424 0.04605838772231321 4 0 0 0 0
6436 8 -0.0004421586278067778 -0.009533722711750823 0.04576845128842588 4 0 0 0 0
6437 8 -2.45992039875419e-05 -0.0092394120468629 0.04577237234933215 4 0 0 0 0
6438 8 0.0001473431866869642 -0.009072970831391938 0.08003342865545443 4 0 0 0 0
6439 8 0.0001048062285435164 -0.008806295731685607 0.04973815771040732 4 0 0 0 0
6440 8 -0.0004262048032987123 -0.009029699355119169 0.0495713728552833 4 0 0 0 0
6441 8 0.0002391918663487429 -0.009731781929678709 0.07233381158945879 4 0 0 0 0
6442 8 -0.0001561562431646225 -0.01003309976975802 0.07230880095782682 4 0 0 0 0
6443 8 -5.396434086992857e-05 -0.00928209716027098 0.07208717977735268 4 0 0 0 0
6444 8 -0.0004493124503832939 -0.009583415000350291 0.07206216914572072 4 0 0 0 0
6445 8 -0.0005743025863481732 -0.009221026944575141 0.01169188811816974 3.925766460190065 -0.02135080617722118 -0.01621420751692706 -3.047952816114622 3.048070722065168
6446 8 5.037292431543487e-05 -0.009235264238626879 0.01179511277512307 3.932296449348955 -0.1816455965138469 -0.01005953611400487 -3.322055127746897 3.327032700288525
6447 8 -0.000444322573330472 -0.008807651439338343 0.05410752208685757 4 0 0 0 0
6448 8 -0.000213548387744376 -0.009355209585248591 0.05390849438078449 4 0 0 0 0
6449 8 0.0003427922122217392 -0.009311290194831533 0.09146302880600343 4 0 0 0 0
6450 8 -0.0002476650763224778 -0.009454104745018644 0.09130602622314368 4 0 0 0 0
6451 8 -0.0003955132086319282 -0.009380693756668166 0.08419745695141331 4 0 0 0 0
6452 8 -0.0006656505189015442 -0.00886529102825258 0.08424426293251337 4 0 0 0 0
6453 8 -0.000422725170350723 -0.009201241364282367 0.0550072463273704 4 0 0 0 0
6454 8 -0.000639893704349126 -0.008652841001329825 0.0549131538023157 4 0 0 0 0
6455 8 -0.0001535067322962077 -0.009531471107820608 0.03130953313421676 3.999999999958582 3.290525833921117e-10 1.791482321190954e-10 -2.757650483325036e-09 2.782985066415417e-09
6456 8 0.0003774825321200812 -0.009308046195747604 0.03151483919631237 3.999999999966745 -2.201583420057937e-10 1.494973631014358e-10 -2.791188464021302e-09 2.803845965600575e-09
6457 8 -0.0001818778969931918 -0.00927731740615223 0.03928940857540085 4 9.116564974604915e-15 7.222387079175685e-16 -6.838157133744042e-14 6.899038109957692e-14
6458 8 0.0001534884591056424 -0.008808532643563389 0.0391677032955083 3.999999999999999 -2.623481555401378e-15 -3.988189741122367e-15 -4.841019225421039e-14 4.864498974172301e-14
6459 8 -0.0004810550335905418 -0.008840679125136103 0.03962717335301708 4 -3.367080035092191e-15 9.892711692133553e-15 -3.700819228828247e-14 3.845528922050752e-14
6460 8 0.0004356468800805075 -0.009311665375033565 0.07550284008325901 4 0 0 0 0
6461 8 -9.145586599411179e-05 -0.009538825916011158 0.07532826713403917 4 0 0 0 0
6462 8 -0.0002123013060735944 -0.009235148438826656 0.01687208240714577 3.999070455063759 0.001131537728284421 -0.005701452591130333 -0.05787816028939444 0.05816930786733045
6463 8 -0.0004393326014166824 -0.009776365414329677 0.01689025310353135 3.999091607356764 0.01857748069147595 0.01001385272563718 -0.05900588720711603 0.06266653620834496
6464 8 -0.0001472415516967681 -0.009469350568015077 0.01556652277024737 3.996913265511261 -0.002697299451493035 -0.002344807445503134 -0.1923764689644399 0.1924096654472265
6465 8 4.876632946636417e-05 -0.0088995457099212 0.01552239241693118 3.996860704953843 -0.006007025253322406 -0.01003475221414111 -0.1787980444379046 0.1791801364527112
6466 8 -0.0001822358847236837 -0.009536205406064893 0.02663529886493217 3.999999984729493 1.875207017065669e-07 -6.67016181619151e-08 -9.564536925962091e-07 9.76942570223483e-07
6467 8 0.0003462492418800089 -0.009310358831846936 0.02646347423698417 3.999999984276913 -4.953036859593444e-07 -1.388752395448127e-07 -9.150150069303925e-07 1.049697354665319e-06
6468 8 -0.00053212311796601 -0.009031830063267229 0.01476440366222393 3.993187364107891 0.01519527588244451 0.03190064092939227 -0.410388317639256 0.4119066867090513
6469 8 0.0005470108469626775 -0.008626532647168355 0.08525876990087375 4 0 0 0 0
6470 8 0.0008763299873870937 -0.008938579705342894 0.08490330880591773 4 0 0 0 0
6471 8 0.0005077903257773907 -0.008520611872208867 0.01068437918835333 3.847462117726735 0.5206806867924589 0.2057164168488708 -4.873469969022662 4.905521089621932
6472 8 0.0004312870913547843 -0.009114131722407154 0.01100279572297411 3.875236247122605 0.5247538126850975 0.2100261968944824 -4.901383793769368 4.933866704840586
6473 8 9.946761069316498e-05 -0.008223165646356383 0.01112968804061421 3.882900092800448 0.5115025583520987 0.6962835574273586 -4.60978708244764 4.690051450149087
6474 8 2.296437627055872e-05 -0.00881668549655467 0.01144810457523499 3.910674222196318 0.1126738413467021 0.2190113505412583 -4.253650864135429 4.260775403626647
6475 8 0.0007382285921720033 -0.00901642900694747 0.008771473941661431 3.542998895877156 1.039941171614109 0.2934434453111185 -11.98096926268969 12.02959729872656
6476 8 0.0002191745583774531 -0.008781925955531927 0.009042485364638787 3.607660888680725 1.085016388869335 0.286138511536684 -12.18506799862785 12.23662608495839
6477 8 -0.0005834707933862651 -0.009154942591631269 0.02597146619137817 3.999999966347905 -2.813862123307033e-07 -1.376323564656717e-07 -2.900292196045326e-06 2.917158838403822e-06
6478 8 4.07585683820586e-05 -0.009176875557949431 0.02591995439060754 3.999999969021968 -6.759404567716633e-07 -1.738387442942292e-07 -2.368922067854038e-06 2.46959656091523e-06
6479 8 -0.0008874347675823624 -0.009516665245406942 0.0862273582780477 4 0 0 0 0
6480 8 -0.0005979273604114241 -0.009684266791130141 0.08650512961921542 4 0 0 0 0
6481 8 0.0007025492634709313 -0.008998052649852555 0.0570640233574192 4 0 0 0 0
6482 8 0.0003005895921881667 -0.008698631178989192 0.05666331490134727 4 0 0 0 0
6483 8 -0.0003097197982468448 -0.008630518127721459 0.01803224330785838 3.999670350450955 -0.003484930426541852 0.004002184407436003 -0.02388684464451619 0.0244692371597525
6484 8 1.683991808840227e-05 -0.008302787213583103 0.01763786085886347 3.999512310613481 -0.002964497103677613 0.005102006420674204 -0.02482618539329125 0.02551780150750416
6485 8 0.0001023895995615033 -0.009212100511637594 0.03202641357618495 3.999999999984252 -4.044894257393419e-10 1.626830510122614e-10 -1.663098187118072e-09 1.719294346706526e-09
6486 8 -0.0005125467956521439 -0.009133433639002573 0.0320488654642419 3.999999999982558 1.767952000916164e-10 2.10565579437603e-10 -8.150943340929155e-10 8.60216937458047e-10
6487 8 8.919427937006442e-05 -0.00858840880251344 0.03231963745990121 3.999999999987494 -3.393060517374472e-10 3.306682011313626e-10 -1.096989680259812e-09 1.194929460086089e-09
6488 8 -0.0005257421158435828 -0.008509741929878419 0.03234208934795817 3.999999999985801 1.805735530719213e-10 1.000413420943703e-10 -1.130616954350036e-09 1.149308390146357e-09
6489 8 -0.000141429428205064 -0.009367658229334417 0.05774998834268752 4 0 0 0 0
6490 8 -0.0001362506395683662 -0.008745266505615797 0.05774296482131318 4 0 0 0 0
6491 8 5.509408222310015e-05 -0.008515490379915332 0.00741340623874603 3.170702836207615 -0.2850704414144359 0.3509769638251784 -18.10206165733371 18.10770792319159
6492 8 0.0005999928224611239 -0.008724409205146041 0.007497787436702254 3.201788754682958 0.2651914757317937 0.3045146560600562 -18.2246845374997 18.22915747328814
6493 8 -0.0003071529006699019 -0.009005645538531922 0.007665047580779357 3.256919918822114 -0.4961053537229662 0.07353410366696182 -17.67117856224328 17.67829402304084
6494 8 0.00078293666097344 -0.008981371309260024 0.08089424770884765 4 0 0 0 0
6495 8 0.0004944612113721247 -0.009292946454254198 0.08127529628863367 4 0 0 0 0
6496 8 -0.0007704700657252373 -0.008646580954170991 0.08348687626779468 4 0 0 0 0
6497 8 -0.0004068349426250316 -0.008405302781387467 0.08378053253768111 4 0 0 0 0
6498 8 0.0005964416805181066 -0.009255783964583228 0.04696553149960252 4 0 0 0 0
6499 8 0.0008864473089126299 -0.008944094610825236 0.04662191202416051 4 0 0 0 0
6500 8 0.0002435191690970192 -0.008703458892119622 0.03056363377569237 3.999999999919267 -7.779294831976138e-09 7.623096931218581e-10 -5.174446365181392e-09 9.374083386506497e-09
6501 8 -0.0003752140394815221 -0.008641189542005046 0.03072176110801756 3.999999999892041 3.543926240286152e-10 2.501686720406704e-09 -7.125204478037644e-09 7.559931840491212e-09
6502 8 -0.0001696657317669239 -0.008367408355130564 0.04000418166984405 4 -6.567397924932471e-16 2.109787926685774e-14 -3.438548580524143e-14 4.034740946797464e-14
6503 8 0.000186426381276947 -0.008187103757894311 0.03961250674382078 4 -6.598182523299411e-15 1.24287636652339e-14 -2.877175392559848e-14 3.202848736378607e-14
6504 8 -0.0009271151184323711 -0.009563234466305618 0.09355185583128232 4 0 0 0 0
6505 8 -0.0006203398572980458 -0.009755265151863946 0.09330302044323296 4 0 0 0 0
6506 8 -0.0007013871854797999 -0.009406210156255619 0.09400431348545757 4 0 0 0 0
6507 8 -0.0003946119243454746 -0.009598240841813949 0.09375547809740822 4 0 0 0 0
6508 8 0.0002752763376378706 -0.008629398159244883 0.02874885251145359 3.999999998801256 -1.577972336811481e-09 8.635586265815059e-08 -3.418290570054014e-08 9.288862176962865e-08
6509 8 -0.0001454917051956937 -0.008336252664821056 0.02925442320711733 3.999999999015268 5.810011821451537e-09 2.16082945312909e-08 -7.571510994349404e-08 7.895221658491807e-08
6510 8 -0.0005178022536836554 -0.009175017707584929 0.02776083381528858 3.999999996824577 -3.242671020907729e-08 3.932852505078502e-09 -2.272438188992649e-07 2.295794243649289e-07
6511 8 0.0001027201717864763 -0.0092277285737085 0.02784439711713432 3.999999997531726 -4.408038383767547e-08 5.145682333675056e-09 -2.529434054439824e-07 2.568071740500152e-07
6512 8 0.0007213091512670215 -0.00900031992972862 0.07504576135706917 4 0 0 0 0
6513 8 0.0004335387033895759 -0.008688799947621825 0.07464616686284015 4 0 0 0 0
6514 8 -0.0006446077824582259 -0.00903143305223069 0.08556129946076679 4 0 0 0 0
6515 8 -0.0009047960492058345 -0.009488128464601992 0.08567806702464309 4 0 0 0 0
6516 8 -0.0001691184985042149 -0.009188825057373553 0.05312311734735824 4 0 0 0 0
6517 8 -0.0004318791685566041 -0.009722687148573057 0.05320365843154828 4 0 0 0 0
6518 8 -0.0002402928471367275 -0.008570732529438206 0.01455883912648998 3.991803348033296 -0.02164074345481022 0.02575056548186098 -0.3742415623715497 0.37575013028103
6519 8 0.0003617342318999838 -0.008688334912511298 0.01454427304515229 3.991850407699067 0.003897575791987871 0.02548760222276882 -0.3743854749386573 0.3752722915552977
6520 8 -7.010063780598611e-05 -0.009130916990142478 0.01421279167296649 3.989948915437896 -0.02005375730047179 0.009895406153108537 -0.4050643344276864 0.4056811398994853
6521 8 0.0005319264412307252 -0.00924851937321557 0.01419822559162881 3.989995975103667 -9.368451944070531e-05 0.01878052066845338 -0.3874045748414806 0.3878595381597257
6522 8 -0.000350924168906043 -0.008978850524626374 0.01378542917657855 3.985503030386782 -0.08129559196138102 -0.07374246594973971 -0.8225823793601845 0.8298726983041209
6523 8 -0.0004590878384928655 -0.009589839094366037 0.01384059901715041 3.985535793397884 -0.04498752515604987 -0.02670338969952519 -0.88665856965353 0.8882006347561088
6524 8 -3.779548167824579e-05 -0.009408060375663239 0.01342978262162639 3.979392433835212 0.04778937786064043 -0.08146108902381481 -1.128302681057699 1.132248503528817
6525 8 -0.0002690624116887308 -0.008929190470189308 0.04623468669159014 4 0 0 0 0
6526 8 -0.0004457811943863627 -0.009527674089636206 0.04612648593826018 4 0 0 0 0
6527 8 -0.0004216699204274115 -0.008894484765049131 0.08008975238308991 4 0 0 0 0
6528 8 -0.000388882375922026 -0.008965672478601265 0.08037514806621561 4 0 0 0 0
6529 8 -7.640019790390487e-05 -0.008675015594125741 0.01000940976464689 3.778947446366142 -0.5561329396655557 -0.1935491587431679 -8.077976423738633 8.099410362854103
6530 8 -0.0001499675271809086 -0.009690357244551695 0.01003635375021414 3.780281008873377 -0.7460932707971036 0.3458567722543368 -7.922618638058964 7.965184125917126
6531 8 -0.0004213604572035677 -0.009184832204716727 0.01015179863603345 3.792975055238212 -0.558491339042352 -0.2080310613957642 -8.087565465451153 8.109494722622914
6532 8 -0.0001782643073928086 -0.009741905559882141 0.01426796151353835 3.989981678448997 -0.08305679455939974 -0.07320436419148429 -0.4759660704787168 0.4886727026406454
6533 8 -0.0006426669252742494 -0.009642678497679517 0.01438668518860704 3.990670299350974 0.03036230776479159 -0.0162866713112188 -0.5176063712541319 0.51875184911292
6534 8 -6.225416043199991e-05 -0.009526814263682555 0.007999428778735581 3.346911229465893 0.09349498582987041 -0.9851247601693554 -15.11559060790978 15.14794677609492
6535 8 0.0004870140173365686 -0.009322860641512828 0.008087283462957624 3.378616231907218 -1.014564682854182 -0.878688882359417 -15.36456008703071 15.42307175356628
6536 8 0.0008319264412318095 -0.008936269473295606 0.01344822559162881 3.977860502458423 0.09948934911153381 -0.09736857410149773 -1.333530799073688 1.340777073896815
6537 8 0.0005430280494228954 -0.009247876941259382 0.01310714511801433 3.971702846241081 0.2943019741481532 -0.02465132594866154 -1.250863285263589 1.285254954582532
6538 8 -0.0007053444422484204 -0.009371731526928455 0.08028090684435438 4 0 0 0 0
6539 8 -0.0005632342981261662 -0.00984102373498533 0.08027316554000888 4 0 0 0 0
6540 9 -0.0004575250442297251 0.008693462676706426 0.03772336651879354 3.999999999999995 -8.942455552065512e-14 -7.495096819166604e-14 -3.585578615547839e-13 3.770651652508813e-13
6541 9 -0.0005177475392772688 0.008211181233282844 0.03754573623012104 3.999999999999993 -2.215620508569955e-13 -2.239741663574034e-13 -4.559698393373214e-13 5.54222576191871e-13
6542 9 -0.0004282301874373651 0.008449835406385104 0.0952098292807822 4 0 0 0 0
6543 9 3.910505226797619e-05 0.007947666040112995 0.03694725659179621 3.999999999999986 -3.817107877811522e-13 -9.440216111718781e-13 -1.1561457768884e-12 1.540633955644538e-12
6544 9 -0.0002878071468208511 0.008508170694569703 0.0382404404735896 3.999999999999998 -2.28433224117852e-14 -5.238779836907428e-14 -1.857633572944021e-13 1.943561774424863e-13
6545 9 -0.0007787954734623106 0.00880046315944282 0.03802163908966724 3.999999999999996 -1.18779620634949e-13 -7.834386603682771e-14 -3.255076582114296e-13 3.552486385309135e-13
6546 9 -4.582499389708237e-05 0.008325072074510616 0.02567804479061431 3.999999955379606 2.117832999025483e-07 -1.061119634400869e-06 -4.304747705344909e-06 4.438657437931081e-06
6547 9 -0.0004446272090937723 0.009541288716583914 0.09519644891737197 4 0 0 0 0
6548 9 -0.0002922125959757062 0.009388833791938863 0.00605398894726513 2.612039169658605 -0.1485777256334904 -0.5953007877041027 -22.08555585538318 22.0940769395249
6549 9 -0.0001690217119549242 0.009684517364513076 0.006580316459402135 2.854866064749704 0.1771441722751521 0.1460488372301776 -19.50508144767248 19.50643259545334
6550 9 0.0004116542837271754 0.009210717452976717 0.02530642606983502 3.99999994092734 -5.033192787374224e-07 -8.662049632540086e-07 -3.61641568144834e-06 3.752612918452968e-06
6551 9 -0.0001652098314246217 0.008999899538209843 0.09521410665700725 4 0 0 0 0
6552 9 -0.0006889779233892591 0.009490695402867181 0.03860819761573712 3.999999999999999 3.551505566954938e-14 -3.729090616727941e-14 -1.030409874795247e-13 1.151927773896593e-13
6553 9 -0.0005192256336987565 0.008885701199887255 0.03163792992178285 3.999999999980869 -2.79882760050832e-10 -2.173950140049954e-11 -1.256028136820311e-09 1.287017344785654e-09
6554 9 -0.0007212907386123711 0.00841678281987578 0.03150560865431405 3.999999999977781 -1.648581690426576e-10 1.056471289500015e-10 -1.136741236682239e-09 1.153481760119917e-09
6555 9 -7.906614221190404e-05 0.008876880166366631 0.02540858706269083 3.999999943021943 4.385932821090045e-07 -7.269705912984684e-07 -5.254804876351187e-06 5.322952620139335e-06
6556 9 -0.0003510929802987285 0.008359205114156741 0.01497797979769625 3.994790200403824 0.0455679900595246 0.01763984734628799 -0.2505784594496184 0.2552981987257437
6557 9 -0.0003843272579779026 0.008219542576470926 0.06452298027221695 4 0 0 0 0
6558 9 -0.0007014948638421168 0.008842765881128013 0.09420105267202605 4 0 0 0 0
6559 9 -0.0006643536220739484 0.008860257602242128 0.01468453364558085 3.993370941875294 0.01918571498605486 0.02948148649436188 -0.3379517701639393 0.3397773516030511
6560 9 0.0007880564579459664 0.008716085032942866 0.02527065273103719 3.999999935129114 -4.998134954599511e-07 -8.675211627375769e-07 -3.619123781049532e-06 3.755058380451589e-06
6561 9 -0.000473912944268395 0.008140692501358453 0.09471515606273403 4 0 0 0 0
6562 9 -0.0004513719906874475 0.008452511110959373 0.01450399350600249 3.992446151998351 -0.00460230223499582 0.003047811763416438 -0.385365560969024 0.3854050932763837
6563 9 -0.0008254396361321638 0.008292701749303273 0.09444100774305184 4 0 0 0 0
6564 9 -0.0007819154883920416 0.008286933987856749 0.0538094411032785 4 0 0 0 0
6565 9 -0.000774605539081257 0.008748587724243091 0.02344569301875762 3.999999369666482 -3.949914456227561e-06 -6.040453636246948e-06 -4.438534395801533e-05 4.49682961942577e-05
6566 9 -0.0003888229617786628 0.009279865839827742 0.0247031688935076 3.999999863215622 -1.128140603151533e-06 -1.375470714676376e-06 -1.098847043515246e-05 1.113153643535479e-05
6567 9 -0.0001487839133948645 0.008827546028878515 0.01511187207104281 3.995210596207948 0.02196385921192807 -0.004205700506466857 -0.2604860908131454 0.2614442627699941
6568 9 -0.0005647388886229639 0.008835601078091768 0.06496643237710983 4 0 0 0 0
6569 9 -0.0008791421983979638 0.009284143544970194 0.03183116934301697 3.999999999982951 -3.399158253487108e-10 1.921426666341764e-11 -1.192706508608079e-09 1.240347036938446e-09
6570 9 -0.0006102334504152427 0.008337234174737085 0.06235311652954578 4 0 0 0 0
6571 9 -0.0004870452241032559 0.0091063958523871 0.02395115505566132 3.999999674539073 -3.338229479919964e-06 -2.712101930452518e-06 -2.133251088341025e-05 2.176178516419523e-05
6572 9 4.069145635049901e-05 0.008485628305717282 0.06127360702399297 4 0 0 0 0
6573 9 -0.0008390179685098544 0.008318181716019238 0.03784400880099474 3.999999999999994 -2.756836196216068e-13 -2.453746415596658e-13 -4.229116820028356e-13 5.613060338377566e-13
6574 9 -0.0002152494168682368 0.009127095208817175 0.03845607310651546 3.999999999999999 -5.579378583685585e-16 -2.411980422994631e-14 -7.99122371871644e-14 8.347479801115039e-14
6575 9 0.0003026168063783322 0.009415572794047904 0.00651980111518736 2.833745875908177 -0.3483528497158022 0.6454607982126878 -19.43554268580483 19.44937759522593
6576 9 -0.0002875491991739158 0.008541061717248936 0.05395726448175084 4 0 0 0 0
6577 9 -0.0005332466415844418 0.008329294131055928 0.01539819570321572 3.996275255672695 0.0186705441533817 0.00120364329638828 -0.1679507635917589 0.1689896356798937
6578 9 0.0006072585007916726 0.008727812737040734 0.02456185202439856 3.999999852098223 -2.044631683406642e-06 -8.301514486034036e-07 -1.119706340711762e-05 1.141244492172563e-05
6579 9 8.583146863903437e-05 0.00901272881376076 0.02445334651654434 3.999999825889905 -1.30996328118466e-06 -1.426185436705908e-06 -1.012352120671211e-05 1.030706991926774e-05
6580 9 -0.0003875237946108851 0.0087796870222724 0.05912826750081367 4 0 0 0 0
6581 9 0.0001794259223575503 0.009119889221473691 0.005993473603050354 2.590918980817078 -1.437322387584813 0.5466844929550558 -22.46539479504046 22.51796444791849
6582 9 -0.0006827246347999856 0.009271433693062221 0.02851514476894008 3.99999999870478 -2.058848852786544e-08 1.385637188516045e-08 -9.974534270388108e-08 1.027862748269271e-07
6583 9 -9.384359377978695e-05 0.00855026461567319 0.0652366053962489 4 0 0 0 0
6584 9 -0.0003695182924018336 0.008599334867914778 0.02418280172822867 3.999999733813033 -3.266323769979157e-06 -3.161505223244639e-06 -2.066583317242663e-05 2.115988296181013e-05
6585 9 -0.0008795433877177422 0.008946028553217657 0.02480532988636341 3.999999865310224 -1.072842304472771e-06 -1.349844198527816e-06 -1.108130405769909e-05 1.121464977561689e-05
6586 9 -0.0003309375746805779 0.008797635045777701 0.01553208797656228 3.996695651476818 0.0003791407200477782 -0.0160037047225427 -0.1787234375439656 0.1794389295556114
6587 9 0.000175791364015412 0.008212106492950271 0.06403814446581335 4 0 0 0 0
6588 9 -0.0006254118800188898 0.008250830575440496 0.05307777443059875 4 0 0 0 0
6589 9 -0.0004703713457317383 0.008852213642762972 0.05879676939233891 4 0 0 0 0
6590 9 -0.0001475269401870508 0.008748960391531901 0.06470390125823275 4 0 0 0 0
6591 9 -0.0005141650009551191 0.009845953689140735 0.09471941799485412 4 0 0 0 0
6592 9 -0.0004720428612711228 0.008317735946822004 0.06576113048940513 4 0 0 0 0
6593 9 -0.0005301304766094727 0.008275201587389208 0.05650764362160159 4 0 0 0 0
6594 9 -0.0001818600865361112 0.00856575347343343 0.06975278032248435 4 0 0 0 0
6595 9 -0.0005541507352434763 0.008780235705762428 0.07040925636576706 4 0 0 0 0
6596 9 -0.0004951000480837071 0.008885977626358607 0.04873759671222179 4 0 0 0 0
6597 9 -0.0005231256238653252 0.008293411170206846 0.06313093759620955 4 0 0 0 0
6598 9 -0.0003212907590809423 0.008169322313232133 0.02282943411315418 3.999998703081822 3.527750639678343e-05 2.078322095956745e-05 -7.13572152499521e-05 8.226965965200839e-05
6599 9 -0.0005266051558257995 0.008934780101944109 0.06922329293451304 4 0 0 0 0
6600 9 -6.218249143725638e-05 0.008531893706576735 0.06431306500795805 4 0 0 0 0
6601 9 -0.0001436342407103516 0.007948526363009644 0.03087658726566044 3.999999999954663 -1.924364241503174e-10 -1.6903993351096e-09 -2.885034285636792e-09 3.349314037049756e-09
6602 9 -0.0009209765323077915 0.009182646668754417 0.07013574816020128 4 0 0 0 0
6603 9 -0.0002847448132262048 0.008572029958439347 0.06377168576523218 4 0 0 0 0
6604 9 -0.0006101284155662637 0.009111048730084823 0.02608301611767959 3.999999972825075 -4.371158261376419e-07 1.506401140785694e-07 -2.506692132863867e-06 2.548973938350724e-06
6605 9 -0.0005105820253746154 0.008899871988133249 0.05675746472649365 4 0 0 0 0
6606 9 -0.0008063485040547857 0.009294976976162404 0.04838580250547768 4 0 0 0 0
6607 9 0.0003233683546561262 0.008463623929113324 0.06497407427737181 4 0 0 0 0
6608 9 -0.0001381113489122277 0.007951458622873985 0.0147974396581179 3.993865410526881 0.006006914358594067 -0.090509999181906 -0.275175467645794 0.2897407133388429
6609 9 -0.000296036960917828 0.009176501408006819 0.06998238610736554 4 0 0 0 0
6610 9 -0.0001774957681947668 0.007933805751740812 0.0654830417040384 4 0 0 0 0
6611 9 0.0004597417514786066 0.008175248415297156 0.02591921990566505 3.999999966710996 3.712285224648614e-07 -1.294927662183523e-06 -4.1064677247703e-06 4.321773413861454e-06
6612 9 -0.0006437928383935986 0.008272236252184484 0.05894603898094199 4 0 0 0 0
6613 9 -0.0005174010614828959 0.008890841856886073 0.04139948734657638 4 0 0 0 0
6614 9 -0.0007605265182842072 0.008402010746540033 0.06946822906751128 4 0 0 0 0
6615 9 -0.0004899279103829324 0.008881561345046573 0.01944683762887613 3.999932724571532 -0.0003521244890137379 -0.0003747977577165691 -0.004501615403369555 0.00453089464176851
6616 9 -0.000700370006414962 0.009192627721309483 0.01578560294908354 3.997336869484717 -0.02160507934300322 -0.007687032298755331 -0.1408927017265728 0.1427467103606685
6617 9 -0.0005519532780990732 0.008968995531634317 0.04904079586331321 4 0 0 0 0
6618 9 -0.0001227902377567515 0.00847930564406061 0.01911774620623598 3.999904870388628 0.0002944886410790025 -0.0006458248234613249 -0.005331546412595926 0.005378587213384933
6619 9 -0.0004886809310273324 0.008886473525774732 0.03527374806421248 3.999999999999881 -9.562398983095095e-13 -1.830578633195171e-12 -9.676339676615061e-12 9.89428938391558e-12
6620 9 5.085140388622928e-05 0.008353931683928522 0.06764237451451297 4 0 0 0 0
6621 9 -4.86221675664162e-05 0.008582315869842408 0.06889976765999266 4 0 0 0 0
6622 9 -5.5222036369809e-05 0.008534324164482085 0.06215027617626194 4 0 0 0 0
6623 9 -3.22605333570932e-05 0.008230865096430021 0.02396631517147348 3.999999636142743 -1.300144758671386e-06 -8.382647081103566e-06 -2.617811055010861e-05 2.751822342473334e-05
6624 9 0.0003427990540157501 0.00870998374899809 0.0633510383891879 4 0 0 0 0
6625 9 -0.0005339858837276725 0.008293350605746526 0.04643034107480147 4 0 0 0 0
6626 9 7.937644216790322e-05 0.008169004569069615 0.03607992795136863 3.999999999999958 -7.319945704352515e-14 -2.305910282181967e-12 -4.532094260492898e-12 5.08551460286731e-12
6627 9 -0.0002938805936063952 0.008332568243754123 0.03250614526653544 3.999999999994497 -1.670484147985623e-10 2.814167280205995e-11 -3.554973529292765e-10 3.937962602343162e-10
6628 9 -0.0002060905099613016 0.009206873522143945 0.05563433339105681 4 0 0 0 0
6629 9 -0.0002256389611966795 0.008582203121399925 0.05588451228616474 4 0 0 0 0
6630 9 -0.0002779732582881302 0.008788002397818909 0.05650017889510753 4 0 0 0 0
6631 9 -0.0007876643228073932 0.009385030845865739 0.004525800515121151 1.580622421798373 0.3825122953669839 0.7956342811754969 -22.85396894618004 22.87101322981669
6632 9 0.0001521395715568765 0.008812850193195236 0.05848740021695691 4 0 0 0 0
6633 9 0.0003408836033287848 0.00932279702656468 0.03831629094773015 3.999999999999999 -4.075096784771384e-14 -4.664403896773861e-14 -4.718239292989688e-14 7.786196731614549e-14
6634 9 -0.0001808323986494565 0.007955192457866307 0.0300275397996699 3.999999999848733 -3.947466911127355e-10 -5.663140515026828e-09 -1.347476457485396e-08 1.462177368826443e-08
6635 9 0.0005165505661835608 0.008752030353822302 0.06082283722797473 4 0 0 0 0
6636 9 -4.111048176682743e-05 0.008932569600662729 0.02593682281328998 3.999999971772651 -4.963449278290057e-07 1.630548299038763e-07 -2.442214025122942e-06 2.497469621325505e-06
6637 9 -0.0001402392914847728 0.008486335948917198 0.03493787532268319 3.999999999999797 2.313365396367853e-12 -2.940796146334951e-12 -1.454096601235212e-11 1.501464731533146e-11
6638 9 -0.0002825163469568082 0.008817169634686961 0.02834759882966564 3.999999998622632 -8.421547223721835e-09 1.517686735816415e-08 -1.172393542135551e-07 1.185171967980179e-07
6639 9 0.0002720033788256887 0.008774156728806975 0.06667722588136889 4 0 0 0 0
6640 9 -0.0004293623845246202 0.00828488909460841 0.04718499153141197 4 0 0 0 0
6641 9 7.40004420871914e-05 0.008467010631112932 0.0592844809238548 4 0 0 0 0
6642 9 0.0001472901685753784 0.008999899538209842 0.09471410665700725 4 0 0 0 0
6643 9 -9.254389044046783e-05 0.009556331626994138 0.02390840514303941 3.999999720749707 -5.215325030258838e-06 -1.070661259583044e-05 -2.800413703671566e-05 3.043128093951335e-05
6644 9 -0.0003612925588355517 0.008337041990063963 0.01782765124628483 3.99966967049761 -0.001735448455294511 -0.002018414312636204 -0.02182095413907795 0.02198271632938436
6645 9 -0.0001463891079589979 0.008485448957662109 0.04109644642219439 4 0 0 0 0
6646 9 2.202674171347051e-05 0.009100252297738894 0.05625017889510753 4 0 0 0 0
6647 9 -0.0002681142098202669 0.00880275105987178 0.0631780972429257 4 0 0 0 0
6648 9 -0.0005227186686788733 0.008891817172065811 0.06404660630737688 4 0 0 0 0
6649 9 -5.07465992604269e-05 0.008468728736585079 0.05271159830256633 4 0 0 0 0
6650 9 -0.0001449974529896365 0.009436336091870839 0.0308055281280542 3.999999999942176 1.603495680998017e-10 7.660040305884539e-10 -4.176250640763151e-09 4.248946172092815e-09
6651 9 -0.0004549646854866829 0.008408661671629649 0.06846545730512421 4 0 0 0 0
6652 9 4.097175567517655e-05 0.00841876936870372 0.04446173027612155 4 0 0 0 0
6653 9 -0.0007645990714281709 0.008353821809777605 0.01688324751781694 3.998981024631356 -0.0113008040824038 0.004915958840668159 -0.04963407444679212 0.05114113970593265
6654 9 -0.0002337840443058933 0.009246202287395656 0.05051860260208949 4 0 0 0 0
6655 9 -0.0004895283595063992 0.008267277078314393 0.01838673077153059 3.999794183052813 -0.002053276200366492 -0.002682413865764341 -0.01307135580192601 0.01350080108003896
6656 9 -0.0005567530782318349 0.008470752625627197 0.06017603663534685 4 0 0 0 0
6657 9 3.206961988299894e-05 0.008386091660626371 0.09445223191422611 4 0 0 0 0
6658 9 2.54856670979703e-05 0.009101977370937608 0.04169996801272041 4 0 0 0 0
6659 9 5.206127592229647e-05 0.009098522828837507 0.06950784418948611 4 0 0 0 0
6660 9 -0.0008052897125921865 0.009299335347019167 0.03951183428020844 4 1.022905989989565e-14 -1.231202213800554e-14 -1.955892791183726e-14 2.527392364914554e-14
6661 9 7.407610642124576e-05 0.00883188069030766 0.05070201783630661 4 0 0 0 0
6662 9 0.0001023342970890591 0.008794200723580939 0.05538433339105712 4 0 0 0 0
6663 9 5.576606004950186e-05 0.009156604307909422 0.06063259467072153 4 0 0 0 0
6664 9 -0.0007518850026515125 0.008364220455462878 0.03278549001065578 3.999999999994889 -1.589220357776907e-10 3.051548700983939e-11 -3.649768185230627e-10 3.992436429830661e-10
6665 9 -0.0001618512985125613 0.009130066241853939 0.06641977304814781 4 0 0 0 0
6666 9 -0.0004860184679643728 0.008191502578426178 0.04444354899634246 4 0 0 0 0
6667 9 -0.0003639946333848442 0.008766038425917229 0.06803743760120229 4 0 0 0 0
6668 9 -0.0001217209506492385 0.00931914672565653 0.02278285496640414 3.999998620136396 1.436953492536576e-05 -3.35517105972405e-06 -9.206283037882779e-05 9.323789703855474e-05
6669 9 6.994706920889306e-09 0.00960723909770215 0.09447377599080381 4 0 0 0 0
6670 9 -0.0006158898292495908 0.008874392597654308 0.02742731624660719 3.99999999537071 -5.970259340880296e-08 -1.325512915304171e-09 -3.832584494862142e-07 3.878829665592476e-07
6671 9 -0.000861438370958438 0.009383247843206552 0.04939818182927289 4 0 0 0 0
6672 9 -0.0007875283406639825 0.008616921324846358 0.09544652953709662 4 0 0 0 0
6673 9 8.718266283238107e-05 0.008779521337247652 0.03184481893156834 3.999999999987971 -3.316482669880102e-10 -3.356926749068962e-11 -1.331513298688737e-09 1.372605235783753e-09
6674 9 -0.0004932722097008822 0.009810823943442456 0.02309215700532445 3.999999072608121 -1.030729243573716e-05 2.401438762596682e-05 -7.476253126967551e-05 7.919827758389194e-05
6675 9 -0.0004684463062448729 0.008897080707490313 0.03453249398917896 3.999999999999672 -2.302928240232848e-12 5.061841500221585e-13 -2.814686336498244e-11 2.82454530528435e-11
6676 9 -1.546991927170251e-05 0.008535161645946544 0.005983303295963321 2.582273590246981 -1.287323928762059 -0.233493538720425 -22.61194404060162 22.64976237017701
6677 9 -0.0007903119598993874 0.008440959883831185 0.04883394884704627 4 0 0 0 0
6678 9 8.278584585368131e-05 0.008169530322836918 0.05563451228616505 4 0 0 0 0
6679 9 -7.435163008164913e-05 0.009484377692518746 0.02566736508536649 3.999999959414988 -4.785847686801762e-07 2.019342305044719e-07 -2.522795971222691e-06 2.575717439215631e-06
6680 9 7.078883614648713e-05 0.008774090445014829 0.07025589431293131 4 0 0 0 0
6681 9 -0.0002039733392570399 0.008566908258492845 0.02144063010082321 3.99999319713533 4.491739907828325e-06 -2.093347223513127e-05 -0.0004970189859267282 0.000497479907492606
6682 9 -0.0005565674563078021 0.009607526763471338 0.006927372108059032 2.995011609405295 -0.4298513678064185 0.4342398147417003 -19.84141841368769 19.85082419150744
6683 9 0.0005311401764892579 0.008156318340530287 0.03618872594391834 3.999999999999964 4.806384937481797e-13 -2.853793152806831e-12 -4.373416235041839e-12 5.244227139017454e-12
6684 9 0.0003250110663714099 0.009589760086454895 0.02423481192811951 3.999999813376452 -1.236623947683024e-06 -2.10313921633664e-06 -9.324627946463725e-06 9.6385226923657e-06
6685 9 -0.0009243809468679149 0.009191071157614283 0.02197992549341947 3.999995674308097 -7.959047147666717e-05 -1.197755800892604e-05 -0.0002731793897634749 0.0002847895434128154
6686 9 -0.0005647315522308673 0.009846528105597425 0.01238222733165707 3.95253607671281 -0.3454005605840148 0.6530129299145494 -2.117249791083979 2.242425943422099
6687 9 0.000330451548762791 0.008687579499175847 0.05650017889510783 4 0 0 0 0
6688 9 -4.751916791902868e-05 0.009101431036898807 0.06347859086268189 4 0 0 0 0
6689 9 -0.0001152135539854585 0.00899343122011868 0.09421190124802267 4 0 0 0 0
6690 9 4.628889871387758e-05 0.008591602571524956 0.02669357407158364 3.999999989700713 1.276858262680033e-08 -7.508816235247736e-08 -7.065472096692299e-07 7.106407167613914e-07
6691 9 4.784883892039937e-05 0.009098140744397765 0.01970939372856229 3.99995291908014 -4.901051465049223e-05 -0.0001932451848194189 -0.003970847521528227 0.003975849062933484
6692 9 -0.00021799779916059 0.009208974520911267 0.05823378820722172 4 0 0 0 0
6693 9 -0.0003469915351111731 0.008713188558989966 0.06703894980224084 4 0 0 0 0
6694 9 -0.0001928050674544793 0.008572344491182556 0.02003464051948409 3.999968957358579 -7.513321315396263e-05 -0.0003560408012333975 -0.002532106925523343 0.002558119530855632
6695 9 -0.0006433695638810854 0.009662856821940837 0.0258135583897561 3.999999960467413 -4.567743870226369e-07 1.904982994110824e-07 -2.536670507997092e-06 2.584497960699649e-06
6696 9 -0.001018277314929911 0.008783429016786665 0.06001982321230571 4 0 0 0 0
6697 9 -0.0007381139141686399 0.009202688314267942 0.006010514295020091 2.59085872778267 1.138925424395452 -0.7535905835083285 -20.91043844927107 20.95498713983477
6698 9 -0.0001737804570713835 0.008570725053393027 0.0478597984838683 4 0 0 0 0
6699 9 0.0004149865115465803 0.008695885043411802 0.01938030230592214 3.999925064897237 0.0005918793288980072 -0.0006247109563341768 -0.005278795556785103 0.00534848272403257
6700 9 0.0003964976206218685 0.008696584471713646 0.04139692708833842 4 0 0 0 0
6701 9 -0.0005133375584212059 0.008891352867645572 0.05717307562462021 4 0 0 0 0
6702 9 3.430674339174496e-05 0.008184594730145817 0.05440748443828355 4 0 0 0 0
6703 9 0.0006224601194937722 0.008787434506695248 0.03724080423195449 3.999999999999994 1.365126516793108e-13 -1.547298081997711e-13 -4.418820767813362e-13 4.876851314061578e-13
6704 9 -0.0001496433640462873 0.009856897112521877 0.02448463430508276 3.999999850702169 -1.061915627407374e-06 -2.50995475846915e-06 -9.406009889281079e-06 9.792883116148554e-06
6705 9 0.000137467998899695 0.00816172570358923 0.04821159269061241 4 0 0 0 0
6706 9 0.0001128953989844472 0.008784298273675814 0.04850212432320461 4 0 0 0 0
6707 9 -0.0006217025869841873 0.009697714927275891 0.009845025048839875 3.754194571132203 -0.5761363334000278 0.7440625935335257 -8.298395668789214 8.351582658007946
6708 9 -0.0004390142108921669 0.008889706240121878 0.01865835247767348 3.999850601736687 -0.000622693181745368 -0.0001201902073460345 -0.01010077667035355 0.0101206660763456
6709 9 -0.0004313327257682278 0.008817219567123889 0.05297579536516704 4 0 0 0 0
6710 9 -3.790407086947709e-05 0.008549360352821818 0.03870604042437289 3.999999999999999 -6.572097335595544e-15 -1.131698071105667e-14 -1.249393517801337e-13 1.256228806350299e-13
6711 9 -0.0002161211386321534 0.009217771723949872 0.04570899275713883 4 0 0 0 0
6712 9 -0.0008405087164492049 0.009248337970479002 0.05854315738260372 4 0 0 0 0
6713 9 -0.0003576481855886039 0.009021681269732459 0.06868026359432977 4 0 0 0 0
6714 9 -0.0002682256899046066 0.008724757820553708 0.07087713942765238 4 0 0 0 0
6715 9 -0.0005766588247373753 0.009832108783811454 0.02839629618853741 3.999999998411772 -2.334492145761779e-08 2.057976214139773e-08 -1.023384934218399e-07 1.069657852002724e-07
6716 9 -0.000453749553765708 0.008907454296673367 0.04697563689417996 4 0 0 0 0
6717 9 -0.0001373424231163545 0.009244640769471391 0.070623251818277 4 0 0 0 0
6718 9 -0.0002995628728451734 0.009180409514273536 0.02176890097356798 3.999995338226892 -4.903898750635349e-05 -8.642891900295592e-06 -0.0003021462666925397 0.0003062219592914392
6719 9 -0.0005916738826313499 0.008890387612259921 0.01140912200110768 3.913151582737491 -0.2599217572030422 0.1905728482559801 -3.828251614309421 3.841794860845982
6720 9 -0.0004658964844218682 0.008244379117829081 0.04355945744830104 4 0 0 0 0
6721 9 -0.0007886132824960417 0.008358862428015491 0.01813950976534493 3.999730049127714 -0.005081189267065554 -0.004517184383186743 -0.01459699392183427 0.01610266036012419
6722 9 0.0001478671596975484 0.008966963176372515 0.06735737035618232 4 0 0 0 0
6723 9 -0.0001748709172373266 0.008794867039479497 0.04723387457665191 4 0 0 0 0
6724 9 -0.0005295906621679419 0.008848179622765177 0.04508595482813387 4 0 0 0 0
6725 9 -0.0005826753538743914 0.00922404312328799 0.0711091485718692 4 0 0 0 0
6726 9 -0.0005022388574545463 0.008877228288053802 0.02077301986572065 3.99998541411446 -0.0001607568612676421 -5.230381912589206e-05 -0.001006069799175199 0.001020173955143045
6727 9 0.0001791140554995722 0.008827943824116892 0.006858001516447807 2.973512801188125 -0.0473679944871503 0.07859033325002948 -19.67514542715961 19.67535940579643
6728 9 0.0001746178263535955 0.009061311521637711 0.06449398599397385 4 0 0 0 0
6729 9 0.0001165061943211851 0.008162322791225493 0.02028464051948388 3.999973578754966 0.0001517215024955821 -0.0006665376608614939 -0.001783312863121132 0.001909842044630791
6730 9 -0.0007306368223615762 0.008281034044632835 0.02319459814883891 3.99999915610342 -3.395910264264654e-06 -5.148518544347558e-06 -4.383906001132713e-05 4.427078757376211e-05
6731 9 -0.0001104618008220914 0.007930435838574345 0.03849040779144702 3.999999999999998 -2.140897811422741e-14 -7.578679830576307e-14 -1.586327944534551e-13 1.771054674973249e-13
6732 9 7.225609997312294e-05 0.008407373288533537 0.07118433222184331 4 0 0 0 0
6733 9 0.0001237017462614132 0.008572404398523047 0.06825000856009728 4 0 0 0 0
6734 9 0.0004347525966009606 0.008698048304079839 0.04737646998357282 4 0 0 0 0
6735 9 -0.000452756978824544 0.008910448972336091 0.04670131936855073 4 0 0 0 0
6736 9 -0.0007446272456322971 0.00835336190519757 0.02101587689174502 3.999987875214382 -0.0002474640518861766 -0.0001332724011780417 -0.0009323976839910603 0.0009738405572800807
6737 9 0.0003660359710912078 0.008246375798591041 0.03206290584530132 3.99999999999216 -1.404331667736813e-10 -3.506263395101027e-10 -8.798209561014446e-10 9.57468129539359e-10
6738 9 -0.0001983530569866314 0.009193297623479611 0.0481503301164605 4 0 0 0 0
6739 9 -5.933394389498062e-05 0.008864641791941515 0.03281223350095262 3.999999999996308 -1.540789961188591e-10 5.039533142723834e-11 -3.255233460133302e-10 3.636557098058146e-10
6740 9 -0.0007671986660296027 0.008375254560315999 0.04169203543438979 4 0 0 0 0
6741 9 -0.0001707620646655197 0.008000926859700677 0.04951940444891313 4 0 0 0 0
6742 9 -0.0005368325443358487 0.008924662839201347 0.05111651729025515 4 0 0 0 0
6743 9 0.0004493005377059743 0.008719958286974243 0.03138442951330933 3.999999999973904 1.360665461662737e-10 4.196486563636802e-11 -2.624948841843674e-09 2.628808014524823e-09
6744 9 -0.001011737300702904 0.009215800138389732 0.03820565449740235 3.999999999999997 -2.407351047334606e-13 -3.976709170108074e-14 -2.669563895470092e-13 3.616635538084629e-13
6745 9 0.0005385477835324866 0.008160297656534338 0.06785494547340794 4 0 0 0 0
6746 9 -0.0002435649565667674 0.008075682330678785 0.07461315155462102 4 0 0 0 0
6747 9 -0.0007837844454795048 0.00862028868544615 0.004459733666436885 1.529811177950133 -0.08750673979324346 0.1801323442093257 -22.48246942101079 22.48336132248968
6748 9 -0.0005173383529400979 0.00889629400365027 0.03309157824507296 3.9999999999967 -1.381775792460682e-10 5.44819375641596e-11 -3.45436361342123e-10 3.760154314178266e-10
6749 9 -0.0008284708582659989 0.009231788063424151 0.03655394409699145 3.999999999999974 -8.290097223758774e-13 6.074264739143771e-14 -1.849005126100233e-12 2.027255964438331e-12
6750 9 0.0004163687958574303 0.009818214979128831 0.02556520409251068 3.999999957320385 -3.574776788160908e-07 3.265279655655849e-07 -2.619528909388281e-06 2.663896114766696e-06
6751 9 1.307779271478698e-05 0.008229725651255456 0.006542768841006479 2.839200578084933 0.06824567978648566 -1.577874883758272 -20.10119662570379 20.16314589558906
6752 9 -0.0008870177813776607 0.009387593374514711 0.01125116580425493 3.8985981574966 -0.6668996939518106 0.5125844527668679 -4.165745135867581 4.249815355990862
6753 9 -0.0002057114809524994 0.009194433427981685 0.03620648721532622 3.999999999999972 -7.845974059208508e-13 5.504163034517857e-14 -1.886627932788992e-12 2.044012628930762e-12
6754 9 -0.0008755985477320936 0.008997909152588515 0.09568360538858872 4 0 0 0 0
6755 9 -0.0002727339018668263 0.00917796368233059 0.03203805835280246 3.999999999990053 -3.340419660930897e-10 2.033738645369286e-11 -1.18474604882572e-09 1.231105537558523e-09
6756 9 0.0005300442641816798 0.008746058596735806 0.06918431891496572 4 0 0 0 0
6757 9 -0.000567198320858165 0.009823468653061121 0.02415822752000267 3.999999758075424 -9.253816959553769e-06 7.609725381432497e-06 -1.588119993148825e-05 1.989355573962698e-05
6758 9 -0.0004403489814042925 0.008891504695204482 0.04073299640766694 4 0 0 0 0
6759 9 -0.0008592859816993199 0.009219531273172961 0.06524452116247657 4 0 0 0 0
6760 9 -0.0008637264928260645 0.008575492349424346 0.03031839194995781 3.999999999897287 -2.954913163771854e-09 -9.855054052188196e-10 -7.83965729050876e-09 8.435814077003764e-09
6761 9 -0.0008660799527163941 0.008584210389980567 0.01430189235593878 3.990706207126645 -0.1038622503207964 -0.04273321054028877 -0.474031091488239 0.487153948995912
6762 9 -0.0008356311738479872 0.00937414550183416 0.06900378886885014 4 0 0 0 0
6763 9 0.0005479832159860924 0.008716641895193698 0.02921671895172871 3.999999999537359 1.057616721167413e-08 -4.362511545393271e-09 -3.832222590955684e-08 3.999349720312154e-08
6764 9 -0.0009033115069069554 0.009363839906502469 0.02725619114185363 3.999999993673409 -1.435823815179713e-07 6.245300221239827e-08 -4.506187995095958e-07 4.770467275217213e-07
6765 9 0.0005489259321329522 0.008717144969135351 0.01321333078544873 3.976232743784034 0.1611712275464417 -0.04406998036124478 -1.249344918258622 1.260468584509947
6766 9 -0.0007866271048037705 0.008356374182402376 0.04021873207022926 4 -2.780843048812234e-15 -1.136838999112578e-14 -2.898822232121708e-14 3.126164442886465e-14
6767 9 6.119406392000442e-06 0.008644818143673979 0.03225614526653544 3.999999999994241 -1.839783959984502e-10 1.343704004581517e-11 -9.185623691670955e-11 2.06073221209972e-10
6768 9 -0.0004842992022280723 0.00826834140925858 0.04045875763864104 4 -3.814856945979338e-15 -1.185826768889211e-14 -2.968908703826736e-14 3.219648327481628e-14
6769 9 -0.0001861067887426613 0.008571337040646996 0.03586186854883004 3.99999999999995 -4.719799934201275e-13 -1.532205578048036e-12 -5.892155684984923e-12 6.106383353810218e-12
6770 9 -7.355606651277474e-05 0.008613932685929289 0.04927731723822303 4 0 0 0 0
6771 9 1.277217488043222e-05 0.009469629354616867 0.009342975845431261 3.683833809987685 0.2562043129220005 0.1461396566509711 -10.05036620164414 10.05469334372545
6772 9 -0.0005447298941349426 0.009685529117728027 0.004283236053006635 1.346665346537636 -0.0003580771877266499 0.0003397582252783208 -18.14033020946684 18.14033021618267
6773 9 -6.211559845942032e-05 0.009709270763410896 0.06973744997436729 4 0 0 0 0
6774 9 -0.0008384952824339096 0.008388742269168263 0.05770043119287344 4 0 0 0 0
6775 9 9.876253841116483e-05 0.009106285639473074 0.01842090857735964 3.9998200499223 -0.0007821274942383964 -0.0001653695463291829 -0.009864985691111626 0.009897323536690809
6776 9 4.612221761351892e-06 0.009668518202048679 0.01213883169542759 3.946745466617927 -0.1019177560598896 0.3945755896670974 -2.206988207196213 2.244298124506764
6777 9 -0.0002147921907963378 0.009216434932681487 0.03375708115825985 3.999999999999171 -7.659131260981443e-12 -1.086339387101178e-11 -8.400159115628143e-11 8.504671031178536e-11
6778 9 3.841504892071105e-05 0.009090774641349077 0.02119777307479884 3.999990736035408 4.3261547265532e-05 2.984795738167333e-05 -0.0006069684942353082 0.0006092398665763292
6779 9 -0.000511568955677846 0.009243232399319274 0.004841458755348326 1.860598125918583 1.809851181858479 0.01998950966026632 -26.26556382936738 26.32785225109604
6780 9 -0.0004849988395832224 0.009526803257466033 0.008405897010620887 3.471296131948256 -0.8443623400461304 1.196409782581936 -14.68239947021293 14.75524307939571
6781 9 0.0002107704325044878 0.00908453180263623 0.01230623941455588 3.954736937532889 -0.1441130875055593 0.09633483590977528 -1.886502583717354 1.894450047104014
6782 9 -5.80963033355232e-06 0.009656290855968769 0.02814245999847751 3.999999998322457 -2.844566070789942e-08 2.567075135944799e-08 -1.002744175840701e-07 1.073457121187986e-07
6783 9 -3.408803711371193e-05 0.008241864510367684 0.01049063371581781 3.837516701929779 0.09206988069634639 -0.4666883070696893 -6.392466611756075 6.410140733346126
6784 9 6.476365540309061e-05 0.009098753333174532 0.04756675923031106 4 0 0 0 0
6785 9 2.766095320682919e-05 0.009042480669523654 0.04470993612706724 4 0 0 0 0
6786 9 8.704898756152299e-05 0.009052313101948661 0.05338110580528141 4 0 0 0 0
6787 9 -0.0004187469936618468 0.008876751497374505 0.09290892050988597 4 0 0 0 0
6788 9 -0.0008755777629728095 0.009004166700694538 0.004242564462114517 1.318049383512644 -0.0005645076369390658 -0.0001202193797141813 -18.32815296219823 18.32815297128593
6789 9 -0.0005715936140177724 0.009153230588958752 0.01001968872539253 3.782588736291928 -0.4199198332972129 0.3465499717567827 -8.085673301346352 8.103983112360625
6790 9 0.0002334774530457838 0.008845737943425639 0.04557060766438672 4 0 0 0 0
6791 9 -0.0004205601801447001 0.008241164970793387 0.05179477199470067 4 0 0 0 0
6792 9 -0.0008014334416205302 0.0092141669635433 0.05255916661339732 4 0 0 0 0
6793 9 -0.0007305818167578111 0.008355765091831363 0.01977208441979794 3.999948762849971 -0.000996603333689765 -0.0009199763508988077 -0.00402449404912473 0.004246896165716206
6794 9 9.782153318505059e-05 0.008476258505618159 0.05170008243481504 4 0 0 0 0
6795 9 0.0001092872965858701 0.008786455994925352 0.02044672837872999 3.999980214856237 2.550016443201756e-06 -0.0001046544543292982 -0.001260528196399617 0.001264867736687632
6796 9 -0.0007282719243585321 0.008372997008441855 0.04756091543862837 4 0 0 0 0
6797 9 0.0003469187317979341 0.009296246837576077 0.02733226903540671 3.999999994825366 3.764386790257148e-08 2.310341421025072e-08 -4.313915864605335e-07 4.336467795427203e-07
6798 9 0.0002082883103904067 0.009073808874025556 0.02830789978917393 3.999999998748828 -3.175603574209006e-08 -9.128338744187444e-10 -7.103095625749716e-08 7.781179742551681e-08
6799 9 -0.0009603693801171376 0.009221916767115453 0.09407114056879665 4 0 0 0 0
6800 9 -0.0002825785728564086 0.009449638022361187 0.04429340938775223 4 0 0 0 0
6801 9 -0.0008382216010645047 0.009260242933747501 0.04541904189558373 4 0 0 0 0
6802 9 -0.0008015392064138158 0.00830618326303079 0.06478551139109404 4 0 0 0 0
6803 9 -0.0001775527984271292 0.008595655125047248 0.03395909124969539 3.99999999999931 -8.16925739152416e-12 -1.397119487936502e-11 -7.663181745281274e-11 7.832219671847428e-11
6804 9 -0.0005028628816335082 0.008903674974287894 0.05507984201086336 4 0 0 0 0
6805 9 9.38101317553848e-05 0.008804286761603289 0.03350708115826027 3.999999999998923 -1.679560475058353e-11 -6.199247080528547e-12 -4.95616931673097e-11 5.269615197444514e-11
6806 9 4.123211536374013e-05 0.009723905989454001 0.06199999999999987 4 0 0 0 0
6807 9 4.218396674268515e-05 0.009726699068433072 0.04199999999999997 4 0 0 0 0
6808 9 0.0001258527507329501 0.009086002443971813 0.09319493676906998 4 0 0 0 0
6809 9 -0.0008178531638678198 0.00930601922478059 0.04262602134849837 4 0 0 0 0
6810 9 -0.0002669788775735252 0.009379069918361222 0.06775243344287166 4 0 0 0 0
6811 9 -5.963629500754549e-05 0.009509638038985409 0.009703866559313422 3.739660353203454 -0.1813218160295015 0.5215851819566638 -8.649263471575441 8.666872983016093
6812 9 -6.652254695477667e-05 0.008533488043505694 0.04532060766438672 4 0 0 0 0
6813 9 -0.000374338630078014 0.009026936420242852 0.007241980549114591 3.123900336021836 -0.3208747566413505 0.1464461084613807 -20.21917123246286 20.22224746163953
6814 9 -0.0007777961795183974 0.008381652210890158 0.0561419770126588 4 0 0 0 0
6815 9 7.856885990271098e-05 0.009103620986483953 0.03433011782230337 3.999999999999634 -6.117285792548967e-12 -1.470130882103244e-12 -2.175969010220177e-11 2.2650973127486e-11
6816 9 6.109373921768123e-05 0.008471645908106623 0.04357763872808014 4 0 0 0 0
6817 9 0.0001849657105282039 0.00816334251044144 0.07002628852805012 4 0 0 0 0
6818 9 -0.0002859183508880214 0.009421234987126787 0.06422752729339266 4 0 0 0 0
6819 9 5.858752635279401e-05 0.008479476923310116 0.04025923830478507 4 -6.139796301688126e-15 -1.371735989510755e-14 -2.849802652976347e-14 3.221801634503947e-14
6820 9 0.0001025377471765739 0.009102640209256019 0.04053347707381097 4 0 0 0 0
6821 9 0.0006455131211967724 0.008775975059219135 0.0647641590131129 4 0 0 0 0
6822 9 0.0001017344884626045 0.009108177017287264 0.04650020241379067 4 0 0 0 0
6823 9 0.0006499999999995845 0.008999999999999973 0.0549999999999999 4 0 0 0 0
6824 9 0.000143728974485526 0.008812430331368743 0.02202818221194985 3.999996657898418 -5.507820295414169e-05 -3.252743194286924e-05 -0.0002407415865520134 0.0002490946682790223
6825 9 -0.000811287688683869 0.0093163477728509 0.05532984201086305 4 0 0 0 0
6826 9 -0.0005017760834368237 0.008892010352550347 0.04286850567821688 4 0 0 0 0
6827 9 0.0004644562636088614 0.008782745941449271 0.0261779979283407 3.999999983104041 -2.400947253334251e-07 -1.272725132804475e-07 -8.621163459575968e-07 9.039294019650724e-07
6828 9 -0.0007092848222215008 0.00832964593114084 0.01153022922400555 3.919311024374437 -0.6258538721468475 -0.3633972559856805 -3.40706261568486 3.48307713123561
6829 9 5.83342351202515e-05 0.009093013804768372 0.03557137189733688 3.999999999999931 -2.078335311702216e-13 -1.271858916615485e-12 -7.530239157731078e-12 7.639719998342836e-12
6830 9 0.0002100372748532547 0.008257706001819432 0.02990306077985 3.999999999843459 2.384335969083755e-10 -4.362541633596605e-09 -1.395214310952894e-08 1.462022289275284e-08
6831 9 -3.790543839380299e-05 0.009039238853941587 0.0277097784076207 3.999999997204977 -2.336134014747372e-08 -1.342637609270591e-08 -2.751720111025088e-07 2.764880747567027e-07
6832 9 -8.261317297885554e-05 0.008844619351535916 0.05735773171116883 4 0 0 0 0
6833 9 4.15751929488483e-05 0.009724922698482914 0.05599999999999959 4 0 0 0 0
6834 9 0.0004084797666026706 0.009287994024120507 0.01129456340094433 3.901023225940962 0.4724153013386328 0.4585929437465196 -4.540882032271345 4.588364995943295
6835 9 -0.0004517920870861394 0.009743926072205674 0.07085526096249381 4 0 0 0 0
6836 9 -0.0007331219548902452 0.008364796761653356 0.03556424471570564 3.9999999999999 -2.34875133605916e-12 -3.007683213847304e-12 -8.452272867388449e-12 9.273818403348724e-12
6837 9 0.0006242732895696653 0.008756448827812235 0.02697603623259715 3.99999999153498 1.955944538937462e-07 -3.869205341631495e-08 -5.69675194834727e-07 6.035595190215691e-07
6838 9 0.0006059734426707298 0.008628097408850753 0.0713408147923878 4 0 0 0 0
6839 9 0.0004470675804343513 0.008168864860838794 0.02422962744858163 3.999999721518092 3.76164757230767e-06 -1.420310701175871e-05 -2.274491117127687e-05 2.707783642455565e-05
6840 9 -0.0004440072909224923 0.00810015706654597 0.06732395396057149 4 0 0 0 0
6841 9 -0.000721955639312201 0.008313717506905077 0.02754616482700986 3.999999995663718 -1.164109334673363e-07 -7.896238356621023e-08 -3.285060034444421e-07 3.573552262780463e-07
6842 9 0.0005518145408005021 0.008772634549894534 0.03322773641413993 3.999999999998531 2.252866191164706e-11 6.821259338694663e-12 -1.130134204669613e-10 1.15438743029094e-10
6843 9 0.0002755605056082256 0.008691704036217241 0.01573995467107187 3.997350583294388 -0.01605867713563648 -0.01883702431720789 -0.1880933493792361 0.1897151092485073
6844 9 -0.0005219849292389333 0.008877431564895198 0.01714874551659852 3.999227087190819 -0.01433636337886118 0.001707639327607181 -0.05186461672505874 0.05383665865412883
6845 9 -0.0008516029264620264 0.008402935852683082 0.04613924442952724 4 0 0 0 0
6846 9 -0.0001459386674644952 0.007969296271739597 0.0686849613707871 4 0 0 0 0
6847 9 -0.0003854736630669209 0.008704362324597002 0.07375163990334198 4 0 0 0 0
6848 9 0.000707826410849054 0.009007765998971073 0.01892090857736006 3.999878023770228 0.001858139034617978 -0.0003544057935312679 -0.006460661790482236 0.006731896828491705
6849 9 0.000166989414695171 0.009125537929171326 0.09145459976211068 4 0 0 0 0
6850 9 0.0005285671671186561 0.00875271557338053 0.05694212081304258 4 0 0 0 0
6851 9 -0.0002000239651897944 0.009196477694882415 0.0201967283787302 3.999975593459851 -3.02118442637223e-05 -7.609187947567553e-05 -0.001414864723886883 0.001417231426604513
6852 9 3.288169700128298e-06 0.009268433024336876 0.008110217277035817 3.404139607085429 -0.4597211712488916 1.015887283682324 -14.8853700278217 14.92707645165705
6853 9 0.0004676351140693238 0.008703822271409851 0.05261690874268071 4 0 0 0 0
6854 9 -0.000339305056147682 0.008880385011442945 0.09118180012044565 4 0 0 0 0
6855 9 -0.0008115501192302105 0.009287249988010865 0.02052301986572086 3.999980792718073 -0.0002075981411917433 -2.701126411259883e-05 -0.0010499524778635 0.001070619821592582
6856 9 -0.0007808462124494232 0.009069098072036928 0.06678149696901975 4 0 0 0 0
6857 9 0.0004790205244449384 0.00929901816609929 0.01364708604259199 3.983944226300287 -0.08131975200528239 0.04069798636150171 -0.9049796220507117 0.9095368846215807
6858 9 -1.248627506490465e-05 0.009053280122739947 0.0116879463818068 3.929985577033179 -0.07491898232300173 0.1236461396840787 -3.317425580836077 3.320574303664454
6859 9 0.0007131959202664384 0.009009056269289193 0.04094695907561798 4 0 0 0 0
6860 9 0.0008187014657093179 0.00905764770270873 0.06882429487976678 4 0 0 0 0
6861 9 0.0006582610471735363 0.009000440296282913 0.04299248432971848 4 0 0 0 0
6862 9 0.000313884767820925 0.008212098865822776 0.09232206899474495 4 0 0 0 0
6863 9 0.0005182289493275446 0.008745062170569322 0.03906625826558757 3.999999999999999 3.616864500280138e-14 -1.131698071110518e-14 -8.580708713650054e-14 9.380352411612899e-14
6864 9 -0.0001583782186136082 0.008003752340144416 0.02661875401029591 3.999999986740199 -1.549092184029264e-07 -6.010178152343542e-07 -9.786657349517314e-07 1.158881314433835e-06
6865 9 0.0002909156294285393 0.008760445743049555 0.008373854856305134 3.47600710707338 0.003154342659601404 -0.3442878693646307 -13.28986669559091 13.29432589014748
6866 9 -0.0007957177721746266 0.009372212412501333 0.095429247392639 4 0 0 0 0
6867 9 6.694168581471181e-05 0.009781363299766536 0.0601554649127045 4 0 0 0 0
6868 9 -0.00031098463985577 0.009235941059663966 0.07299751448892491 4 0 0 0 0
6869 9 0.0008182289493281051 0.009057312070489265 0.03881625826558757 3.999999999999999 -3.732191306000622e-14 -4.717471491968493e-14 -4.240471313310918e-14 7.359713729564139e-14
6870 9 0.0001726546540009684 0.009889984755915246 0.03800003268214257 3.999999999999998 -1.828933508210445e-14 -6.254844055046554e-15 -7.067452188851474e-14 7.327012280642498e-14
6871 9 -1.949017064908158e-05 0.009094696847166713 0.08148997486492879 4 0 0 0 0
6872 9 0.000503097123373503 0.009308485082315783 0.02257183044655266 3.999998284055192 -7.085450650360236e-06 -1.161852801154963e-05 -7.865584193049865e-05 7.982440274671301e-05
6873 9 5.201603636325889e-05 0.009752287988098154 0.0681407095219997 4 0 0 0 0
6874 9 0.0004547529356501581 0.008671995481563017 0.07225134396518461 4 0 0 0 0
6875 9 0.0007668620736344101 0.009027931346189524 0.06699564643531036 4 0 0 0 0
6876 9 0.000240666056103415 0.009176891691861372 0.03256223350095262 3.999999999996052 -2.067153051365605e-10 -2.870400335832834e-11 -2.10420636752046e-10 2.963646091516879e-10
6877 9 -0.0008168879457874324 0.009297218284347847 0.03486836673070824 3.999999999999755 -1.076136941218609e-11 3.834612375242108e-12 -2.053287362110106e-11 2.349702582953855e-11
6878 9 -0.0009513666416466617 0.008643023308206035 0.02620645379049161 3.999999973711509 -1.401665955120126e-06 -2.384298778198714e-07 -2.056646277612611e-06 2.500262019788691e-06
6879 9 3.934182691042537e-05 0.009718083739806656 0.04008651799819297 4 -3.146180743605173e-16 1.101470544265914e-14 -1.413490437770306e-14 1.79225623806438e-14
6880 9 0.0002210182461594921 0.009185423996625856 0.06846481484930284 4 0 0 0 0
6881 9 -0.0008593942557721571 0.008903508772180581 0.07394046069217186 4 0 0 0 0
6882 9 1.927358290127669e-05 0.009090330116142964 0.01672505794542412 3.998940469688117 -0.009050707679266114 0.002696837464564469 -0.05817574821269498 0.05893730501060163
6883 9 -5.717448466742251e-05 0.009704275897129768 0.02152604394754361 3.999992877126969 3.02809358935534e-05 0.0001469440171696449 -0.0005000823828076916 0.0005221033124345803
6884 9 -0.0008113609349281905 0.009296897594428446 0.04103603733204893 4 0 0 0 0
6885 9 0.000487597148273609 0.009238495508723795 0.07046988976544125 4 0 0 0 0
6886 9 -0.0002579757985797698 0.008101541020090959 0.07361507362615005 4 0 0 0 0
6887 9 -8.362120461333797e-05 0.008604335708318037 0.09204282787491772 4 0 0 0 0
6888 9 -4.387758614534282e-05 0.009686670294762997 0.09348061682659078 4 0 0 0 0
6889 9 0.0004315462478550287 0.008187196664205537 0.06199578073173612 4 0 0 0 0
6890 9 0.0007294049580983864 0.009013569922892909 0.06294950638024369 4 0 0 0 0
6891 9 3.909134924361602e-05 0.009092782148893705 0.05141449945394847 4 0 0 0 0
6892 9 -0.0007552142576657445 0.00837731940445666 0.05146120685014078 4 0 0 0 0
6893 9 0.0008280003995889531 0.009064528589257517 0.06109550455547405 4 0 0 0 0
6894 9 4.802152110973792e-05 0.009095347749200506 0.04332595759040345 4 0 0 0 0
6895 9 4.195441859955652e-05 0.009726578865029555 0.050066471035607 4 0 0 0 0
6896 9 3.258206877946047e-05 0.009696107495757941 0.06596220949065539 4 0 0 0 0
6897 9 -7.127975104300136e-05 0.007926091023424502 0.01759199460797758 3.999558361660159 -0.00198171791184035 -0.006740475141707679 -0.02936085094438144 0.03018974625922305
6898 9 -9.087810915280567e-05 0.00891775892617943 0.07660402324947019 4 0 0 0 0
6899 9 0.0007103654273597278 0.009008363606224881 0.04691711534634081 4 0 0 0 0
6900 9 -0.0007603393298893948 0.008397407575672625 0.0549614980299375 4 0 0 0 0
6901 9 0.0005917879127888949 0.009003111330532642 0.0809899748649279 4 0 0 0 0
6902 9 -0.0008217623654705263 0.00930402566620862 0.0569230756246199 4 0 0 0 0
6903 9 0.000585085945087964 0.008453003074793254 0.09576329974368558 4 0 0 0 0
6904 9 -0.000147512867497501 0.007916380217190079 0.04554974238201508 4 0 0 0 0
6905 9 -6.990199685487838e-05 0.009120921223281916 0.08347063253647452 4 0 0 0 0
6906 9 -0.0005445731272322507 0.008314347199701028 0.09576292414850793 4 0 0 0 0
6907 9 4.132946753350233e-05 0.009724400794118192 0.03412810773086783 3.999999999999495 -3.970673018838874e-12 1.160750804539276e-11 -3.551772055894484e-11 3.757670769172953e-11
6908 9 -0.0008259406754918206 0.009308442174728468 0.03334157824507254 3.999999999996948 -1.574385004218979e-10 6.421319327362049e-11 -3.323291099242263e-10 3.732999503194713e-10
6909 9 4.136344741802197e-05 0.008313464018839178 0.0761644473884362 4 0 0 0 0
6910 9 -2.78355791518366e-05 0.009060829704540679 0.08053351717471249 4 0 0 0 0
6911 9 -0.0003108477418003922 0.008959473919646476 0.01772738114099671 3.999651902354394 -0.001705089827985447 -0.001623556303579491 -0.02340523120319869 0.02352335252610855
6912 9 4.113047674276265e-05 0.009724322670628267 0.04608297405607219 4 0 0 0 0
6913 9 -2.083493400784195e-05 0.008548522953007013 0.01749172450268947 3.999540593516942 -0.001710989140451157 -0.00234335453495036 -0.03172982839556707 0.03186221593560856
6914 9 0.0006500000000007106 0.009000000000000018 0.05099999999999993 4 0 0 0 0
6915 9 0.0006499412029611273 0.009000002348220628 0.02087148158780818 3.999985536777185 0.0002719747138162238 -1.506699328834961e-05 -0.0008253250194542486 0.0008691137134916948
6916 9 -0.000724567964574713 0.008389114846053605 0.03416146741657099 3.999999999999348 -2.43287938625265e-11 -2.414958301288236e-11 -5.877777809666372e-11 6.804351378700283e-11
6917 9 -0.0002854188050924969 0.008001401746767278 0.06024810730962651 4 0 0 0 0
6918 9 0.0009058695457117369 0.009067417007238305 0.02665871782345396 3.999999988785255 -5.573733756050299e-08 -1.043553542393731e-07 -4.721287320089326e-07 4.86726032121892e-07
6919 9 -0.0008119977370314837 0.009288382531534661 0.01738440215490576 3.999338396028271 -0.01533111015835356 0.002221900270363127 -0.05120320293464863 0.05349530605824983
6920 9 -0.0005076890783499555 0.008749667575848158 0.00477539190666406 1.809788597698577 1.775422802249692 0.8953455499604266 -25.37962677908053 25.45740020555916
6921 9 0.0002173868270227452 0.009156869251455901 0.05760773171116883 4 0 0 0 0
6922 9 3.866140864690806e-05 0.009717283847315078 0.06380107474230377 4 0 0 0 0
6923 9 0.0007958902077911723 0.009043131213834521 0.06517064145879391 4 0 0 0 0
6924 9 -9.387192612615841e-05 0.009086696711749023 0.01599346964359312 3.997991801302287 -0.02182220743787179 -0.007779180958614756 -0.1412580912673995 0.1431452854353134
6925 9 0.0008285671671202569 0.009064965473300513 0.05719212081304258 4 0 0 0 0
6926 9 0.0001493727802094525 0.009137350901483092 0.08979567214375879 4 0 0 0 0
6927 9 -6.896917377516147e-05 0.009102766244498246 0.08539468305181289 4 0 0 0 0
6928 9 -9.527322041130598e-06 0.008965153700668273 0.009878530235866073 3.768054518363179 -0.2922944944686608 0.3293772063216485 -8.254600245027776 8.266338404683996
6929 9 -0.0005307313140801439 0.009908781201134429 0.03072758847721545 3.999999999930206 -6.553424331027741e-10 1.843802384246297e-09 -4.492603517559875e-09 4.900261962667787e-09
6930 9 3.85454522619304e-05 0.009716414434497221 0.05791581381260978 4 0 0 0 0
6931 9 3.952188957608759e-05 0.009719416712483473 0.04383336024930732 4 0 0 0 0
6932 9 4.01910554878428e-05 0.009721325903261116 0.04785729086290325 4 0 0 0 0
6933 9 -7.420407291136563e-05 0.009107911658403245 0.08247077391549321 4 0 0 0 0
6934 9 0.0008306374366969619 0.009028124580281786 0.01283463035971315 3.967605852314676 0.2962027757492373 -0.001851142886590808 -1.33073691143419 1.36330489566529
6935 9 0.0001983102794442043 0.008806743516413714 0.09253350583116354 4 0 0 0 0
6936 9 0.000765823787827356 0.008977828021738674 0.007217109537634512 3.107134050205614 1.495288097631827 -0.1041154361062044 -19.46819004627567 19.52580728668759
6937 9 0.0007843766442447703 0.008981992249770695 0.01087734076035945 3.867037109749408 0.9809737923773252 0.2588516481243168 -4.886636544873026 4.990844665861322
6938 9 3.872954291041345e-05 0.009716110192103061 0.03591599056383306 3.999999999999953 -2.892710407517715e-13 1.84966974745094e-12 -3.533726094425332e-12 3.99902188292029e-12
6939 9 -0.0008061518835183477 0.009291961941107842 0.01898744390031364 3.999878455919592 -0.003776114968268413 0.001232574056131165 -0.007358907260507142 0.008362523490321155
6940 9 3.037650805971365e-05 0.009057718374008029 0.0795435423097845 4 0 0 0 0
6941 9 0.0003752883017163171 0.009739578829994407 0.007943300145129058 3.34947886248901 -0.02946409986261106 1.791709292763651 -15.34176484645443 15.44606224663301
6942 9 0.000776802842112488 0.009029303964910428 0.09099655186197657 4 0 0 0 0
6943 9 0.0001310495241245935 0.008183506953969048 0.03370909124969581 3.999999999999062 -1.739345280568484e-11 -6.856986063586462e-13 -5.573069533824533e-11 5.838589543688328e-11
6944 9 0.000381603715147011 0.008714459664450461 0.08946040726915636 4 0 0 0 0
6945 9 0.0008298586453575334 0.009027637692068538 0.02883629025078546 3.99999999933687 -5.195528437758343e-10 -7.786676024681741e-09 -3.144100281833101e-08 3.239504463483771e-08
6946 9 -0.000822745920022414 0.009311154001430786 0.04689160861528895 4 0 0 0 0
6947 9 -0.0008132170913877164 0.008333096752126387 0.06599608436523569 4 0 0 0 0
6948 9 0.0005370740105266108 0.009016326141769174 0.08297077391549232 4 0 0 0 0
6949 9 0.0005018831589908957 0.008749467883656515 0.004315658240227175 1.364066356782356 0.0005060653518224353 -0.0003704970411049843 -17.66080204596178 17.66080205709859
6950 9 0.0002304107703398177 0.00917237247089424 0.01780369356982231 3.999693316448257 -0.0009354157207014798 -0.001113135570315865 -0.02055923973630157 0.02061058979998291
6951 9 0.000520423578132368 0.008761421504254779 0.01706803693151506 3.99925397601424 0.006499628460593728 -0.000504581541635739 -0.04319401729058703 0.04368321076062805
6952 9 4.086679598228079e-05 0.009723022208116897 0.01812810818856857 3.999759011903283 -0.0003476697784641175 0.002520461223741033 -0.01269813045795424 0.01295052571065995
6953 9 3.872191656316898e-05 0.009716085316473866 0.08200000000000079 4 0 0 0 0
6954 9 -0.0001596290297664189 0.0087056748122071 0.007768005702208055 3.312182329635744 -0.2171610821597264 0.1437219085121576 -17.08982368021355 17.09180763826281
6955 9 -0.0009265728156224934 0.008500443354602791 0.05010681448725248 4 0 0 0 0
6956 9 0.0005768783549422041 0.00954898731082808 0.09576720152473298 4 0 0 0 0
6957 9 4.062994118508428e-05 0.009722273948097625 0.01987148158780839 3.999959555181412 9.060098964247151e-05 0.0006768101465395749 -0.003051687415054268 0.003127151514235234
6958 9 0.0005277878312763113 0.008980358182733756 0.07705625674444934 4 0 0 0 0
6959 9 0.0002123711022497698 0.009176820617864633 0.007601088570301296 3.257521585039326 0.01979497054443758 0.2777543373113839 -17.71896778967668 17.72115568591263
6960 9 -0.0001324161601236162 0.008486523189096092 0.08196074878042119 4 0 0 0 0
6961 9 -3.818725215541172e-05 0.009710037230517983 0.03234414658721964 3.999999999991863 -1.877530742867518e-10 4.35468743007462e-10 -5.786997899168462e-10 7.481829254202661e-10
6962 9 -2.783557915155441e-05 0.008436329904700834 0.08003351717471249 4 0 0 0 0
6963 9 0.0008986866569627203 0.009007233726455054 0.02299355957380789 3.999998719675305 6.138210928318051e-06 -1.671517324825759e-05 -6.916861144680833e-05 7.142388577779379e-05
6964 9 -3.874217088341501e-05 0.009708518496095744 0.01634218310159753 3.998375917799881 -0.007832431926072731 0.03251704709799805 -0.08182999368721691 0.08840165840469254
6965 9 -0.0001991956929900587 0.009198980358908976 0.09225426471133633 4 0 0 0 0
6966 9 -0.0001852749740056332 0.008147261281239774 0.09552622389219351 4 0 0 0 0
6967 9 0.000839474642777707 0.00907385283039224 0.01730369356982273 3.999372512376624 0.009521345337842425 0.0006597107687413547 -0.041758583010806 0.04283538829532449
6968 9 0.0002393185080736595 0.00819892907558805 0.02169991133920509 3.999994516806855 1.552686843865543e-05 -0.0001202746030190453 -0.0003861842393748761 0.0004047781250468606
6969 9 0.0004924219674217252 0.008130577694462768 0.06369455594350688 4 0 0 0 0
6970 9 -8.726748107126238e-05 0.00890214991609741 0.07755625674445039 4 0 0 0 0
6971 9 3.494468765287139e-05 0.008921791733363646 0.07850000000000097 4 0 0 0 0
6972 9 0.000742910023839001 0.009015994463011025 0.09281952209034761 4 0 0 0 0
6973 9 -0.0005408500168070569 0.008311457012194797 0.00421716920432237 1.295851039362322 -0.0003657985901071271 -0.000503018275669508 -18.10175666985117 18.10175668053621
6974 9 -0.0006896833428406339 0.008857416999385762 0.07548689653341256 4 0 0 0 0
6975 9 -0.0001936393310540884 0.009854605421810608 0.004516034528273677 1.565403643611189 -0.2771317890177982 -0.06273889098480898 -22.28363865885188 22.28545018785136
6976 9 -0.0005846788042878601 0.008979510107371681 0.07904354230978557 4 0 0 0 0
6977 9 -0.0006391136625898132 0.009152415221174747 0.08103351717471338 4 0 0 0 0
6978 9 -0.0008446926950629878 0.009338984436289343 0.05093310205603803 4 0 0 0 0
6979 9 3.037650805943143e-05 0.009682218173847871 0.0800435423097845 4 0 0 0 0
6980 9 -7.136730447388134e-05 0.008921703861789095 0.07578534039478199 4 0 0 0 0
6981 9 5.141492631845023e-05 0.009720182579762267 0.09166603659852929 4 0 0 0 0
6982 9 0.0004363195355548294 0.009800603796230621 0.009591241167663418 3.717826913457654 0.4511673436201556 1.14393145298827 -9.327372247214651 9.408081854405562
6983 9 0.0002589209508522429 0.008444802911099695 0.00454845671549422 1.574446460917165 0.5673639840185558 0.4515219567705201 -21.3302726207292 21.34259365781107
6984 9 -0.0006811800802928549 0.009212506739915987 0.08297063253647541 4 0 0 0 0
6985 9 -0.0008397562272716385 0.008374939968694347 0.06347452611851602 4 0 0 0 0
6986 9 -0.0006390330809969687 0.009196365513064856 0.08910465134938245 4 0 0 0 0
6987 9 -0.0002211397078418441 0.008830282828850821 0.08948525735474563 4 0 0 0 0
6988 9 0.0008518145407988976 0.009084884449814389 0.03297773641413993 3.999999999998276 -4.194063839066035e-11 -3.884205393187924e-11 -7.12823227767323e-11 9.137227064437765e-11
6989 9 -0.0001463534025252342 0.007899755362844461 0.06424805973007226 4 0 0 0 0
6990 9 0.0008573227104582083 0.009090136807179147 0.03689929464404287 3.999999999999992 2.033485117067111e-13 -1.215045293582712e-13 -4.805867488418999e-13 5.357962215528743e-13
6991 9 -0.000286944763710414 0.009338819371231872 0.08769137409389305 4 0 0 0 0
6992 9 0.0005794875119499986 0.009005181827287595 0.0889395852109868 4 0 0 0 0
6993 9 -6.218184712291123e-05 0.009124315232985035 0.08442079051372157 4 0 0 0 0
6994 9 5.759139142737457e-05 0.009705956752559964 0.08594614065291588 4 0 0 0 0
6995 9 -0.0001964625620575317 0.008517730715220204 0.08391917493537154 4 0 0 0 0
6996 9 -7.317283782508003e-05 0.008964050998783106 0.08713081157364408 4 0 0 0 0
6997 9 -0.0008605281670543102 0.00879815507532733 0.005847760298125812 2.504180524806799 0.5728813352660876 -1.170380903192803 -20.8131958307055 20.85394699259955
6998 9 -0.0006759451811566507 0.00920736132601099 0.08489454167279509 4 0 0 0 0
6999 9 0.0007089049301277441 0.009008096014765482 0.05308132576181414 4 0 0 0 0
7000 9 0.0006500000000004451 0.008999999999999994 0.0789999999999999 4 0 0 0 0
7001 9 3.880421427558677e-05 0.009717293311104807 0.05191469701004441 4 0 0 0 0
7002 9 0.000544794160258578 0.009019720151472291 0.08492093189273937 4 0 0 0 0
7003 9 -0.0009426610651329403 0.00860229569902383 0.06825288634622925 4 0 0 0 0
7004 9 6.437871807974204e-05 0.009727505741046747 0.08397224811482457 4 0 0 0 0
7005 9 5.326745192615217e-05 0.009740024338576207 0.08990060571359818 4 0 0 0 0
7006 9 -0.0007059334215003795 0.008839550659543083 0.07710402324947124 4 0 0 0 0
7007 9 3.494468765095203e-05 0.008297291933523753 0.07800000000000097 4 0 0 0 0
7008 9 3.422283004436259e-05 0.009699860321216641 0.08814021605280634 4 0 0 0 0
7009 9 -0.0007463387620942027 0.008555790614585321 0.00740889768102135 3.178561080618255 -1.882712828993559 -0.6804689261905379 -19.1409205784707 19.24532374753127
7010 9 -0.0006850340020317285 0.008260352756844745 0.07066314397514244 4 0 0 0 0
7011 9 -0.0004680836279570207 0.008032481418047877 0.02530456622747451 3.999999908599563 -3.088448370016033e-06 -6.836791546383921e-06 -7.275065378785829e-06 1.045020613426212e-05
7012 9 -8.726748106934303e-05 0.009526649715937301 0.07805625674445041 4 0 0 0 0
7013 9 0.000571420950852243 0.008444802911099693 0.00454845671549422 1.574438518773521 -0.689871855344076 0.3320715102435177 -22.03779516461838 22.05109091139004
7014 9 -0.0009518802590593188 0.008699216954743724 0.01016263827071316 3.797067761815219 -1.67713551446544 -0.2173486334215439 -7.453119755193295 7.642579279770935
7015 9 0.000501883158990897 0.009238112560199033 0.004315658240227175 1.364069693716963 0.0005060670296432389 9.853838514778226e-05 -17.66085137188371 17.66085137940921
7016 9 -0.0003574572517628903 0.008719501398679729 0.08813095930487991 4 0 0 0 0
7017 9 -0.000203608861044709 0.009525998769129346 0.07622491625581598 4 0 0 0 0
7018 9 0.0001279984299619921 0.008197687530919779 0.008031643281477372 3.384049829623694 0.3323100034262397 -1.44849818875408 -14.71927325623928 14.79410633100364
7019 9 -0.0006869361718588196 0.009047097091809061 0.08660456273271758 4 0 0 0 0
7020 9 -0.0001436853258775563 0.008344733026230962 0.08757039678463091 4 0 0 0 0
7021 9 -6.576857810533804e-05 0.009095888141873962 0.08630340469163086 4 0 0 0 0
7022 9 -0.0001295589432826993 0.009543730671181562 0.004831692768500852 1.845378403706268 0.1668859043398 -1.202948591866773 -26.05813035798995 26.08641588976414
7023 9 0.0005479947559284015 0.009012842048848007 0.08682965353255734 4 0 0 0 0
7024 9 -0.000589915675456191 0.008359182790589656 0.09177002823325267 4 0 0 0 0
7025 9 -0.0001923291433078741 0.008492697633812244 0.08575194709052786 4 0 0 0 0
7026 9 -0.0001897594537262029 0.008142380708112212 0.004449967679589415 1.506232423377804 1.340556191693086 -0.3066911690232786 -21.3371637660996 21.38143372081482
7027 9 0.0008576822815139038 0.008942117754205097 0.008864951972034194 3.575132687292967 1.940293203308873 -1.079337760428115 -11.64465206498707 11.85443501102015
7028 9 0.0002589209508522462 0.009542777532755854 0.004548456715494217 1.582808426538077 1.717185853563963 -1.368798899260557 -21.49229329585096 21.60418961213721
7029 9 -0.0007563423014472322 0.008308653472841668 0.04481788655973241 4 0 0 0 0
7030 9 0.0002030481532266143 0.008148338102236434 0.09576329974368558 4 0 0 0 0
7031 9 -0.000552762558742892 0.009678968232469644 0.09574564200405031 4 0 0 0 0
7032 9 -0.0006095226904906292 0.008399572977471103 0.005881064643283818 2.516715576112637 -0.1567675726283702 0.4621542939863077 -20.80405326569612 20.80977642708348
7033 9 -0.0005678900293100553 0.009742927334216733 0.07265085199299483 4 0 0 0 0
7034 9 -0.0008162529660961097 0.009268988339869767 0.09262967939005873 4 0 0 0 0
7035 9 -3.628965800811366e-05 0.009080542348664497 0.08857980126379317 4 0 0 0 0
7036 9 -0.001081207303311578 0.008815225164958718 0.03169884807554817 3.999999999979863 1.881358587607199e-10 1.482219542783386e-10 -1.177841553127876e-09 1.201946576748073e-09
7037 9 0.0006890803877713894 0.008689125249370953 0.00504845671549422 1.961334286718917 3.541599770232318 0.3101404387322038 -24.4331475119361 24.69043971589562
7038 9 0.0006890803877713915 0.009298455194484594 0.005048456715494217 1.969692915405223 3.588139417252127 -1.159445733522159 -24.55600210822975 24.84383823860567
7039 9 -0.001018814497739645 0.008813435644576269 0.02867614676965477 3.999999998765129 -8.357241978572781e-08 -8.489212944236689e-09 -7.816109772840618e-08 1.147413320620079e-07
7040 9 0.0006555638855933981 0.008166467512310633 0.06053841982639786 4 0 0 0 0
7041 9 0.001029517134851611 0.009020403393503473 0.02493533058753837 3.999999898878265 7.114323018512372e-06 -4.384774193161523e-07 -6.576664306732346e-06 9.698369340380495e-06
7042 9 -0.001020471982982372 0.00883171836460417 0.01266041222953632 3.96153240562154 -0.9334429921994813 -0.1105291431202984 -1.669659557208551 1.916062511543682
7043 9 0.0001948405630808509 0.008146347716615102 0.004232798475267046 1.294468637495013 0.0001315592572718381 -0.0006156745881536155 -16.7516001250346 16.7516001368652
7044 9 0.0008204017645187097 0.008434366607057868 0.05072199376392692 4 0 0 0 0
7045 9 -0.0007628404463353129 0.009278855485188857 0.09083585397206727 4 0 0 0 0
7046 9 -0.0009736091956562684 0.009407890688466126 0.0065788350874597 2.848164334996265 -2.780291622797049 0.9732072092602349 -19.38183158178625 19.60440127228267
7047 9 0.0001553836551218695 0.009137052275819206 0.09017142777176773 4 0 0 0 0
7048 9 -0.0002886974616159557 0.009812675241646734 0.005392208112715625 2.253384862651805 2.026319040900036 1.525514410171258 -19.79692638962328 19.95874388701145
7049 9 -0.0009809546701455975 0.009235837500220823 0.008518522402270893 3.493129571694056 -3.880005860813947 1.454423716487888 -14.31815840375262 14.90568528790223
7050 9 0.0008904312241829638 0.008939336680123328 0.07088025994536112 4 0 0 0 0
7051 9 5.153492821342679e-05 0.009843382962117463 0.005645895443718877 2.387949306672524 -0.4019027463915108 1.771028109138218 -22.86290412785351 22.93491773563481
7052 9 0.0005714209508522462 0.009542777532755852 0.004548456715494217 1.582800484394433 -2.11430208356077 -1.018370906149118 -23.64526097132525 23.76143343750788
7053 9 -0.0003509108157209835 0.008891899358090824 0.0903986281301027 4 0 0 0 0
7054 9 -0.0007287663070765181 0.008352493662352892 0.04310032439843779 4 0 0 0 0
7055 9 -0.0002016719956620377 0.009848044536552225 0.09551284352878325 4 0 0 0 0
7056 9 0.0004300528737592039 0.009855294336745198 0.07004856140558817 4 0 0 0 0
7057 9 -0.0001256790659548109 0.008440835902596804 0.00476562591981659 1.786210246799957 1.833095097114372 0.8155705024573695 -24.97522050173296 25.05567863758086
7058 9 0.0005231734465466832 0.009574438391652292 0.005585380099504103 2.366829117830997 0.03434690478714063 1.617170017135691 -22.76723616697278 22.82462401129325
7059 9 -0.000810877215095488 0.009333070118816051 0.005334907487113173 2.236545944324779 -0.6302703778088617 -0.5799252137868467 -20.54405800930281 20.56190345012659
7060 9 0.0008029027773825757 0.008232424087119321 0.02561398883894373 3.999999948555106 -6.370672215504202e-07 -7.211019879086614e-07 -3.688451062877463e-06 3.811891127115475e-06
7061 9 0.0006816037151457159 0.008402209764530594 0.08921040726915636 4 0 0 0 0
7062 9 -0.0006575435128949469 0.00959784798858669 0.005652858369213431 2.410601890380531 0.4408973066671911 0.3816580352322315 -20.98284610321834 20.99094766517769
7063 9 -0.0007892418495688822 0.008614078907372719 0.005173153253984556 2.131116853668243 -0.3577724974852757 -1.163373943369875 -20.54980104495621 20.58581460810701
7064 9 -0.0004274341786859921 0.008272880011202573 0.0899624577130806 4 0 0 0 0
7065 9 0.0003282776049174284 0.008380380871011504 0.005575209792417073 2.349825098574595 0.5269003844251665 -2.434657936893854 -23.3040211210617 23.43677844106731
7066 9 0.0001948405630808572 0.0098536522833849 0.09576720152473298 4 0 0 0 0
7067 9 -0.000898790655260324 0.008952205973643644 0.005449432781427035 2.295310384033034 -0.5978183778981564 -0.1611232679146967 -21.29282544897089 21.30182534715649
7068 9 -0.0005250724118890458 0.008301167828318735 0.005457341868792892 2.285649210490492 -0.04576688742163976 -1.700854846158938 -21.77469095365282 21.84106608988619
7069 9 6.603597109281216e-05 0.007934125898671185 0.03231290584530132 3.999999999992415 -1.549356631473547e-10 -6.855246748766371e-10 -7.42086215202608e-10 1.022076851500591e-09
7070 9 0.0001948405630808571 0.0098536522833849 0.004232798475267042 1.302833666442999 6.703585012439186e-05 0.0004181265972741931 -17.57207969803238 17.57207970313489
7071 9 -0.0009824693272903957 0.008513396368775033 0.02450624427045742 3.999999774136648 -1.36098817756339e-05 -8.687377984917344e-06 -1.552166573621618e-05 2.239690883640833e-05
7072 9 -0.001111863298125997 0.009117057495727847 0.02366217957551281 3.999999467336772 -3.933733198874272e-05 -9.447375077456455e-07 -3.366722120093507e-05 5.17860985240614e-05
7073 9 -0.0008882600659225195 0.009611296697544704 0.09432763114884356 4 0 0 0 0
7074 9 -0.0002564983409680203 0.007945845723987379 0.02184369123357923 3.999994792129565 -3.673063582635451e-05 -0.0002895708406174209 -0.0003479856967509585 0.0004541964954591108
7075 9 -0.0006432182374507715 0.008183365880616363 0.008956823658092859 3.593391236841731 -1.952730962450183 -3.350732271304927 -12.17712560849779 12.77978689379477
7076 9 -3.764179853261147e-05 0.01003326546421364 0.07124268802781614 4 0 0 0 0
7077 9 -0.0001739818488087719 0.008132091524237356 0.005292378996739442 2.17469311651199 0.9961472690898799 -2.163264375547781 -21.18392256570977 21.31737782679232
7078 9 -0.0007327964189937587 0.009439862821122951 0.03059526720974666 3.999999999927118 -2.703227866273464e-10 6.929814330197415e-10 -4.806516652429609e-09 4.863733134698408e-09
7079 9 -0.0005172577959653324 0.009031169414530226 0.03042663523935205 3.999999999918067 -1.959402720597095e-10 4.20807845712833e-10 -5.249152336062807e-09 5.269636807259294e-09
7080 9 -0.0003470625579032512 0.008967417711859363 0.03067320686058541 3.999999999939088 -8.902818812016878e-11 6.740140307968168e-10 -4.577063107130578e-09 4.627280801793506e-09
7081 9 -0.0001315239348748249 0.008558724305266637 0.0305045748901908 3.999999999930036 -5.894265060184083e-10 4.170072652844469e-10 -5.838459345414474e-09 5.882935168209377e-09
7082 9 -0.0005013247762718424 0.008584289509903892 0.02503510849955102 3.999999896241901 1.079458133787334e-07 -1.533698737185505e-06 -9.744924982661172e-06 9.865467400623462e-06
7083 9 -0.0001571077588251632 0.008826138149613846 0.03117754050352383 3.999999999966802 1.793595436585526e-10 5.10639813065506e-11 -2.611878555294463e-09 2.618527632792018e-09
7084 9 -0.0003591728637387779 0.00835721976960237 0.03104521923605504 3.999999999963714 5.424221220174017e-10 3.958359458082815e-10 -2.476297587190922e-09 2.565727498152402e-09
7085 9 0.000365797823886028 0.008423494376480127 0.02489717416789738 3.999999888349071 -3.192908467144403e-06 -9.541402795340672e-07 -6.854203903989413e-06 7.621362037723669e-06
7086 9 -1.060435033276296e-05 0.008918126796513978 0.02493294750669521 3.999999894147298 -9.779600742318918e-07 -1.838706124702104e-06 -8.82178380338418e-06 9.064276893026831e-06
7087 9 3.346328241173448e-05 0.008401170211833309 0.0379421679027159 3.999999999999996 -6.966710141950539e-15 -5.629336053031107e-14 -2.993009396774074e-13 3.046285114393868e-13
7088 9 0.0004060210123642039 0.008707844826160866 0.03790780053564177 3.999999999999997 -6.524723655390922e-14 -9.066179676794409e-14 -2.65263723112745e-13 2.878221778646476e-13
7089 9 -0.0003849673142771121 0.0093123871909539 0.03743899915171942 3.999999999999996 -1.507589621558816e-13 -1.478424310199749e-13 -1.911156064029804e-13 2.847996209460144e-13
7090 9 0.0002377920630363874 0.009275032555511431 0.03759154227005418 3.999999999999997 -8.964790401782587e-14 -1.34549278838108e-13 -1.452839368508618e-13 2.173653087259544e-13
7091 9 -0.0002378670988667349 0.008295742754869634 0.03716066350708979 3.999999999999991 -1.966310501290933e-13 -1.912048540958223e-13 -7.036079951581422e-13 7.551736733726455e-13
7092 9 -2.992578197272526e-07 0.008824789142137714 0.03708826111361972 3.999999999999993 -2.419228213754874e-13 -2.419106104781597e-13 -7.583704432260941e-13 8.319694249929707e-13
7093 9 -0.0003487917340810872 0.008287722976039361 0.03695320388554982 3.999999999999986 -5.987701015500171e-13 -2.242178411205322e-13 -1.736099884948755e-12 1.850092453177963e-12
7094 9 -0.0008005554684024419 0.008300409204578689 0.03684440589300011 3.99999999999998 -3.901321865457452e-13 -1.726914412512191e-13 -1.549359206548415e-12 1.607028129118069e-12
7095 9 2.91193141770337e-05 0.008430913968418569 0.05365673666839495 4 0 0 0 0
7096 9 -0.0004652469750410921 0.00817678623902638 0.05350891328992261 4 0 0 0 0
7097 9 -0.00013852676365971 0.008218858281235844 0.04617392609473915 4 0 0 0 0
7098 9 0.0002427021412432735 0.008523706747905497 0.04619490438848841 4 0 0 0 0
7099 9 -0.0004561438063940638 0.008328443528172403 0.04588282944946492 4 0 0 0 0
7100 9 -7.491490149108033e-05 0.008633291994842054 0.0459038077432142 4 0 0 0 0
7101 9 0.0001206370734628774 0.009112976112507042 0.06244950638024369 4 0 0 0 0
7102 9 -0.0003585733414877314 0.009262541706184976 0.01254963505078536 3.960527547627771 -0.1305581282868074 0.105883705770064 -1.91536423103751 1.922726429200803
7103 9 -0.0006024572623159077 0.008701692594071284 0.0123379649142681 3.954825572701883 -0.06404643156668116 0.1797431715452174 -1.958653753795337 1.967926340178952
7104 9 -0.0001346269944689463 0.009145254041429046 0.06170076979601812 4 0 0 0 0
7105 9 0.0003521412897558914 0.008798126541152498 0.06154627435149231 4 0 0 0 0
7106 9 -0.0001497874650585155 0.008737926080902344 0.02373466849890614 3.999999576868783 -1.508249224749662e-06 -4.945434107855032e-06 -3.528520584680369e-05 3.566199497911471e-05
7107 9 5.717855863887741e-05 0.008460002655855102 0.02875641799222042 3.999999999164211 -1.961911337083681e-08 -5.211748651613857e-09 -4.983517162775255e-08 5.381093071702904e-08
7108 9 -0.0004802471575248845 0.008415179171272913 0.04987679041487279 4 0 0 0 0
7109 9 -0.000460773708614654 0.008379820336166435 0.05023256984653079 4 0 0 0 0
7110 9 -6.338227978789414e-05 0.008680568894453506 0.05024059636601648 4 0 0 0 0
7111 9 -0.000152913557887515 0.00796549873907844 0.05041598508074792 4 0 0 0 0
7112 9 0.0002444778709392449 0.00826624729736551 0.05042401160023361 4 0 0 0 0
7113 9 -0.0008388644667987113 0.008406998709604614 0.01597218756003396 3.997615056347483 -0.01918139201522594 -0.006032997526210184 -0.1416549945310304 0.1430750164577285
7114 9 -0.0009026790733188258 0.008724286806587709 0.01565171067573697 3.996916473680593 -0.02100018919239625 -0.007303974040850842 -0.1408503520339172 0.1425944516837322
7115 9 -0.0007292649317755702 0.009240760215257745 0.05961430659117321 4 0 0 0 0
7116 9 -0.0002310656590578537 0.009131400581288798 0.0270498068743932 3.999999992991099 -2.475965027529528e-08 1.739323593927875e-08 -4.596405960084359e-07 4.606354767461843e-07
7117 9 -0.0005184873367152184 0.009620847890136959 0.02687868176963963 3.999999991293798 -8.39156044535115e-08 5.343258871710578e-08 -4.865281699856953e-07 4.965949359361604e-07
7118 9 -0.0006467446108543396 0.009073348285220361 0.0289545372312663 3.999999999265099 -1.302456046329911e-08 -3.67682201480076e-09 -6.150906982501138e-08 6.298034507787952e-08
7119 9 -0.0003577708458219577 0.008586534560502837 0.02908112974214966 3.999999999376273 -6.038239594172024e-09 -7.770699070948509e-09 -5.857094533762569e-08 5.939191644652497e-08
7120 9 -0.0004452650025068419 0.008589137324765541 0.03909671566599153 3.999999999999999 -3.200726194007798e-14 -1.131698071102827e-14 -6.583108530035277e-14 7.406936384995399e-14
7121 9 -0.0007507645596993436 0.009010049589304838 0.03906509844080077 3.999999999999999 3.74599441485761e-14 -4.508798131590031e-14 -7.162694855183365e-14 9.255589248451143e-14
7122 9 -0.0001860267665682218 0.007959587919050572 0.01400655009167412 3.988011655937923 0.005859325827091487 -0.1291134630808077 -0.6429397586638131 0.6558019146957025
7123 9 -0.000459749492918981 0.008467136117336077 0.01416349493646468 3.989902201227142 -0.003888282457399416 -0.02238677775106163 -0.5535897891857008 0.5540559008342142
7124 9 -0.000388390686856143 0.008934194810754383 0.06551469418161562 4 0 0 0 0
7125 9 0.0001791983481741702 0.009114710278809904 0.06565864550841954 4 0 0 0 0
7126 9 -0.0007093796405777078 0.008432881917835285 0.06098908400235591 4 0 0 0 0
7127 9 -0.0004200930497835599 0.008890202259804402 0.06108336446673979 4 0 0 0 0
7128 9 -0.001006697691807825 0.008844786342884632 0.06126175132985524 4 0 0 0 0
7129 9 -0.0007174111010136765 0.009302106684853749 0.06135603179423911 4 0 0 0 0
7130 9 -0.0004810890995372156 0.00882309197470949 0.02223920673180134 3.999996993979622 -4.656890346933316e-05 -2.935277186203902e-05 -0.0002541936685238834 0.0002600858879369485
7131 9 -0.0005813164149896781 0.008268757267248088 0.02230471575343072 3.99999716163894 -2.68643096894586e-06 6.093073652437831e-05 -0.0003016521935472518 0.0003077561005676781
7132 9 -6.220763584590903e-05 0.008245456640362865 0.01807487225247048 3.999733804422709 -0.0002132956308434809 -0.001461709641255307 -0.01414269269532775 0.01421962892539579
7133 9 0.0002883065127687017 0.008555635902250417 0.01809649395861338 3.999754354467274 -0.001196062941310001 -0.002724442592511431 -0.0150105580379992 0.01530261437178654
7134 9 -0.0001135281272469264 0.008617899685161991 0.0263955357673272 3.999999984978098 -1.850206689329469e-07 -8.963487950713754e-08 -1.308482461924288e-06 1.324535168547857e-06
7135 9 -0.0005751617715334893 0.009032140972937287 0.02647711141443733 3.999999986031788 -1.463188378577652e-07 -1.079082867014242e-07 -1.270778210431236e-06 1.283717515950335e-06
7136 9 0.0003415627475289663 0.008687968498707366 0.04244245234243892 4 0 0 0 0
7137 9 -0.0002082348570175955 0.008484631102057209 0.04248500043025234 4 0 0 0 0
7138 9 2.548566709797029e-05 0.009101977370937608 0.0421999680127204 4 0 0 0 0
7139 9 -0.0005243119374485915 0.008898639974287449 0.04224251610053383 4 0 0 0 0
7140 9 0.0007722831738684599 0.009001990385621333 0.09503050126841853 4 0 0 0 0
7141 9 0.0004597831738684598 0.009001990385621333 0.09553050126841853 4 0 0 0 0
7142 9 -0.0004902761903731396 0.00920574342338073 0.06277656523398151 4 0 0 0 0
7143 9 -0.0007452876044181979 0.008696403533715796 0.06272940558726534 4 0 0 0 0
7144 9 6.245251507986489e-05 0.008464862197699777 0.09361803048063556 4 0 0 0 0
7145 9 -0.0006935591316550862 0.008914864709500293 0.09389286196215976 4 0 0 0 0
7146 9 -0.000107277821798428 0.009065530048490958 0.09390371053815637 4 0 0 0 0
7147 9 -0.0002998358815540194 0.00821455381655823 0.01189368396441783 3.938711997361361 0.05573410714447886 0.0326543087974006 -2.862157898019853 2.862886729820035
7148 9 0.0001936719356782313 0.0084692937233275 0.01185535410093509 3.93797704794814 -0.1282892278232366 -0.1858722325002647 -2.775397898138587 2.784571799358423
7149 9 0.0001761925023301561 0.008456756871998374 0.02787521819831711 3.999999997631348 -2.872006099669819e-08 -4.619204124200499e-08 -2.111366865351609e-07 2.180303808619431e-07
7150 9 -0.0003146121550170589 0.008200117632659779 0.02791491723880882 3.999999997505152 6.830095721670533e-09 -3.800580984134425e-09 -2.309273723390577e-07 2.310596155082189e-07
7151 9 0.0002059550052245491 0.009195800458254867 0.05987104751112764 4 0 0 0 0
7152 9 -0.0002677406950774937 0.008928083824098276 0.05977052001421433 4 0 0 0 0
7153 9 3.454215628871893e-05 0.007888567284448011 0.06634411409548865 4 0 0 0 0
7154 9 0.0004186196582203984 0.008192759511858936 0.06637366189913305 4 0 0 0 0
7155 9 -0.0003993125210495311 0.008244476797494975 0.06608666126226757 4 0 0 0 0
7156 9 -1.523501911785162e-05 0.0085486690249059 0.06611620906591197 4 0 0 0 0
7157 9 0.0003309809463176913 0.008253305010153918 0.05817931811551595 4 0 0 0 0
7158 9 -3.763352627409264e-05 0.007945884425342577 0.05813869928915724 4 0 0 0 0
7159 9 -3.915642439977529e-05 0.008649429337869947 0.05792570610578077 4 0 0 0 0
7160 9 -0.0004077708969915592 0.008342008753058607 0.05788508727942206 4 0 0 0 0
7161 9 -0.0005819520310126143 0.0082716823829143 0.0573824567982615 4 0 0 0 0
7162 9 -0.000151227645570264 0.008224948866804643 0.05756711288481012 4 0 0 0 0
7163 9 -0.0002330822031334552 0.008473925756487061 0.03943269473818031 4 -2.491810962707803e-15 -1.13169807110618e-14 -3.172308415422902e-14 3.377332146154287e-14
7164 9 0.0003060497791759496 0.008689086613973985 0.03947576123097409 4 -8.006681510814896e-15 -1.131698071105556e-14 -3.279669532012396e-14 3.56062385706644e-14
7165 9 -0.0005437403762227592 0.008879759596373826 0.03976921273637329 4 -2.371292236673775e-15 -1.076962454389622e-14 -3.018876805025639e-14 3.213984374698144e-14
7166 9 -4.608393913354484e-06 0.009094920453860754 0.03981227922916707 4 -6.904316627189946e-15 -1.233429401605083e-14 -3.539015709116117e-14 3.81086291527253e-14
7167 9 -0.0004208473151127293 0.008865676133004491 0.05229496955079662 4 0 0 0 0
7168 9 9.753439821702135e-05 0.009100769667829262 0.05220027999091099 4 0 0 0 0
7169 9 -0.0007962579940276106 0.008598659931263712 0.04402702225702744 4 0 0 0 0
7170 9 -0.0002692677703880612 0.008825926721541253 0.04404520353680653 4 0 0 0 0
7171 9 -0.0002296195257894265 0.00916246085077903 0.05368163361863729 4 0 0 0 0
7172 9 -0.0008348167045119938 0.009271935101485985 0.05387714223844353 4 0 0 0 0
7173 9 -3.585617234146669e-05 0.008468508331796245 0.0163763444874197 3.998556353190523 -0.01405060420109185 -0.01090905402618107 -0.08028767352710615 0.08223464877140937
7174 9 -0.0005785396461101558 0.008257151244373609 0.01648895467720711 3.998600004039843 0.01316233586735834 0.007059252926291781 -0.08425631907510189 0.08556989798666285
7175 9 0.0002051890366783251 0.008819099739290667 0.01059851637966034 3.85020311545372 0.168855517342179 -0.02283220668907051 -5.881061461190666 5.88352933244165
7176 9 -0.0005283328983849216 0.009030191396357475 0.01041090359294531 3.831060865285188 -0.0300976594086097 -0.1004678770437331 -6.632085407362995 6.632914631892735
7177 9 3.373339359172018e-05 0.008842114508066996 0.01026974510341886 3.81652664735644 -0.1756871475849362 -0.01681629063337869 -6.73478465677496 6.737096788275244
7178 9 0.0001947793794593391 0.008571041466397753 0.06034817726914467 4 0 0 0 0
7179 9 -0.0003945072113351844 0.008425971024348573 0.0605038968047608 4 0 0 0 0
7180 9 -0.0003830411593721396 0.009028184997501524 0.04963470320418269 4 0 0 0 0
7181 9 0.0002123561831175557 0.009160945472087404 0.04978846479953401 4 0 0 0 0
7182 9 4.480282127701732e-05 0.00910947425070693 0.05469550861980615 4 0 0 0 0
7183 9 -0.0002126736269788692 0.00860320685209166 0.05457716463888029 4 0 0 0 0
7184 9 4.451568631011403e-05 0.009733985412918077 0.0541957061759021 4 0 0 0 0
7185 9 -0.0002129607619457725 0.009227718014302807 0.05407736219497625 4 0 0 0 0
7186 9 -0.0002421935639966619 0.008906658591267816 0.07141634136606012 4 0 0 0 0
7187 9 0.000457714166893939 0.008721615019318054 0.0153197387655524 3.995865528025518 0.01841091733513359 -0.004889666140132995 -0.2617139367365834 0.2624062792584115
7188 9 -0.0005539944772049323 0.009287957343461325 0.008851878729702202 3.584708229768098 -0.52905545053596 0.08040441273147943 -13.41879167554691 13.42945771693912
7189 9 -0.0003315326937707567 0.008720592425170804 0.008703815608053233 3.550251107149903 -0.2140606944546524 -0.3547027338802963 -13.06409776235451 13.07066510758686
7190 9 -7.645158536540692e-05 0.008365037891771907 0.009447920773821918 3.692516817061319 0.6343612408694014 -0.7644957233441294 -11.23882674282964 11.28264572032073
7191 9 0.0002352339583146079 0.008902264436326348 0.009194912723782292 3.649376687369491 0.605454182688497 -0.860154558818476 -11.02273512606956 11.07281040621029
7192 9 0.0001330338115252573 0.00884317379984143 0.02954143070165795 3.999999999749421 9.618215656621063e-10 -9.458623157058216e-10 -2.454396749686053e-08 2.458101089726359e-08
7193 9 0.0001757876267359497 0.009457932435937309 0.02968024729082363 3.999999999788941 -6.621171210580011e-10 2.146485241014827e-09 -1.913720353316611e-08 1.926858471818099e-08
7194 9 -0.0003810922089038346 0.008677940559951376 0.07413303694839748 4 0 0 0 0
7195 9 -0.0004620445551700844 0.009328598516963901 0.01481842591892741 3.993791337679418 0.02103337874670177 0.03111180095672049 -0.3370364443339373 0.3391222670211085
7196 9 -9.519054946825856e-05 0.009526556079304744 0.01454467823029342 3.992131515864197 0.01952705552666549 0.0300675709394245 -0.3358282263065306 0.3377365279384644
7197 9 -0.0005238124445292717 0.009042396203225774 0.03008841673799683 3.999999999876284 -1.175950587913948e-10 -4.295877128568514e-10 -1.003550753626293e-08 1.00453862897989e-08
7198 9 0.0008202163338441291 0.009058873774919308 0.04922188003375114 4 0 0 0 0
7199 9 0.0005218412759769206 0.00874669316051517 0.04893107883357434 4 0 0 0 0
7200 9 0.0007907290684205548 0.009040038990184115 0.04519458896332008 4 0 0 0 0
7201 9 0.0004907290684199944 0.008727789090264173 0.04494458896332008 4 0 0 0 0
7202 9 0.0005555989953125313 0.008713250827203922 0.0140062648676371 3.988521058443776 -0.143512807538158 -0.0275782818626825 -0.5863770743108658 0.6043132969208542
7203 9 -0.0004403921648229041 0.009140106029710687 0.07251428571580291 4 0 0 0 0
7204 9 -0.0001021524538052994 0.008866731856195817 0.07215468146925451 4 0 0 0 0
7205 9 -0.0007633202246840754 0.008623897256637911 0.07231701402710036 4 0 0 0 0
7206 9 -0.0004250805136664707 0.00835052308312304 0.07195740978055196 4 0 0 0 0
7207 9 8.073449586450934e-05 0.009422867364340594 0.07161361305476269 4 0 0 0 0
7208 9 0.0006376398853199668 0.009228130989707794 0.07171027555069279 4 0 0 0 0
7209 9 0.0006871711824528292 0.009003722715325612 0.03483011782230378 3.999999999999778 4.613560885515469e-14 -3.984519473914927e-12 -1.122311407589575e-11 1.190952616576247e-11
7210 9 0.000406775874662811 0.008692876227910838 0.0352354991558076 3.999999999999848 3.899853818291626e-12 -2.869386607099754e-12 -1.445477542298354e-11 1.524410613430437e-11
7211 9 -0.0007121552888764905 0.009532728841502486 0.01343611858173699 3.980102486032767 -0.1755636035771577 0.1712481527735876 -1.028156600693434 1.057002603723775
7212 9 -0.0003824555894712488 0.009658607509855043 0.01371110856236394 3.984590337145374 -0.03980549805768716 0.1127433359897948 -0.9060412323181625 0.9138961933099091
7213 9 -0.0001087328631204896 0.009151059311569539 0.01355416371757338 3.982699791856156 0.06665851249461326 0.03183180032078362 -0.910335829905201 0.9133279498673232
7214 9 7.262457446664735e-05 0.008493428884344912 0.09074457427848108 4 0 0 0 0
7215 9 0.0005789190453095003 0.008738581802073294 0.09051737392014612 4 0 0 0 0
7216 9 -0.0002445908026808508 0.008677023096921494 0.07346946072056754 4 0 0 0 0
7217 9 0.0005476961423892342 0.008734727265269523 0.0588850084207681 4 0 0 0 0
7218 9 0.0007887391117692793 0.009038947814830164 0.05921578551290665 4 0 0 0 0
7219 9 0.000461410843541501 0.009330156229231236 0.0310124171378397 3.999999999949277 1.23467721616329e-09 9.533399105531003e-10 -3.768525072126632e-09 4.078610796878413e-09
7220 9 0.0008383814010854279 0.009024378863800151 0.03063087536830099 3.99999999993213 -9.673423108565021e-10 8.665910179532814e-10 -2.728078949574093e-09 3.021447648707452e-09
7221 9 0.0004602436814465103 0.009329987492165674 0.01500903295976728 3.994207293945901 0.07123727977736156 0.0390178252090223 -0.3164403655879163 0.3266980956288757
7222 9 0.0008373104998765409 0.009024230438350357 0.01462756444190152 3.9924873818147 -0.04012703704465377 0.03447272919918496 -0.2637933422460609 0.2690454897852234
7223 9 -0.0002154128480730332 0.008656582945953178 0.07495186537819239 4 0 0 0 0
7224 9 0.0004029031902937193 0.008720869808356509 0.0752503092395618 4 0 0 0 0
7225 9 0.0006928738024449754 0.009032556633043023 0.07488362835614636 4 0 0 0 0
7226 9 0.000894815271502048 0.00903205134276865 0.07305352446795861 4 0 0 0 0
7227 9 0.0005948152715008757 0.008719801442848684 0.07280352446795862 4 0 0 0 0
7228 9 0.0004673174070137247 0.009322622747354726 0.07344009074515054 4 0 0 0 0
7229 9 0.0001673174070125524 0.00901037284743476 0.07319009074515052 4 0 0 0 0
7230 9 -0.0003824432191083813 0.00965099356978001 0.02971393771817693 3.999999999782938 -1.687950480833389e-09 2.915497496615097e-09 -1.909103069672735e-08 1.938599379814975e-08
7231 9 -0.0007141707993514557 0.009523048658401659 0.02944852861812789 3.999999999632244 -1.808711920701534e-08 9.614032954617194e-09 -3.426896756129219e-08 3.992412364195543e-08
7232 9 -0.0008561210841885362 0.008400948790346164 0.09358387662549356 4 0 0 0 0
7233 9 -0.0004821472293149319 0.008255611251102466 0.09333201422145153 4 0 0 0 0
7234 9 -0.0002629876273555781 0.008517205691926856 0.03652200349953003 3.999999999999979 -5.729436381502801e-13 -4.031617870101634e-13 -1.410714778100868e-12 1.575093655677112e-12
7235 9 -0.0002172004011766459 0.009140177671160942 0.03663795353315839 3.999999999999984 -7.547478753641171e-13 -1.882730545417079e-15 -1.779709992156555e-12 1.93313619701842e-12
7236 9 0.0001887761069657766 0.008504519463387527 0.03663080149207974 3.999999999999985 -5.556613212257705e-13 -4.08770899531963e-13 -1.379136035935038e-12 1.542034162340494e-12
7237 9 0.0002345633331447088 0.009127491442621613 0.0367467515257081 3.99999999999999 -3.134412598242826e-13 -2.308829502113387e-13 -9.6412087081972e-13 1.039750649727472e-12
7238 9 -0.0001970251690909063 0.008914082882618732 0.02349495625770035 3.999999423514342 2.319991168501548e-06 -2.899222240618953e-06 -5.076747385623073e-05 5.090308684515602e-05
7239 9 -9.76826761116649e-05 0.009509572587581729 0.02351388613257968 3.999999508228234 -4.461519385302914e-06 -1.296193117366016e-05 -3.647586291447537e-05 3.896672157536141e-05
7240 9 0.0001745260899607375 0.008422405664832806 0.02318565421878003 3.999998971042617 1.641251152888001e-05 -4.801628025151667e-06 -8.130827630081453e-05 8.308707457473237e-05
7241 9 0.0002738685829399789 0.009017895369795803 0.02320458409365937 3.999999055756509 1.274268286179164e-05 -1.393342945502203e-05 -7.371034773880044e-05 7.609028707180147e-05
7242 9 0.0002527910900639471 0.008872464637915307 0.03004187736901568 3.999999999882979 -2.116588275125227e-09 1.828393310649069e-10 -6.215228061725864e-09 6.568290188979662e-09
7243 9 -0.0001380785834387642 0.008569951093962186 0.03016635638883558 3.999999999888253 -7.32157201828869e-10 -1.434258805301023e-10 -9.273066174798744e-09 9.303030766024174e-09
7244 9 -0.0001707078409637746 0.009125101513640479 0.01101573902024521 3.884189231645275 0.08238411914492073 0.4267770816219041 -4.726890123698228 4.746832213381976
7245 9 -0.0004660517397100855 0.009622307275895269 0.01085778282339247 3.869635806404384 0.1936271328289173 0.3514788114579115 -4.651407733231816 4.668685331251202
7246 9 -3.21543922528967e-05 0.00856529197267417 0.01391334254261849 3.987276623999646 0.0605047902287115 -0.01942736750380538 -0.6835163474269679 0.6864640190488149
7247 9 -0.0003058771186036559 0.009072840170959676 0.01407028738740905 3.989167169288864 0.01907579448926906 -0.009971885875652007 -0.5925435848790614 0.5929344183167675
7248 9 -3.882745543247579e-05 0.008569186114605599 0.01312040846043012 3.974988309339902 -0.01423927132052629 -0.04898231258906648 -1.316370108969115 1.317358071133916
7249 9 -0.0003264597248606854 0.00905817562930078 0.01298510367092402 3.972152027965427 -0.08664551187370503 -0.03013164808793338 -1.417108259015461 1.420074356755372
7250 9 -0.0002827113762606521 0.008008337002491907 0.01290873832391286 3.969286334414015 -0.1809707343797649 -0.3451283242031536 -1.411630859915695 1.464433559959465
7251 9 -0.0005703436456888617 0.008497326517187088 0.01277343353440676 3.966450053039539 -0.149906587465559 -0.0614210059829362 -1.485033353213443 1.493843561119399
7252 9 -0.0003529401004101005 0.009258841175225768 0.07447175077196883 4 0 0 0 0
7253 9 0.0002653759379566521 0.009323128037629099 0.07427019463333825 4 0 0 0 0
7254 10 0.006943549036592193 -0.000386217453957853 0.005549348423721408 1.084019020610175 -0.08980725263315097 0.02540276018725372 0.06078390629881332 0.1113791996541035
7255 10 0.003185868791443879 -0.0003862174539578529 0.008580069404314666 1.084017054631191 -0.04809758680474895 -0.006106412860403343 -0.02597900066123973 0.05500522347758214
7256 10 0.006580069404314664 0.0003868232814870903 0.00518586879144388 1.084018993380457 -0.08981435434291347 -0.04078143492789273 0.06079100873760451 0.1158675555284907
7257 10 0.003549348423721408 0.0003868232814870904 0.008943549036592193 1.084017255536186 -0.0480969398802762 -0.01221654152163266 -0.02597966131431927 0.05601341191717762
7258 10 0.003650980685903567 -0.001331663943113175 0.007560541789070981 1.08401675261917 -0.07850266252544318 -0.02215986133634207 -0.122244057745461 0.1469603250272166
7259 10 0.005560541789070982 -0.001331663943113175 0.005650980685903566 1.084018021825794 -0.2306719719383658 -0.00330102224025491 0.01914156943059602 0.2314883475815386
7260 10 0.005592204861136168 0.001439729763712498 0.005732172732050089 1.084018215251415 -0.1738280353402182 0.001261177112336163 0.04754216913409957 0.1802166315408325
7261 10 0.00658774964946298 -0.001522858987186172 0.005541668178573093 1.084019036571205 -0.08605977738014016 0.03543503491872142 0.05787764759756132 0.1095981253208183
7262 10 0.003541668178573093 -0.001522858987186172 0.00858774964946298 1.08401715072292 -0.05213461178063331 0.004208210099854203 -0.02380477962593915 0.05746646248727506
7263 10 0.00658774964946298 0.001523222483703715 0.005541668178573093 1.084019026308661 -0.07679967495242407 -0.02473686006458919 0.07354024282468853 0.1091708277580014
7264 10 0.006580069404314666 -0.0007727984044332483 0.005178188546295565 1.084019020866738 -0.08920004154887648 0.02620577121478757 0.06101791217457096 0.111205105383821
7265 10 0.003549348423721408 -0.0007727984044332485 0.008951229281740509 1.084017204931559 -0.04922864242847746 -0.00433246268625468 -0.0267107527755299 0.05617556214328575
7266 10 0.006951229281740507 0.0007732830664566381 0.005549348423721408 1.084019097562541 -0.07968845263279345 -0.01623874949318399 0.07642902029081601 0.1116035017852277
7267 10 0.003178188546295565 0.0007732830664566382 0.008580069404314666 1.084017085212275 -0.05288915555237275 0.004221356733756807 -0.0384020946419121 0.06549659151897212
7268 10 0.003682643757968752 0.001076250131434969 0.008005213467495033 1.084017020866429 -0.03599131135339376 0.05393096242795958 -0.05529993342207492 0.08521740337412796
7269 10 0.00404612339024628 0.001439729763712498 0.008005213467495033 1.08401713241398 -0.1047174066586681 -0.01969880808641419 -0.05904316438828656 0.1218190196903771
7270 10 0.003319164125691223 0.0006897903464654213 0.007634053590069189 1.084016832728608 -0.06707739744193393 0.00495264264374449 -0.07519947562902066 0.1008903714514892
7271 10 0.003231414476228245 0.001826068383176198 0.008327024921199468 1.084016941228701 -0.0409764401767758 -0.01097044852913083 -0.05031479789208727 0.06581032044757709
7272 10 0.00517402142134851 -0.001695143575390704 0.006093768245348342 1.084017473968214 -0.2193153782214451 0.01453634847078837 -0.002414275977814411 0.219809848004535
7273 10 0.005495832875052945 -0.001639058131927171 0.00483627177188553 1.084017907483606 -0.2925390609964184 -0.06514400705402906 -0.04270141775037237 0.3027313246785231
7274 10 0.003791956265299225 0.0001079446550934745 0.006970325361954718 1.084016592820589 -0.0806306970637055 -0.03920884609788913 -0.110367429116786 0.1421956832367136
7275 10 0.006580069404314666 0.001807757685331539 0.006678127963542642 1.084018545439188 -0.0606247668160922 -0.0370898522916142 0.06454866712322052 0.09600807217054014
7276 10 0.005205684493413696 0.0009973057007852651 0.005368693099772561 1.084017646641933 -0.2563154379129698 -0.1889477695284023 -0.07523849580143442 0.3271997777700012
7277 10 0.005830069404314665 0.0006943386358069342 0.004814708914018037 1.084018353517096 -0.2873796256251716 -0.03685512878921682 -0.01538581710237518 0.290141470855928
7278 10 0.00658774964946298 -0.001522858987186172 0.00858774964946298 1.084018121194977 -0.0485340563720289 0.0215567412597188 -0.0116281878136877 0.05436416534346993
7279 10 0.00658774964946298 0.001523222483703715 0.00858774964946298 1.084018135606883 -0.044911132962262 -0.02550279721772868 -0.0125836401005005 0.0531577889688942
7280 10 0.006943549036592193 -0.0003862174539578529 0.008580069404314666 1.084018129547345 -0.05127233008384906 0.01170582219864642 -0.01763436629696091 0.05546935172028683
7281 10 0.006943549036592193 0.0003868232814870904 0.008580069404314666 1.084018125656495 -0.05127496205242459 -0.01000524136204614 -0.01763699838627014 0.05513882751988544
7282 10 0.004291668178573093 -0.001886338619463701 0.008508805218813276 1.084017429589428 -0.07605939561478621 0.0142787572958057 -0.03387533186305825 0.08447752766287266
7283 10 0.006951229281740507 0.001444278053054011 0.006291668178573094 1.08401880735694 -0.06742061071599137 -0.01535780634365785 0.09581464062324373 0.1181602569511758
7284 10 0.004291668178573093 0.001444278053054011 0.008951229281740509 1.084017465754973 -0.03329068706767757 0.01037672570375046 -0.02896764269646517 0.04533288657430698
7285 10 0.004432643757968752 0.001803209395990026 0.007562425908050257 1.084017198442607 -0.07971089043032054 -0.001133991755084151 -0.06723605161301137 0.1042870971261675
7286 10 0.006580069404314666 -0.0007727984044332483 0.008951229281740509 1.08401807783206 -0.05351346614415337 0.008588675378876696 -0.01660759906209054 0.05668570146105914
7287 10 0.006580069404314666 0.0007732830664566382 0.008951229281740509 1.084018079881673 -0.05037653824352253 -0.01125564176029317 -0.01804904704355842 0.05468320744083807
7288 10 0.005830069404314665 -0.002249818251741229 0.006371036688493264 1.08401818016415 -0.2016879949268995 -0.02957651786115746 0.0834964017411251 0.2202826974824391
7289 10 0.005109312507330473 -0.0020025377642047 0.005279059331330306 1.084017359626026 -0.2230478612918151 0.01365498877082255 -0.0206052652212732 0.2244134222813401
7290 10 0.005166341176200196 0.0001124929444349875 0.005287501053626039 1.084017366001403 -0.2345415573265721 0.02823785319416913 0.004977441638417025 0.2362877343229077
7291 10 0.007314708914018036 -0.0006934904772660012 0.006299348423721408 1.084018897775367 -0.06232884328283059 0.0245593024182742 0.1032387412780858 0.1230702309290571
7292 10 0.004299348423721407 -0.0006934904772660013 0.009314708914018036 1.084017474193848 -0.04560242028838009 -0.004404506548964598 -0.02436372168540427 0.05188999275835149
7293 10 0.007314708914018036 0.0006943386358069341 0.006299348423721408 1.08401887861082 -0.06720696466347398 -0.01585550901031129 0.09571299438935374 0.1180218223898867
7294 10 0.004299348423721407 0.0006943386358069342 0.009314708914018036 1.084017524531333 -0.03786368992246369 -0.01201317550132798 -0.01935623694761436 0.04418867851545661
7295 10 0.005527495947118131 0.002189548015453726 0.005359887880959284 1.084018308501552 -0.1404809874300029 -0.03180279153215166 0.08060614197669323 0.1650565827312348
7296 10 0.006580069404314664 -0.001807030692296453 0.007451289864493432 1.084018276262126 -0.06597655957541447 0.03187324445655777 0.02986332679773978 0.07912413293695109
7297 10 0.004678188546295564 -0.001443551060018925 0.008872284851090805 1.084017577864633 -0.05025799020838843 0.01828516575294183 -0.01462564761803253 0.05544476922709558
7298 10 0.004678188546295564 0.001807757685331539 0.008508441722295732 1.0840175317836 -0.07021220854914012 -0.01528634436112549 -0.02094254755810849 0.07484662217828199
7299 10 0.004541956265299225 0.0004154600094133183 0.005841485239380562 1.08401665912624 -0.1564388840280298 -0.04751704128657656 -0.02980865203098038 0.1661913035765399
7300 10 0.002504455211673187 0.0009971845352794173 0.007569344676051152 1.084016404244299 -0.1014542781328045 0.005545943053787763 -0.1050536368845826 0.1461505889775407
7301 10 0.006951229281740507 -0.001443551060018925 0.00783774964946298 1.084018269004181 -0.0632739420366133 0.03629662324594059 0.03747214545280528 0.08200730628880971
7302 10 0.00583774964946298 -0.0018863386194637 0.008508805218813276 1.084017936159702 -0.05359945785915883 0.0200361058456203 -0.01010755409429707 0.05810774535310921
7303 10 0.00583774964946298 0.001886702115981243 0.008508441722295732 1.084017942529572 -0.06495670769760244 -0.01948308448023288 -0.006563929664021305 0.06813258859319726
7304 10 0.002977247351281189 0.0004153388439074705 0.006905616447936682 1.08401616433628 -0.11392010666128 -0.03287802416632946 -0.1362434449454556 0.1806129327191288
7305 10 0.005830069404314665 -0.002249818251741229 0.007758865801566199 1.08401802266695 -0.06174609840480617 0.03365193958621807 0.02977924674220975 0.07636646674204514
7306 10 0.005830069404314665 0.002250181748258772 0.00775838113954281 1.084018049497453 -0.07372195531300595 -0.03405550240384821 0.03615492989621177 0.08889253565373949
7307 10 0.003239094721376558 0.002189548015453726 0.007576964338446543 1.084016723249508 -0.05002341629916415 -0.001923461961238647 -0.05944581844386263 0.07771645395034756
7308 10 0.005140975579395659 0.001747123952526494 0.004996408248681756 1.08401773989207 -0.2972120626069007 0.01128635059767002 -0.09172132811289239 0.3112478014374634
7309 10 0.005198004248265381 0.001803209395990026 0.007175844957574861 1.084017579584068 -0.1271205594289269 -0.01737140383179007 -0.02968082240381254 0.1316903698801744
7310 10 0.005451229281740508 -0.001443551060018925 0.008872284851090805 1.08401779944957 -0.04682718808008079 0.01806165625407701 -0.01440195373220475 0.05221518209708998
7311 10 0.005451229281740508 0.001444278053054011 0.008871921354573261 1.08401780595718 -0.0448758766628907 -0.0136338432801812 -0.01929140449460065 0.05071374839455095
7312 10 0.007314708914018036 -0.000693490477266001 0.007830069404314665 1.084018299399524 -0.07431353516996515 0.01270445952425085 0.03263140371444123 0.08215055270438432
7313 10 0.005830069404314665 -0.000693490477266001 0.009314708914018036 1.084017883192566 -0.04875148786315524 0.008683280378436428 -0.01879042253423598 0.05296401519916173
7314 10 0.005830069404314665 0.0006943386358069342 0.009314708914018036 1.084017901633061 -0.04534117587958927 -0.01135570919293605 -0.020357222337705 0.05098226027477729
7315 10 0.007314708914018036 0.0006943386358069342 0.007830069404314665 1.084018296574755 -0.07515153751725144 -0.01104039305223262 0.03445038435688089 0.08340547255601073
7316 10 0.005443549036592193 -0.002249818251741229 0.007065132993288504 1.0840177880297 -0.1099513122626703 0.01858416056020469 -0.02960665355617001 0.1153742433422892
7317 10 0.004787501053626038 -0.001695143575390704 0.006787864550143581 1.084017081833763 -0.1988206716427513 0.02624981665100242 -0.02960663426897784 0.2027196713183577
7318 10 0.00287561508909903 0.001747123952526494 0.007190443970724071 1.084016374402926 -0.1012418769065124 0.002526632689140813 -0.1044369582737593 0.1454763890319463
7319 10 0.004343952017033844 -0.002445325323649476 0.006723216218878468 1.08401681382683 -0.1327159533795875 0.05928671389397525 -0.02960662694933616 0.1483407937322572
7320 10 0.005101632262182158 -0.0001949012443790085 0.004472792139608002 1.084017251659215 -0.2568725157288756 0.0007274437544103029 -0.03737804763477662 0.2595787683079742
7321 10 0.002472792139608002 -0.0001949012443790085 0.007101632262182158 1.084015939854291 -0.08179686400280625 -0.01201359483509031 -0.1193071686886119 0.1451525195167076
7322 10 0.003989094721376558 0.002553027647731255 0.007497656411279295 1.084016985311319 -0.0782274178424557 -0.01008875555554779 -0.06000616449386202 0.09910626452562007
7323 10 0.004685868791443878 6.058275292381985e-07 0.009314708914018036 1.084017592888627 -0.04482145388217809 -0.003441639228938701 -0.02385807677462463 0.05089219425489798
7324 10 0.007314708914018036 6.058275292380901e-07 0.006685868791443879 1.084018651593928 -0.07538022523653645 -0.0002935248149888269 0.08308086972526679 0.1121815289066553
7325 10 0.007314708914018036 6.058275292381985e-07 0.007443549036592194 1.084018369025505 -0.07914843422959246 -0.0002935247384780599 0.04317392740202339 0.09015846496632142
7326 10 0.005443549036592193 6.058275292381985e-07 0.009314708914018036 1.084017780302408 -0.03891709555444622 -0.003441639823944798 -0.02330055851999266 0.04548957285373499
7327 10 0.005133295334247345 0.002553027647731255 0.006803560106484056 1.084017672834205 -0.09805036571441883 -0.07369305580359164 0.006160134246392421 0.122810781059059
7328 10 0.003239094721376558 0.0006896691809595732 0.004925144063180367 1.084013788424151 -0.1774656839829733 -0.04721040314838476 -0.2247311592406041 0.2902188572277882
7329 10 0.004098407228707032 0.0004153388439074705 0.005026776325362525 1.084015451741678 -0.48476050209685 -0.003007660890264595 -0.1749666680374245 0.5153786232871317
7330 10 0.002977247351281189 0.0004153388439074704 0.006147936202788367 1.084015243881472 -0.1772506768265344 -0.002184709402574906 -0.2999397485867475 0.3484055512946365
7331 10 0.002867934843950716 0.001076128965929121 0.005288623695457895 1.084014033041684 -0.1636574496167018 -0.06634152166289684 -0.231128392053428 0.2908698883088365
7332 10 0.003348407228707032 0.0001078234895876266 0.005397936202788368 1.08401446498122 -0.1935215153818419 -0.01078809747826037 -0.2407870201382855 0.3091041071062628
7333 10 0.003207431649311373 -0.002081845691371947 0.005949811986915982 1.084014969188665 -0.2510561356474892 0.02667272232753936 -0.1382280348936582 0.2878326023805763
7334 10 0.002472792139608002 -0.0001949012443790086 0.006343952017033843 1.084015019399483 -0.1830275646758601 -0.01201358463437415 -0.2919613071842608 0.3447967815100451
7335 10 0.004343952017033844 -0.0001949012443790085 0.004472792139608002 1.084015585035251 -0.4877924522806656 0.0007274426360243052 -0.1727713811454422 0.5174861890115309
7336 10 0.003949751404163058 -0.001639058131927172 0.004836271771885529 1.084015094375738 -0.5023998766601514 0.08880979612092231 -0.2021809176898391 0.5487895219782176
7337 10 0.002843952017033845 -0.0005817245258660996 0.005207431649311372 1.084013521152179 -0.2012372033876089 -0.03347230484624638 -0.2485026669918163 0.3215126478399123
7338 10 0.003981414476228243 0.002189548015453726 0.005359887880959284 1.08401565487976 -0.2332060954515045 -0.05378006663709865 -0.21153715971489 0.3194140705471032
7339 10 0.002843952017033845 -0.001639058131927171 0.006336332354638452 1.084015092156781 -0.1748990556013018 -0.0686198093159235 -0.3009452213191618 0.3547765270076648
7340 10 0.00437561508909903 0.002553027647731255 0.006803560106484056 1.084017158199184 -0.1318941870466867 -0.05510085212484256 0.006160131321943566 0.1430738540037757
7341 10 0.002371159877425843 -0.0006363992022166245 0.004734639509703371 1.084010860186121 -0.84558667018722 -0.02067085299776584 -0.8928520177696704 1.229889761969477
7342 10 0.007628840122574157 -0.0006363992022166245 0.004734639509703371 1.084020015626764 -0.2290951284512147 0.02263553799406403 0.2000717554770266 0.3050010701620871
7343 10 0.007628840122574157 -0.0006363992022166244 0.009265360490296628 1.084018356840904 -0.01938811850631809 0.0123392719130225 0.01424985233352585 0.02704098855600202
7344 10 0.002371159877425843 -0.0006363992022166244 0.009265360490296628 1.08401695181934 -0.0330586907071913 -0.006405191550165303 -0.04101788973327028 0.05306949018257821
7345 10 0.002734639509703371 0.0006366415332283189 0.009628840122574157 1.084017171425862 -0.03692217998599535 -0.01199446089007709 -0.03715441546101991 0.05373606847557699
7346 10 0.007265360490296628 0.0006366415332283188 0.004371159877425843 1.084019965521569 -0.2080325611530446 -0.03843208295776938 0.1790091895203367 0.2771260749786925
7347 10 0.002734639509703371 0.0006366415332283188 0.004371159877425843 1.084011024290023 -0.8638744696110985 -0.06085152417607615 -0.9111398243487033 1.257043271631726
7348 10 0.007628840122574157 0.0006366415332283189 0.009265360490296628 1.084018352338523 -0.0202700604271193 -0.01062141449424307 0.01336791027301504 0.02650265686011434
7349 10 0.003239094721376558 0.002189548015453726 0.006030882867556656 1.084015493381672 -0.189104503218755 -0.008741650277801577 -0.1385011799880006 0.2345623721854382
7350 10 0.003207431649311373 -0.0009683054763414951 0.004836271771885529 1.084013404954427 -0.2182348368230028 -0.001162943235259868 -0.2314966399180735 0.318148535645678
7351 10 0.006023040735444943 0.002636520367722472 0.009193732808277696 1.084018105330962 -0.0668359030178326 -0.01032456414686584 0.002594592609546263 0.06767840473771072
7352 10 0.003976959264555057 -0.002193732808277696 0.004363479632277528 1.084015392417153 -0.5459582906876166 0.3010983195491333 0.01010752573444631 0.6235646039363753
7353 10 0.003976959264555057 -0.002636520367722472 0.00919409630479524 1.084017439042936 -0.07168117030284334 -0.007157504770561467 -0.01243906996758551 0.07310369698027815
7354 10 0.006023040735444943 -0.002636520367722472 0.00919409630479524 1.084018097138228 -0.05602098418831412 0.008180096142105828 0.001748457083593434 0.05664204926107991
7355 10 0.003976959264555057 0.002194096304795239 0.009636520367722471 1.084017468373634 -0.03269028053529279 0.01331638065892252 -0.02602798783633532 0.04385700156346633
7356 10 0.007265360490296628 -0.00102298015269202 0.004363479632277528 1.084020015883327 -0.2285550155912023 0.02343721669998204 0.2003728603491797 0.3048540330109617
7357 10 0.007265360490296628 -0.00102298015269202 0.009636520367722471 1.084018305125619 -0.02148631157695404 0.009224964312694373 0.01541956324325439 0.02800936419066231
7358 10 0.002734639509703371 -0.00102298015269202 0.009636520367722473 1.084017102119708 -0.0342547243645857 -0.004629950616575043 -0.0416846636372243 0.05415195071790299
7359 10 0.002734639509703371 -0.00102298015269202 0.004363479632277528 1.08401074398837 -0.8674189393542892 0.01173448035879501 -0.8806807098958265 1.236184382348535
7360 10 0.002363479632277528 0.001023101318197867 0.00926536049029663 1.08401700110195 -0.04308589355542324 0.004416179844006056 -0.04820534955560105 0.06480472663055954
7361 10 0.002363479632277528 0.001023101318197867 0.004734639509703371 1.084011268907556 -0.8566401068409941 -0.08011323796826061 -0.9241108772367573 1.26262873283226
7362 10 0.007636520367722471 0.001023101318197867 0.004734639509703371 1.084020069703652 -0.1988077868557941 -0.0138714669255054 0.1955483515908408 0.2792062168345457
7363 10 0.007265360490296629 0.001023101318197867 0.009636520367722471 1.084018306563701 -0.01942880331491323 -0.01187067905725568 0.01289869464500031 0.02616806723995702
7364 10 0.003976959264555057 0.002636520367722472 0.00480590369520476 1.084015732565698 -0.2892239561701501 -0.3280494202874424 0.0627321749219051 0.4418169810499279
7365 10 0.007265360490296628 0.002636520367722471 0.008022980152692019 1.084018523486713 -0.01417045025364008 0.005237892435374712 0.03497182893494707 0.038095485252332
7366 10 0.002734639509703371 0.002636520367722472 0.008022980152692019 1.084016789026882 -0.02545928341380769 -0.02648759799862905 -0.05895780373160989 0.06946791043738536
7367 10 0.002734639509703371 0.002636520367722472 0.005976898681802133 1.084015100917837 -0.1002656021409686 -0.09758047972761755 -0.1402666538135677 0.1981158125153523
7368 10 0.002734639509703371 -0.002636520367722472 0.00597701984730798 1.084014622259672 -0.1379534069557712 0.1397753621365642 -0.1404750130846495 0.2414570844937972
7369 10 0.007265360490296628 -0.002636520367722472 0.00597701984730798 1.084019267393962 -0.03443050656165459 -0.01619424667918485 0.08681941193755574 0.09479094733560492
7370 10 0.002734639509703371 -0.002636520367722472 0.008023101318197867 1.084016710336474 -0.02872483350703237 0.02761796548443161 -0.08507744078893711 0.09394700106283907
7371 10 0.006023040735444943 -0.002193732808277696 0.004363479632277529 1.084019146303444 -0.2339497965173606 0.2204020685095279 0.2428446834601234 0.4028437902942537
7372 10 0.006023040735444943 0.002636520367722472 0.00480590369520476 1.084019332867253 -0.1170433763239542 -0.1465565198294514 0.1953599163907681 0.2708199814970066
7373 10 0.00433627177188553 -0.0020025377642047 0.005279059331330305 1.084016289596291 -0.2435576453968992 0.003930781493683136 -0.03032943868094615 0.2454702681082457
7374 10 0.003989094721376558 0.0009971845352794173 0.004553984185754523 1.08401477518461 -0.4445706645526659 -0.0525187099320069 -0.157559671553324 0.4745801731780549
7375 10 0.003957431649311373 -0.002445325323649476 0.006029119914083229 1.084016135931547 -0.2212971659002461 0.02092446571160848 -0.1388194136752406 0.2620707891275464
7376 10 0.004367934843950715 0.001747123952526494 0.004996408248681756 1.084016075819309 -0.4204717756032309 0.06547457390964931 -0.1459094279519436 0.449858861280788
7377 10 0.003231414476228244 0.001826068383176198 0.00528094345030958 1.084014598862594 -0.1602089624960724 -0.03763702774318423 -0.2276799401497491 0.2809299070373293
7378 10 0.00287561508909903 0.001747123952526494 0.006417403235279127 1.084015602821175 -0.1479182804704546 0.0416680428548197 -0.2254690463156553 0.2728595505735108
7379 10 0.003199751404163059 -0.001718366059094419 0.005199751404163058 1.084014017253124 -0.2332320447153874 0.04449656937516863 -0.2464938553011535 0.3422518839531868
7380 10 0.004363479632277528 -0.002557212440555225 0.004806267191722304 1.084016587637706 -0.2728983706828542 0.146927358696962 0.1126671291029631 0.3297803078343611
7381 10 0.005636520367722471 0.002194096304795239 0.009557212440555225 1.084017968758569 -0.04706821362561975 -0.002899962302772297 -0.008566336107410321 0.04792920434943187
7382 10 0.005636520367722471 -0.002193732808277696 0.009557575937072767 1.084017960428096 -0.04936749314138721 0.005681093793230636 -0.002011218830182745 0.04973398442649933
7383 10 0.004363479632277528 -0.002193732808277696 0.009557575937072769 1.084017587318142 -0.04694394700386269 0.002133623270707774 0.00153916503667713 0.0470176088032229
7384 10 0.004363479632277528 0.002557575937072768 0.009193732808277696 1.084017534402261 -0.06849624712031759 -0.006916449197554264 -0.01257952348597304 0.06998440933668092
7385 10 0.004363479632277528 0.002194096304795239 0.004442424062927232 1.084016153505246 -0.4857692287849309 -0.254228581717625 0.1737937219110936 0.5751592589641343
7386 10 0.007628840122574157 0.002194096304795239 0.007636459784969548 1.084018638679763 -0.01176379631487804 0.003896218784790866 0.03139968253467321 0.03375659176864805
7387 10 0.002371159877425843 0.002194096304795239 0.007636459784969548 1.084016440180301 -0.05020875532482516 -0.04028505232794814 -0.09569293869865893 0.1153297145974054
7388 10 0.007628840122574157 -0.002193732808277696 0.006363540215030452 1.084019128854687 -0.01892924196753738 -0.007552525235906445 0.1098276085739967 0.1117025534353966
7389 10 0.002371159877425843 -0.002193732808277696 0.006363540215030452 1.084014745227788 -0.01082906215273442 0.06890545936361493 -0.3291631522082398 0.3364723044901072
7390 10 0.002371159877425843 0.002194096304795239 0.006363419049524604 1.08401521035734 -0.0291906757153214 -0.05793807311007144 -0.2458129040492423 0.25423001329809
7391 10 0.002371159877425843 -0.002193732808277696 0.007636580950475395 1.084016313288731 -0.04757620322375596 0.03813241099403428 -0.1130716974252715 0.1284631645260159
7392 10 0.005636520367722471 -0.002557212440555225 0.004806267191722304 1.084018598445864 -0.1736401343790022 0.2544530176233091 0.2201927244792656 0.3786582500862325
7393 10 0.005636520367722471 0.002194096304795239 0.004442424062927232 1.084018764257771 -0.2544342979978984 -0.1981595201701389 0.1177244666477639 0.3433118953360683
7394 10 0.002726959264555057 0.002273040735444943 0.009273040735444944 1.084017115803211 -0.04411431721085957 -0.007832579860610244 -0.04717693555960812 0.06506216672574465
7395 10 0.002726959264555057 -0.002273040735444944 0.009273040735444944 1.08401706506419 -0.04043523921027192 0.01590757821811516 -0.0355041461957172 0.05611242297249535
7396 10 0.007273040735444943 0.002273040735444943 0.004726959264555057 1.084020432588986 -0.2239184285191434 -0.1718555460924803 0.2206589921630882 0.3582794749572701
7397 10 0.007273040735444943 -0.002273040735444943 0.004726959264555056 1.084020362662086 -0.2122782159789031 0.1616534115890522 0.1840960517215788 0.3241685097554042
7398 10 0.007273040735444943 0.002273040735444943 0.009273040735444944 1.084018377579698 -0.02074970995389359 -0.001341369877153221 0.01157779012380824 0.02379905377255567
7399 10 0.007273040735444943 -0.002273040735444943 0.009273040735444944 1.08401835855584 -0.02484353959133896 -0.002133781427905909 0.01206233704788638 0.02769935843418246
7400 10 0.002504455211673187 0.0009971845352794171 0.006038623695457894 1.08401471220774 -0.1574928769112529 -0.06666882664974505 -0.2475959997561324 0.300919454040239
7401 10 0.002726959264555057 0.002273040735444943 0.004726959264555057 1.084012922064897 -0.2891071302640117 0.09126144605452126 -0.3565780035530384 0.4680378797953486
7402 10 0.002726959264555057 -0.002273040735444944 0.004726959264555056 1.084012335947057 -0.3466685732336454 -0.06894038989120815 -0.3599303632507712 0.5044618354405368
7403 10 0.004999999999999999 0.002557575937072768 0.009557212440555223 1.084017776841378 -0.05422825114155218 0.001145956170800166 -0.004523738036291112 0.05442867482529441
7404 10 0.004999999999999999 -0.002557212440555225 0.009557575937072769 1.084017781286215 -0.05129727065365331 0.00459152652103303 -0.0009207569745117628 0.05151058032786685
7405 10 0.002371159877425843 1.211655058473704e-07 0.009628840122574157 1.084017063766104 -0.03310853825411404 -0.006331209570707342 -0.04096804983609816 0.05305318677822635
7406 10 0.007628840122574157 1.21165505847262e-07 0.004371159877425843 1.084020404115762 -0.2391278637811561 0.007744281350307017 0.2101044804058462 0.3184116860556196
7407 10 0.007628840122574157 1.211655058473704e-07 0.009628840122574157 1.084018315678238 -0.02756194288681491 0.0002070277497227375 0.006076026675744882 0.02822448682172212
7408 10 0.002371159877425843 1.21165505847262e-07 0.004371159877425843 1.084009039881033 -0.8411991812033196 -0.02718097212069844 -0.8884644494179805 1.223815323315637
7409 10 0.002371159877425843 -0.002557212440555225 0.007000060582752923 1.084015731323529 -0.1019829265481996 -0.00748428621423975 -0.1938656245721606 0.2191812314917179
7410 10 0.007628840122574157 -0.002557212440555225 0.007000060582752923 1.084018817474769 -0.04580470528798621 0.01496996833539624 0.06993686102525877 0.08493135762807749
7411 10 0.007628840122574157 0.002557575937072768 0.006999939417247076 1.084018830355831 -0.03045931535648021 -0.01178408643963619 0.05914906668713536 0.06756660917318195
7412 10 0.002371159877425843 0.002557575937072768 0.006999939417247076 1.084015991265983 -0.09025495497735886 -0.006697465505706062 -0.1551326960512313 0.1796022447696268
7413 10 0.002363479632277528 -0.001773040735444944 0.009636520367722473 1.084017037322345 -0.03033467312193481 0.005807012757469531 -0.04560471034067674 0.05507906495064233
7414 10 0.007636520367722471 -0.001773040735444944 0.009636520367722471 1.084018375934067 -0.01930157224745165 0.003408186280040795 0.01760430498341059 0.02634535972219755
7415 10 0.007636520367722471 0.001773040735444943 0.009636520367722471 1.084018381984101 -0.01691453509446996 -0.005176544826331758 0.01541296511457683 0.02346183299369937
7416 10 0.007636520367722471 0.001773040735444943 0.004363479632277529 1.08402095310488 -0.2488002706638658 -0.1469738939832149 0.2455408327427544 0.3792007393703333
7417 10 0.007636520367722471 -0.001773040735444944 0.004363479632277528 1.084020882734806 -0.2618496144836496 0.1120821924790492 0.2336674367058532 0.3684129604843326
7418 10 0.002363479632277528 0.001773040735444943 0.009636520367722473 1.084017111330614 -0.04002228777002455 -0.003740550569468606 -0.05126896462378817 0.06514815400688381
7419 10 0.002363479632277528 0.002636520367722472 0.008773040735444944 1.084016929096919 -0.03376952908684126 -0.01817735903771366 -0.0368321469081091 0.05317334409451318
7420 10 0.007636520367722471 0.002636520367722472 0.005226959264555056 1.084020331796503 -0.1227434869890588 -0.07068060940311348 0.3218338923571242 0.3516230459079235
7421 10 0.007636520367722471 0.002636520367722472 0.008773040735444944 1.084018463955793 -0.02235438083236269 -0.002946039209171213 0.01318246027146134 0.02611847522787146
7422 10 0.007636520367722471 -0.002636520367722472 0.008773040735444944 1.084018442232645 -0.02460009134740976 -0.002377231754206329 0.01181888781738003 0.0273952885429945
7423 10 0.006773040735444944 -0.002636520367722472 0.009636520367722471 1.084018251689673 -0.02585848284584287 -0.003148726921166964 0.01307728156237765 0.02914774278352501
7424 10 0.003226959264555057 -0.002636520367722472 0.009636520367722471 1.084017270574788 -0.03219927659639898 0.007671610954326095 -0.02726818264701525 0.04288590459389807
7425 10 0.003226959264555057 0.002636520367722472 0.009636520367722471 1.084017309607151 -0.02562066187572645 0.01066108196094812 -0.0286832807720079 0.03990999347750127
7426 10 0.007636520367722471 -0.002636520367722472 0.005226959264555056 1.084020318382205 -0.1095506580696223 0.05892585574764143 0.2868235934401703 0.3126361733917098
7427 10 0.006773040735444944 0.002636520367722471 0.009636520367722471 1.084018276427243 -0.02680270189941004 0.00471162412969363 0.01763078292516141 0.03242574189748498
7428 10 0.002363479632277528 -0.002636520367722472 0.008773040735444944 1.084016892684677 -0.04545778731272319 0.01088502115626293 -0.04052669508229042 0.06186523359071727
7429 10 0.004999999999999999 -0.002557212440555225 0.004442787559444775 1.084017990450112 -0.3184911338381985 0.1726692442749066 0.138408970346101 0.3878251066193065
7430 10 0.004999999999999999 0.002557575937072768 0.004442424062927232 1.084018037885553 -0.3204889877999777 -0.160833851879739 0.08039885225362786 0.3674842781061916
7431 10 0.002472792139608002 -0.0008889975491742478 0.005957431649311371 1.084014256418992 -0.1878697717610518 -0.03228232706576394 -0.3084008608220442 0.3625579825877628
7432 10 0.003957431649311373 -0.0008889975491742481 0.004472792139608002 1.084014482077041 -0.4850261580620251 0.004137423055232614 -0.1719565387668067 0.5146227195709561
7433 10 0.006773040735444944 -0.002636520367722472 0.004363479632277529 1.084020586736513 -0.1754874880072604 0.198444216853298 0.2208868616247745 0.3449158901646304
7434 10 0.002363479632277528 0.001773040735444943 0.004363479632277529 1.084010448218821 -0.748472030263005 -0.3681043219724557 -0.8159427495787288 1.166822069782245
7435 10 0.002363479632277528 -0.001773040735444944 0.004363479632277528 1.084009838973567 -0.7472596118054969 0.3316516059970295 -0.7605213712753299 1.11659413905081
7436 10 0.006773040735444944 0.002636520367722472 0.004363479632277529 1.084020645897441 -0.2131285134689403 -0.1826455390195939 0.2314489946933133 0.3638018599757066
7437 10 0.002363479632277528 0.002636520367722472 0.005226959264555056 1.084013389615668 -0.2108888633128289 0.01304309377136711 -0.4347965489919001 0.4834172876302331
7438 10 0.002363479632277528 -0.002636520367722472 0.005226959264555056 1.084012777867239 -0.2548613729416522 0.02286692362007993 -0.4517378515964737 0.5191765616613948
7439 10 0.003226959264555057 -0.002636520367722472 0.004363479632277528 1.084013394359975 -0.6700854691146503 0.2544761002041394 -0.03651415726757761 0.71770878855889
7440 10 0.003226959264555057 0.002636520367722472 0.004363479632277528 1.084013714882104 -0.5939605588846365 -0.2135917043808406 -0.05172504715882718 0.6333135417740924
7441 10 0.003989094721376558 0.002553027647731255 0.00610982729820636 1.084016549398839 -0.2483639838957495 -0.02693016693448671 -0.1373236350007661 0.2850748728273172
7442 10 0.002472792139608002 -0.0008889975491742478 0.00748815262990463 1.084016172281511 -0.08463771184017678 -0.008024844258307745 -0.1225424277287968 0.149146193329157
7443 10 0.003287501053626038 -0.0005816033603602518 0.007552861543922667 1.08401664439926 -0.08559383302699468 -0.00803845603780212 -0.1232274466778285 0.1502528689991036
7444 10 0.005552861543922667 -0.0005816033603602518 0.005287501053626039 1.084018006121327 -0.2325284932044829 0.02335822332492333 0.005754410442671701 0.2337695873897778
7445 10 0.00548815262990463 -0.0008889975491742478 0.004472792139608002 1.084017891779139 -0.2745510874005128 0.0225233529941049 -0.05290133619646523 0.2805069560532724
7446 10 0.005584524615987851 0.001803209395990026 0.006482112149297165 1.084017960332753 -0.1764492823825131 0.01123523519089931 0.06224681212084326 0.1874439793173049
7447 10 0.005519815701969815 0.002553027647731254 0.006109827298206361 1.08401805358289 -0.1440994223222201 -0.034236823740332 0.06288971741480127 0.1609096646256453
7448 10 0.007636520367722471 -0.002193732808277696 0.008023040735444943 1.084018541276376 -0.01842149892491482 -0.008555826641492034 0.02826913259448874 0.03480944770898683
7449 10 0.007265360490296628 -0.002557212440555225 0.007636580950475395 1.084018548534321 -0.01817949923209706 -0.008192043812041047 0.02891344693009793 0.03512251681653533
7450 10 0.002843952017033845 -0.001639058131927171 0.007109373090083396 1.084016087564494 -0.08623739419781319 0.005724334835459284 -0.1197213020209204 0.1476578691601701
7451 10 0.003207431649311373 -0.002081845691371947 0.007495893457805869 1.084016484612237 -0.04160643433482075 0.01473635292465782 -0.08533342357371752 0.09607314221149067
7452 10 0.007636520367722471 0.002194096304795239 0.005976959264555057 1.084019262986852 -0.03995893278680107 0.01210389346787681 0.1014235671189481 0.1096811766606903
7453 10 0.007265360490296628 0.002557575937072768 0.006363419049524604 1.0840190010691 -0.02636471895803959 -0.008348199117325249 0.06522955620152804 0.07084974125914101
7454 10 0.006580069404314664 -0.0018863386194637 0.006291728761326018 1.084018788538184 -0.07421010129502686 0.02358537041674804 0.08602906781529611 0.1160362414984309
7455 10 0.006943549036592194 -0.001443551060018925 0.006678249129048489 1.084018649998908 -0.06098226119092254 0.02769679362337327 0.1025949524620912 0.1225221319912137
7456 10 0.006580069404314664 0.001886702115981243 0.007837689066710056 1.084018242574765 -0.05946230542543825 -0.0400539677657848 0.03587163808324729 0.08016770246842619
7457 10 0.006943549036592194 0.001444278053054011 0.007451168698987585 1.084018357767814 -0.0623038303658995 -0.03850181372444376 0.04005921406755511 0.08347992315547943
7458 10 0.003957431649311373 -0.002445325323649475 0.007416949027156164 1.084016763478744 -0.08675260802100014 0.02255993378102957 -0.08623065039057273 0.1243812312104641
7459 10 0.004400980685903567 -0.001695143575390704 0.007481597358421277 1.084017031485677 -0.09259207728044476 -0.01050094861419849 -0.1148212321436378 0.1478765635517983
