ITEM: FORMAT_VERSION
2
ITEM: TIMESTEP
150
ITEM: TIME
0.0375
ITEM: SOLVER_DT
0.00025
ITEM: CHARACTERISTIC_CELL_SIZE
0.001006729258263952
ITEM: MESH_ID
d5565440872044428698bf7318514570
ITEM: NUMBER OF CELLS
7321
ITEM: BOX BOUNDS
-0.0127 0.0127
-0.0127 0.0127
0 0.1
ITEM: REGIONS
10
1 hot_plate
2 cylinder_1
3 heat_switch
4 cylinder_2
5 ggg
6 cylinder_3
7 cold_stage
8 support_1
9 support_2
10 sample
ITEM: UNITS
x=m y=m z=m T=K qx=W/m^2 qy=W/m^2 qz=W/m^2 qmag=W/m^2
ITEM: FIELDS cell_ID region_ID x y z T qx qy qz qmag
139 1 0.004404475335497139 0.002366465102638707 0.09702172772330488 4 0 0 0 0
140 1 0.001608879040517608 0.004747609223894205 0.0964826399299135 4 0 0 0 0
141 1 -0.003972025634625388 0.008476751603612893 0.09699059181107911 4 0 0 0 0
142 1 0.0007961564439413169 0.001176550420056354 0.09650125721113834 4 0 0 0 0
143 1 0.00491392655454303 -0.001074938492064943 0.09649627099667514 4 0 0 0 0
144 1 0.001328084456470504 0.001185967036064069 0.09850612151382274 4 0 0 0 0
145 1 -0.01061955028569532 0.002022282352182967 0.09750812554682424 4 0 0 0 0
146 1 -0.00457227285920651 0.008002301980584527 0.09699962924391071 4 0 0 0 0
147 1 0.002216896079806696 0.001720212594116514 0.09851970113643639 4 0 0 0 0
148 1 0.000918047896583245 0.001717048906431458 0.09700580061072892 4 0 0 0 0
149 1 -0.004513247120461401 -0.004939557588187564 0.09701927089297326 4 0 0 0 0
150 1 -0.001141567860309122 0.008777146582482843 0.09680871696230459 4 0 0 0 0
151 1 -0.01020255702256345 0.001569576738257014 0.09700007501609195 4 0 0 0 0
152 1 0.004046733558279779 0.002023108832865826 0.09702172772330488 4 0 0 0 0
153 1 -0.006023952406161198 -0.007912265269342748 0.09692796510577502 4 0 0 0 0
154 1 0.004312735522862664 0.003228378494110255 0.09699241074282652 4 0 0 0 0
155 1 -0.004044608619801616 0.008043925291764635 0.09748815349711799 4 0 0 0 0
156 1 -0.002290066482166606 -0.004248045654672961 0.09651103660153955 4 0 0 0 0
157 1 0.002210881277096702 0.004729340797928158 0.09685354979733378 4 0 0 0 0
158 1 -0.01034320181187102 0.00316241470026343 0.09750088393089665 4 0 0 0 0
159 1 0.00458864193884915 -0.001583833365694672 0.09700252249935488 4 0 0 0 0
160 1 -8.409800686577635e-05 -0.00948224470851378 0.09701911732115487 4 0 0 0 0
161 1 0.003649522271854398 0.001447329315696795 0.0985220486263987 4 0 0 0 0
162 1 0.004030046518721879 -0.0002207644966800413 0.09700721179264671 4 0 0 0 0
163 1 0.007189038560065275 -0.002229794574324124 0.09749539017293417 4 0 0 0 0
164 1 0.001312885482841287 0.004255952538243651 0.09698718332950408 4 0 0 0 0
165 1 0.001289982588286838 0.001137888358796049 0.09750612151382274 4 0 0 0 0
166 1 -0.0071558822171444 -0.008340952444490676 0.09747709233856403 4 0 0 0 0
167 1 0.007482708139502735 -0.002761224220507505 0.09699911917625904 4 0 0 0 0
168 1 -0.005013384832580885 -0.00476111457155141 0.09650823429143372 4 0 0 0 0
169 1 0.003704761903028 -0.0007296593703097711 0.09751346329532648 4 0 0 0 0
170 1 0.0101427479292425 -0.002071238037913896 0.09903018313831496 4 0 0 0 0
171 1 0.009432256351951822 -0.005613910685735501 0.09853312852739833 4 0 0 0 0
172 1 0.003590838959112976 -0.0003933985900792084 0.09650032090309382 4 0 0 0 0
173 1 0.01083388815042814 -0.002279798810155452 0.0984986745218821 4 0 0 0 0
174 1 -0.008602806849939321 0.005734918155642509 0.09700780931336511 4 0 0 0 0
175 1 -0.006297265222201662 -0.007385566418284974 0.09644206779758337 4 0 0 0 0
176 1 0.0003992122081386518 -0.009108733669797024 0.09652052280385721 4 0 0 0 0
177 1 0.0009215623163572746 -0.008660806454225697 0.0978042053574795 4 0 0 0 0
178 1 -0.006544399497164483 -0.007474060572227353 0.09742649798458272 4 0 0 0 0
179 1 0.003704783962252899 0.001245741053965009 0.0975220486263987 4 0 0 0 0
180 1 0.003090762414975843 0.001682115792116973 0.0970151577368458 4 0 0 0 0
181 1 -0.001508448029868462 -0.004203213387572508 0.0985310844259018 4 0 0 0 0
182 1 -0.002622482453328824 -0.003397448728393802 0.09752364082182274 4 0 0 0 0
183 1 0.0007791802345812292 0.001660923426683222 0.09900580061072892 4 0 0 0 0
184 1 -0.001276443463103503 -0.004196880727082302 0.0975310844259018 4 0 0 0 0
185 1 0.002634761322637287 -0.006897623620272933 0.09692469599038755 4 0 0 0 0
186 1 0.005009072122619689 0.002342301345629192 0.09751680317924988 4 0 0 0 0
187 1 0.003001932168050934 -0.006531746248094055 0.09646115673766723 4 0 0 0 0
188 1 -4.550744378492425e-05 -0.009922498349544838 0.09649859451729767 4 0 0 0 0
189 1 0.004596068655003827 0.002200533337588097 0.09851680317924986 4 0 0 0 0
190 1 -0.003936519850611152 -0.005437882954367297 0.09651103660153955 4 0 0 0 0
191 1 -0.008679241427403348 0.006368460932034574 0.09751299436391003 4 0 0 0 0
192 1 -0.0008214245260087604 0.00908181155503966 0.09732154484789193 4 0 0 0 0
193 1 0.003559333861875934 -0.008381474977354574 0.09750543102574223 4 0 0 0 0
194 1 0.004621704070442415 0.00195442110382931 0.0965068908895529 4 0 0 0 0
195 1 -0.009174022683964136 0.006447699767100785 0.09699574615821033 4 0 0 0 0
196 1 -0.003422914361887601 0.008528150599111398 0.09648852425320729 4 0 0 0 0
197 1 0.008799327198431475 -0.00525503968867653 0.09903990623395416 4 0 0 0 0
198 1 -0.0081806590059592 0.00712644623726368 0.09851955535783394 4 0 0 0 0
199 1 -0.00342962435345801 0.007432834407802071 0.0974938476779834 4 0 0 0 0
200 1 -0.003169829112461696 -0.003449345037964971 0.09651317313092422 4 0 0 0 0
201 1 0.007175657726388543 -0.0004339089264965991 0.09699770822828044 4 0 0 0 0
202 1 0.001914887719420381 0.004237684112277604 0.09735809319692436 4 0 0 0 0
203 1 0.002516793406709959 0.007214185670736161 0.09647060432127208 4 0 0 0 0
204 1 -0.00713671174852133 -0.008271425774916597 0.09847709233856403 4 0 0 0 0
205 1 -0.002711095948403133 0.007564600346855783 0.09731633875540267 4 0 0 0 0
206 1 0.004917332309985215 0.003204214737100739 0.09748748619877151 4 0 0 0 0
207 1 0.001684810981286585 0.002090187582254394 0.09650454339959059 4 0 0 0 0
208 1 0.004461105210586552 -0.008450295257548306 0.09755351622224369 4 0 0 0 0
209 1 0.006191243393601606 0.001338317206561974 0.09700196634549789 4 0 0 0 0
210 1 -0.003731037020586808 0.005859080925729169 0.09650776173873725 4 0 0 0 0
211 1 0.006627227857735864 -0.003150980476058897 0.09695211862525296 4 0 0 0 0
212 1 0.007532690651074777 7.8220471235284e-05 0.09650143723160531 4 0 0 0 0
213 1 0.007082099803404105 0.00423003614045932 0.09749273295594738 4 0 0 0 0
214 1 -0.004314647680962678 -0.009265786995356693 0.09648589730819168 4 0 0 0 0
215 1 0.0008552567463992238 -0.007717711592285632 0.09779416496172025 4 0 0 0 0
216 1 -0.001875801179156732 -0.003794406492059408 0.09701046769089852 4 0 0 0 0
217 1 -0.001013463898119193 -0.008147662990431612 0.09630714435153982 4 0 0 0 0
218 1 -0.003812835022187613 -0.0092683689638776 0.09698792089773883 4 0 0 0 0
219 1 0.01056128985365067 -0.001451177594511885 0.09950734618651377 4 0 0 0 0
220 1 -0.003036747756338698 -0.003851087891007355 0.09702420973246376 4 0 0 0 0
221 1 0.000933334514743383 -0.009136963430302431 0.09849325566158912 4 0 0 0 0
222 1 0.009732688516929752 -0.00189481473222722 0.09752793693223255 4 0 0 0 0
223 1 0.004504328842369352 0.003062446729059645 0.09848748619877151 4 0 0 0 0
224 1 -0.008137389216190803 0.007073303405339322 0.09751955535783394 4 0 0 0 0
225 1 0.006333558278298404 -0.002619550829875516 0.09744838962192812 4 0 0 0 0
226 1 0.009368145429977172 -0.005503500634520465 0.09753312852739833 4 0 0 0 0
227 1 0.002929146110128527 0.001524791886710173 0.0990151577368458 4 0 0 0 0
228 1 -0.00764728232952695 0.003628136233045499 0.09750114774980342 4 0 0 0 0
229 1 0.002344101253129114 0.006741263527228673 0.09695324425118557 4 0 0 0 0
230 1 0.01131381926400415 -0.001316428422043223 0.09911962239600997 4 0 0 0 0
231 1 0.009520818561368057 -0.00175817436616823 0.09852793693223255 4 0 0 0 0
232 1 0.004743267879111871 -0.001124870525227447 0.09850941338890778 4 0 0 0 0
233 1 -0.00499349014549838 -0.005280530761875108 0.09746133869055662 4 0 0 0 0
234 1 0.006840038693368602 0.001274344856617765 0.09750340357710319 4 0 0 0 0
235 1 -0.007499433392630678 -0.004837665919618542 0.09750705935936273 4 0 0 0 0
236 1 -0.002706656870171325 -0.003300262428620789 0.09852364082182274 4 0 0 0 0
237 1 -0.002899140026774078 -0.002294195201790593 0.09853537020146506 4 0 0 0 0
238 1 -2.043942215563708e-05 0.01109202862572434 0.09737580150830891 4 0 0 0 0
239 1 0.0006282754957222478 -0.008872288992005607 0.09734066610475914 4 0 0 0 0
240 1 0.01158507768025144 0.001236080348649315 0.09871784012623339 4 0 0 0 0
241 1 0.0006279656022389981 0.007055718983632542 0.0983277142158423 4 0 0 0 0
242 1 0.006754348922969461 0.0002417376032740531 0.09850459911783332 4 0 0 0 0
243 1 0.0116425705163785 -0.001802275187649249 0.09858811377957707 4 0 0 0 0
244 1 0.004999568584770008 -0.0100875823425507 0.09702034741436942 4 0 0 0 0
245 1 -0.007151381748202579 0.00397614144782184 0.09699887545730448 4 0 0 0 0
246 1 -0.006525229028541414 -0.007404533902653275 0.09842649798458272 4 0 0 0 0
247 1 -0.009606824038756489 0.003134183788910624 0.09699283340016437 4 0 0 0 0
248 1 0.001342190671299476 -0.008796395122699936 0.09728368255362227 4 0 0 0 0
249 1 0.007749667228172624 -0.002272539185040816 0.09649775379391758 4 0 0 0 0
250 1 -0.008642906687716246 0.006664150432055167 0.09902243325624463 4 0 0 0 0
251 1 0.001920801570758113 0.004578265348418811 0.09835809319692436 4 0 0 0 0
252 1 0.01065880868720259 -0.002272224470194992 0.09749867452188207 4 0 0 0 0
253 1 -0.00147976402078384 -0.00520789485117834 0.09852069427257371 4 0 0 0 0
254 1 -0.006817712313204948 -0.00694736172116958 0.09694060067639106 4 0 0 0 0
255 1 -0.001247759454018882 -0.005201562190688134 0.09752069427257372 4 0 0 0 0
256 1 -0.004086011111439468 0.006333099432153138 0.09700532342477612 4 0 0 0 0
257 1 0.0009011627454192722 0.004621016241555095 0.09747781597232652 4 0 0 0 0
258 1 0.01201723542328049 0.001397946946617056 0.09810556391673739 4 0 0 0 0
259 1 0.002713193177880483 -0.009612063556662753 0.09651439018578291 4 0 0 0 0
260 1 -0.0007039956120548931 0.005862586393978379 0.09831952491505058 4 0 0 0 0
261 1 0.003883997552572393 0.0007438120510621073 0.09900721179264671 4 0 0 0 0
262 1 -0.0004999621402262702 0.006608470334972484 0.09681845184559378 4 0 0 0 0
263 1 0.004378956518570871 -0.008482294325528137 0.09855351622224368 4 0 0 0 0
264 1 -0.004214543624865735 -0.01032039786471215 0.09740110902175533 4 0 0 0 0
265 1 6.272797731189118e-05 0.007757682479276417 0.09831731701459939 4 0 0 0 0
266 1 -0.01057366591184441 0.00411297003925256 0.09700132254385255 4 0 0 0 0
267 1 0.001590990738418362 -0.005303453248561354 0.09698177347267051 4 0 0 0 0
268 1 0.002212209172530819 0.003908878414134958 0.09839029010076286 4 0 0 0 0
269 1 0.003946701849194679 9.48170178387899e-05 0.09700721179264671 4 0 0 0 0
270 1 -0.00305437292421309 -0.009638075138804023 0.09690696795974754 4 0 0 0 0
271 1 0.003477185169860254 -0.008413474045334405 0.09850543102574223 4 0 0 0 0
272 1 0.001259603018844109 0.0003714083750936354 0.09900157811423214 4 0 0 0 0
273 1 0.0005888212468340181 0.01151489581094368 0.09683157649137936 4 0 0 0 0
274 1 -0.003635454840393034 -0.00955796285170368 0.09739286526793919 4 0 0 0 0
275 1 -0.009790802474627519 0.00630620854375603 0.09748782917858095 4 0 0 0 0
276 1 0.0002583222817538967 -0.00984712518041022 0.09752831092616643 4 0 0 0 0
277 1 0.001911539467134311 -0.007082698152701496 0.09696269246197267 4 0 0 0 0
278 1 0.002038167107603414 0.007094828505830125 0.0974625066214341 4 0 0 0 0
279 1 0.01117944577273183 0.001837980908926657 0.09792795219001033 4 0 0 0 0
280 1 0.002269880760866364 -0.004117103032941976 0.09839501650766688 4 0 0 0 0
281 1 0.0002777677240171837 0.008337173723091316 0.09834228296493316 4 0 0 0 0
282 1 0.005448197825788386 -0.009627265139971296 0.09753197186359122 4 0 0 0 0
283 1 0.002348404635112931 -0.007314948378071177 0.09646353925272036 4 0 0 0 0
284 1 -0.0009519910703419227 0.008860126240676745 0.0984892140740482 4 0 0 0 0
285 1 0.002685954012430689 -0.004640509014766386 0.09889615748540492 4 0 0 0 0
286 1 0.007570369204724236 0.003733089763410182 0.09698980750970849 4 0 0 0 0
287 1 0.007464473539838434 0.004742144700709442 0.09699765750000239 4 0 0 0 0
288 1 -0.008834642042483689 0.005977494296496495 0.09851299436391003 4 0 0 0 0
289 1 0.003119709166166937 -0.007031800217982853 0.09745219757762653 4 0 0 0 0
290 1 -0.005110131138764365 -0.005147698210795325 0.09846133869055662 4 0 0 0 0
291 1 -0.001526927297182859 -0.005696628590762543 0.0964890409360309 4 0 0 0 0
292 1 -0.008465066905390492 0.00407625064996464 0.09751008160586405 4 0 0 0 0
293 1 -0.003976420377149599 -0.005985708710066564 0.09702487234183528 4 0 0 0 0
294 1 -0.001358786789566826 0.008245097116599372 0.09712876972576275 4 0 0 0 0
295 1 0.006177624168407691 0.000518861963347891 0.0965068908895529 4 0 0 0 0
296 1 -0.0008833211905605076 -0.003838896985825259 0.09902004782436226 4 0 0 0 0
297 1 0.00602264526530023 -0.006037835268840984 0.09754446477466482 4 0 0 0 0
298 1 -0.01040169827025863 0.001914936492842507 0.09850812554682425 4 0 0 0 0
299 1 0.006678688033735572 0.001730306392683328 0.096495075455945 4 0 0 0 0
300 1 0.009781647276529226 -0.00133978548364845 0.09700509998043133 4 0 0 0 0
301 1 0.003486880011580585 -0.006665922845803973 0.09698865832490619 4 0 0 0 0
302 1 0.007764807254769161 -0.0006749665644801662 0.097495462022198 4 0 0 0 0
303 1 -0.001212921157806935 0.006204649916787763 0.09882889227222816 4 0 0 0 0
304 1 -0.009992675539570265 0.003604953156305436 0.09649056110766541 4 0 0 0 0
305 1 -0.002303297218807611 -0.001664165909391465 0.09849233016487377 4 0 0 0 0
306 1 -0.003565091501893697 0.0008182641935359203 0.09855573403393228 4 0 0 0 0
307 1 0.006073633814720264 -0.006104164838131285 0.09854446477466482 4 0 0 0 0
308 1 0.007172419014392196 -0.001619801854743749 0.0989940247905927 4 0 0 0 0
309 1 -0.00351507698314863 0.007279401797994063 0.0984938476779834 4 0 0 0 0
310 1 -0.007394030879401802 -0.004591202897540942 0.09850705935936273 4 0 0 0 0
311 1 -0.00276988870913301 0.0004463141139449961 0.09849641535174582 4 0 0 0 0
312 1 -0.004180190139553093 0.008342059316572165 0.09848815349711799 4 0 0 0 0
313 1 -0.003092313901293199 -0.002054120705986227 0.09753537020146506 4 0 0 0 0
314 1 0.001698448154709306 -0.004699017829682674 0.09698177347267051 4 0 0 0 0
315 1 0.006833667087433284 0.001278980477333525 0.09850340357710319 4 0 0 0 0
316 1 0.004788197002780418 -0.01070720665636177 0.09751356971552293 4 0 0 0 0
317 1 0.01117226148036062 -0.001169042804312107 0.09681432037889251 4 0 0 0 0
318 1 -0.0002244301414814501 0.008247945395827282 0.09832088252993822 4 0 0 0 0
319 1 0.002546456932135089 -0.009225894089356772 0.09697792943850324 4 0 0 0 0
320 1 0.00282425739371051 0.001114018065480857 0.09650032090309382 4 0 0 0 0
321 1 -0.002191980162764191 -0.0037035528527766 0.09901046769089852 4 0 0 0 0
322 1 0.002516609331068008 0.008094684204365434 0.09647060432127208 4 0 0 0 0
323 1 0.0007416324967583248 -0.009473614141693463 0.09702971640886876 4 0 0 0 0
324 1 -0.009699863826113422 -0.003704485487921827 0.09852454058241733 4 0 0 0 0
325 1 0.007725985609048393 -0.0007893437058936958 0.09849546202219803 4 0 0 0 0
326 1 -0.0038760355985228 -0.008842368563778456 0.09698792089773883 4 0 0 0 0
327 1 -0.007646475920139501 0.003491999455662497 0.09850114774980342 4 0 0 0 0
328 1 0.005221316922102638 0.001806804404709598 0.09900196634549789 4 0 0 0 0
329 1 0.01063765521356277 0.001703190843233398 0.09739784465992399 4 0 0 0 0
330 1 -0.0005976062993263107 0.01054046322950602 0.09704343528550712 4 0 0 0 0
331 1 -0.0007163209384136931 0.008535807946833106 0.09780940678314551 4 0 0 0 0
332 1 0.001035249099033863 0.007468123442113221 0.09650926237024854 4 0 0 0 0
333 1 -0.003347346389109604 -0.009433823952676917 0.09839286526793919 4 0 0 0 0
334 1 0.0002494033518996907 0.006542561630093062 0.09881845184559378 4 0 0 0 0
335 1 0.008315667824301116 0.00374419671410842 0.09849258219261472 4 0 0 0 0
336 1 0.006216564023466428 -0.006944366130656372 0.09755619531861372 4 0 0 0 0
337 1 -0.01109900671071593 0.003812774946914692 0.09750937307458485 4 0 0 0 0
338 1 0.006212445460206011 -0.00275340042068566 0.09844838962192809 4 0 0 0 0
339 1 -0.002653757175833365 -0.002609854794825669 0.09701260422028321 4 0 0 0 0
340 1 -0.004162430764293575 0.005505394089279029 0.09701029541761276 4 0 0 0 0
341 1 0.006126071962820122 -9.244975147661039e-05 0.09900316188622803 4 0 0 0 0
342 1 0.0005743181956172962 0.005670741170532412 0.09830386248307614 4 0 0 0 0
343 1 0.0002858552071025747 -0.008507408520109167 0.09683147249974758 4 0 0 0 0
344 1 -0.003639139906722078 0.005118006768592195 0.09752460083157687 4 0 0 0 0
345 1 0.001336806325066726 -0.005731872382550789 0.09748092668192282 4 0 0 0 0
346 1 0.004771404468400946 -0.009053359610536747 0.09702601463500471 4 0 0 0 0
347 1 0.008500667723677144 -0.004909969572305544 0.09754127161629561 4 0 0 0 0
348 1 0.005407219728080658 -0.009660598630410354 0.09853197186359122 4 0 0 0 0
349 1 -0.001963258786500842 -0.005387892566802317 0.09700007753757044 4 0 0 0 0
350 1 -0.003555888514347611 0.009181551902961884 0.09699604451046399 4 0 0 0 0
351 1 -0.00428793088062935 -0.01031355194967717 0.09840110902175536 4 0 0 0 0
352 1 0.002279047277662807 -0.009630328874088925 0.0974871230435148 4 0 0 0 0
353 1 -0.004104999787085398 0.009130152907463378 0.09749811206833582 4 0 0 0 0
354 1 0.001976416411680685 0.007024139665725944 0.0984625066214341 4 0 0 0 0
355 1 0.005056655702694552 0.003161567582388301 0.09897264936501954 4 0 0 0 0
356 1 -0.001921708325789983 0.006889052145765098 0.09831567643744897 4 0 0 0 0
357 1 -0.005300076171603549 -0.0008345618930378831 0.09856040969841549 4 0 0 0 0
358 1 -0.0003286592822709356 0.006230547204709252 0.09633058991034021 4 0 0 0 0
359 1 0.002197896154658667 -0.006665373394903253 0.09742384919963989 4 0 0 0 0
360 1 -0.006120118075916038 -0.0004209545271373936 0.0985314225846891 4 0 0 0 0
361 1 0.002545723308801065 -0.004501487798003904 0.09689615748540492 4 0 0 0 0
362 1 0.002058353607201188 0.002504743078577748 0.09901938023334257 4 0 0 0 0
363 1 0.01147740244089415 -0.001702805258993381 0.09728281176245962 4 0 0 0 0
364 1 0.002405686300104762 -0.006801243600639213 0.0984238491996399 4 0 0 0 0
365 1 0.007327483333502568 0.001666334042739119 0.0969965126875503 4 0 0 0 0
366 1 -0.0007771761364008777 0.01115101079155188 0.09756615679412116 4 0 0 0 0
367 1 0.005618214013533525 -0.007170565538258527 0.09703912603646078 4 0 0 0 0
368 1 -0.001677108547146747 0.009039586733726623 0.09648852425320729 4 0 0 0 0
369 1 -0.008774410736169636 -8.076027486248711e-05 0.09748702909878593 4 0 0 0 0
370 1 -0.008913310443345522 0.0005517317607292483 0.09699158159104847 4 0 0 0 0
371 1 0.004322775227382569 -0.009513676813116144 0.09651439018578291 4 0 0 0 0
372 1 0.0007106987969548331 0.000846364765712789 0.09950125721113834 4 0 0 0 0
373 1 -0.004669436091722704 -0.004587993984453053 0.09901927089297326 4 0 0 0 0
374 1 0.003163621390846522 0.0008212746220754849 0.09950032090309383 4 0 0 0 0
375 1 0.007057267316359893 0.004502711032873816 0.0984927329559474 4 0 0 0 0
376 1 0.007421798460148783 -0.0002493086803078739 0.09899770822828044 4 0 0 0 0
377 1 -0.0005759048826122008 -0.009678176011273576 0.09680573886883748 4 0 0 0 0
378 1 -0.002496471093326732 -0.0014240914135871 0.09749233016487378 4 0 0 0 0
379 1 0.01104020045641127 0.001175206065897511 0.09689506997701777 4 0 0 0 0
380 1 -0.007907643065132492 -0.007925181274779796 0.09699119503037236 4 0 0 0 0
381 1 0.01028040970406289 -0.004553596916881205 0.0970461311236232 4 0 0 0 0
382 1 -0.009603284245687271 -0.003384876593642317 0.0990119179019895 4 0 0 0 0
383 1 -0.0004379682942782616 -0.007386923000392494 0.09631094969589038 4 0 0 0 0
384 1 0.0008080429779089041 -0.0001195334921577916 0.0985173804280029 4 0 0 0 0
385 1 0.006267552572886461 -0.007010695699946673 0.09855619531861372 4 0 0 0 0
386 1 -0.001720926012586044 -0.006374867121712109 0.09683006075078621 4 0 0 0 0
387 1 -0.004517404855146236 0.005979412595703001 0.09750785710365165 4 0 0 0 0
388 1 -0.01050860362083274 -0.004096836133449947 0.09854800376261552 4 0 0 0 0
389 1 -0.009701785844057774 0.006282167501277022 0.09848782917858095 4 0 0 0 0
390 1 0.005328280260411742 -0.00585924822761495 0.09702739549251189 4 0 0 0 0
391 1 -0.002977236870224791 0.0002564059005440945 0.0974964153517458 4 0 0 0 0
392 1 -0.01087608421428717 0.004158357150115486 0.09850937307458485 4 0 0 0 0
393 1 0.004506470401632125 -0.01033387174007784 0.09900761248693642 4 0 0 0 0
394 1 0.002635568529796552 -0.004090250816772164 0.0964350007477377 4 0 0 0 0
395 1 -0.008732701253391664 0.001116429992864197 0.09749385388354742 4 0 0 0 0
396 1 0.004564689254839721 -0.005651927892153902 0.09702739549251189 4 0 0 0 0
397 1 -0.002157257501904027 -0.006066131097751883 0.09734109735232574 4 0 0 0 0
398 1 -0.003785373291143207 0.007898434401614085 0.09898608593924617 4 0 0 0 0
399 1 -0.003772439662985478 0.0006283559801350189 0.09755573403393228 4 0 0 0 0
400 1 0.002702423079019654 -0.004000720345941167 0.0994350007477377 4 0 0 0 0
401 1 -0.001890385878707754 0.006385963722239076 0.09833665401096539 4 0 0 0 0
402 1 -0.003213960506966397 -0.006400296763954334 0.09736589215659061 4 0 0 0 0
403 1 0.008163755397129255 0.003586861986275707 0.09749258219261475 4 0 0 0 0
404 1 0.003997111760255506 -0.005610444368284364 0.09748855223017912 4 0 0 0 0
405 1 0.01041837803512584 -0.005230313969161597 0.09853935341706738 4 0 0 0 0
406 1 0.001086849857509669 -0.005103676280328636 0.09652061673500328 4 0 0 0 0
407 1 -0.00722490525586262 -0.004171365531190662 0.09700852648055504 4 0 0 0 0
408 1 -0.004434810471099532 0.007588210815134095 0.09649756168603889 4 0 0 0 0
409 1 0.00135361783287951 0.007765838152034818 0.09650926237024854 4 0 0 0 0
410 1 -0.004343017787042425 -0.004060218294805433 0.09853244402389746 4 0 0 0 0
411 1 0.006134467393207855 0.00143827370127196 0.09900196634549789 4 0 0 0 0
412 1 0.002286349827455328 -0.003477314364116757 0.09893385976999966 4 0 0 0 0
413 1 0.007697449144851888 0.004163099383657392 0.0989898075097085 4 0 0 0 0
414 1 -0.009408333418190999 -0.004147114274383809 0.09901291486954915 4 0 0 0 0
415 1 -0.008361370266288819 -0.005044487240178914 0.09751144774835684 4 0 0 0 0
416 1 -0.0006144954456930528 -0.009237922370242518 0.09732626167269467 4 0 0 0 0
417 1 -0.003859345727313097 -0.009850396469220177 0.09889084167839204 4 0 0 0 0
418 1 0.0009190334938634099 0.00613910832409688 0.0988132298402537 4 0 0 0 0
419 1 0.00929476223838659 0.001406786161982214 0.0985115581010253 4 0 0 0 0
420 1 0.001612495724800324 -0.006544159204238646 0.09649915320925234 4 0 0 0 0
421 1 -0.00127445633747408 0.00967364621125593 0.09753195953871439 4 0 0 0 0
422 1 0.001220479019723013 -0.007845276699054033 0.0984832152658299 4 0 0 0 0
423 1 -0.001253683201971757 0.007970270845341292 0.09761663166101631 4 0 0 0 0
424 1 0.001037620061492276 -0.008542645253757796 0.09898406205657756 4 0 0 0 0
425 1 -0.002098980073522133 -0.006455986479656969 0.09634101981475532 4 0 0 0 0
426 1 -0.0008615729388105931 0.01106380850443441 0.09856615679412116 4 0 0 0 0
427 1 0.01023703397727169 -0.004617316610236804 0.0990461311236232 4 0 0 0 0
428 1 -0.01098453585282267 0.001552908092425073 0.09900585325432529 4 0 0 0 0
429 1 0.007952742941158565 0.004245198323660305 0.09649473205376351 4 0 0 0 0
430 1 0.001130555908295233 0.004677148118725066 0.09847781597232652 4 0 0 0 0
431 1 -0.004913351596449832 -0.0003102420579673551 0.09905221775770126 4 0 0 0 0
432 1 0.01201806189568593 -0.001431415720465729 0.09789508797195581 4 0 0 0 0
433 1 -0.001759039677154841 0.007384965911963429 0.09880791469871172 4 0 0 0 0
434 1 -0.01161903866485009 0.001208629108602745 0.09848212935709377 4 0 0 0 0
435 1 0.008203547719886316 -0.004828312970856545 0.09854127161629563 4 0 0 0 0
436 1 -0.008464260496003044 0.003940113872581638 0.09851008160586405 4 0 0 0 0
437 1 0.007225113571409895 0.00818421872748149 0.09851968892920338 4 0 0 0 0
438 1 0.002432021216867336 -0.00207102522474847 0.09700511052494173 4 0 0 0 0
439 1 0.00369228602058288 0.01040911313845039 0.09747683836550609 4 0 0 0 0
440 1 -0.00894391795270612 0.0008520612913397533 0.09849385388354742 4 0 0 0 0
441 1 0.004648277678677538 -0.009118692168955635 0.09902601463500471 4 0 0 0 0
442 1 -0.001558191274153567 0.008533933542236043 0.09897638618846086 4 0 0 0 0
443 1 0.007685187798926346 -0.002090813459631108 0.09949775379391758 4 0 0 0 0
444 1 -0.007844334594917188 -0.004121118843654644 0.09650029218912133 4 0 0 0 0
445 1 0.006514499519120739 0.009345257126792435 0.09754045592911803 4 0 0 0 0
446 1 -0.0002043716450577967 0.009135588668474241 0.09683302059468465 4 0 0 0 0
447 1 -0.002732752871612581 -0.001236198614136595 0.0989928990755148 4 0 0 0 0
448 1 -0.004494733292637644 -0.005971170386464466 0.09746694013941865 4 0 0 0 0
449 1 0.0001900767909103356 0.01183816492336028 0.0973542979999934 4 0 0 0 0
450 1 -0.003716633062379317 0.006823313187501521 0.09700532342477612 4 0 0 0 0
451 1 -0.0087886268911336 -5.270854979172457e-06 0.09848702909878591 4 0 0 0 0
452 1 0.00191252118236025 0.003490429361441665 0.09901938023334257 4 0 0 0 0
453 1 0.009904970558025606 0.001417573340214493 0.09901012086941999 4 0 0 0 0
454 1 0.005281670773783634 0.002503406878419728 0.09949507545594501 4 0 0 0 0
455 1 0.001488168705054151 -0.009043114394128473 0.09897273285773192 4 0 0 0 0
456 1 -0.005884086250598703 -0.007607140869717885 0.09892796510577503 4 0 0 0 0
457 1 -0.005092248829221878 -0.01012164376360244 0.09699616465155497 4 0 0 0 0
458 1 0.003757549411288199 0.0004756253401843685 0.09700721179264672 4 0 0 0 0
459 1 -0.000231540508746186 0.002273239104986777 0.09759756802573619 4 0 0 0 0
460 1 -0.009537683428746333 -0.003119177483557097 0.0970119179019895 4 0 0 0 0
461 1 0.0006746572745162366 0.007753096623708279 0.09682945507934582 4 0 0 0 0
462 1 0.003567854308127661 0.01026363493056336 0.09847683836550609 4 0 0 0 0
463 1 0.001949758129564194 0.008881795360357892 0.09650558029483053 4 0 0 0 0
464 1 -0.008521328202321965 -0.004470337865220907 0.09701291486954915 4 0 0 0 0
465 1 -0.0009708342202439722 0.005129109666815101 0.09883166297979704 4 0 0 0 0
466 1 -0.008255967753059944 -0.004798024218101314 0.09851144774835684 4 0 0 0 0
467 1 0.001359346440125447 0.006722954517740543 0.09732249221050222 4 0 0 0 0
468 1 -9.531194634642301e-05 0.006074194476528594 0.09830908448841622 4 0 0 0 0
469 1 -0.0002900492087685543 0.01110064114539568 0.09903554939420139 4 0 0 0 0
470 1 0.005592735843698602 0.009286954292775668 0.09752571909422289 4 0 0 0 0
471 1 0.007903355440755398 0.003125218457569392 0.09899785013885123 4 0 0 0 0
472 1 0.003797392983559661 -0.00488377567500606 0.09739605139067783 4 0 0 0 0
473 1 0.003688211584690397 -0.00479314050003934 0.09839605139067784 4 0 0 0 0
474 1 0.001678671872407946 0.008594307879459712 0.09701484266507904 4 0 0 0 0
475 1 0.002851537775337352 0.00420630751846476 0.09888574670117227 4 0 0 0 0
476 1 0.005364270089282712 -0.005920358757443494 0.0990273954925119 4 0 0 0 0
477 1 -0.008254905654245328 -0.007485517273019125 0.09900371792935263 4 0 0 0 0
478 1 0.001422605606774604 -0.004314633064620745 0.09848063249493247 4 0 0 0 0
479 1 -0.004155966878596483 0.004553310766062614 0.09701683909283962 4 0 0 0 0
480 1 0.008393019967595785 -0.004666483693145326 0.09650136538234147 4 0 0 0 0
481 1 0.008096466870550881 -0.005295149980200245 0.0970184346644944 4 0 0 0 0
482 1 0.001297595744202717 0.006652265677636361 0.09832249221050222 4 0 0 0 0
483 1 -0.0018598834057834 0.007982230755065755 0.09829643895191902 4 0 0 0 0
484 1 -0.00263297017436817 0.0004798743455236249 0.09697364937056396 4 0 0 0 0
485 1 -0.005292877694515327 -0.0006421807363601889 0.09756040969841549 4 0 0 0 0
486 1 -0.006416134030428959 -0.00526390990841653 0.09695030208901707 4 0 0 0 0
487 1 0.001831909597572301 0.006308220619618524 0.0964826399299135 4 0 0 0 0
488 1 -0.007086241513380047 -0.003018725679272705 0.09851671842126927 4 0 0 0 0
489 1 0.000993026008361884 0.008050811333629875 0.09682945507934583 4 0 0 0 0
490 1 0.005114230911003864 -0.01048676498523744 0.09851356971552293 4 0 0 0 0
491 1 0.000668312813195607 -0.006380385418013683 0.09649915320925234 4 0 0 0 0
492 1 -0.009597952784480314 -0.003642140739281397 0.09752454058241732 4 0 0 0 0
493 1 -0.006659605504949091 0.009124936507832922 0.09699475125855814 4 0 0 0 0
494 1 -0.01040669257919964 -0.004034491384809517 0.09754800376261552 4 0 0 0 0
495 1 0.0003808851761525427 0.01136327762670993 0.09786712588558075 4 0 0 0 0
496 1 -0.006879664598043064 -0.00679043298659311 0.09894060067639106 4 0 0 0 0
497 1 0.002206295321193087 0.003568297177993751 0.09739029010076286 4 0 0 0 0
498 1 0.006792317994898142 0.008697263319341496 0.09901670055077977 4 0 0 0 0
499 1 0.00189885241232468 -0.006126834446440403 0.09696030994691954 4 0 0 0 0
500 1 0.001520044609306082 -0.007768349318294946 0.09677448894861071 4 0 0 0 0
501 1 0.0002739394157222253 0.001967487143649492 0.09700580061072892 4 0 0 0 0
502 1 4.38409731079487e-05 -0.006812292635786709 0.09631094969589038 4 0 0 0 0
503 1 -0.004325719212173704 0.003982374231413659 0.09758721914766712 4 0 0 0 0
504 1 -0.007212154646578543 0.004078935057063029 0.09899887545730449 4 0 0 0 0
505 1 -0.0004601002734096797 0.008572263689670921 0.09900068982084093 4 0 0 0 0
506 1 0.003416513334654532 -0.007786616944213599 0.09699104083995931 4 0 0 0 0
507 1 -0.003650828713873378 -0.008013797933219536 0.09701585932984291 4 0 0 0 0
508 1 -0.005192832642805187 -0.001099631504787613 0.0970309579218961 4 0 0 0 0
509 1 -0.002312868782896334 0.007142350691139294 0.0988278145021954 4 0 0 0 0
510 1 0.004976356203071381 -0.002006913859047665 0.09745327574226639 4 0 0 0 0
511 1 0.007291938747484419 -0.008199129262390274 0.09852110791123841 4 0 0 0 0
512 1 0.005358342323128895 -0.0007103328420103375 0.09900316188622803 4 0 0 0 0
513 1 -0.008187075527865387 -0.005349762963151998 0.09901115555923552 4 0 0 0 0
514 1 -0.0007820280297372548 -0.005339166317985634 0.09900965767103417 4 0 0 0 0
515 1 -0.004911020447311541 -0.000339014955716539 0.09705221775770126 4 0 0 0 0
516 1 0.006044404072276944 -0.003510568402802503 0.09645075324291152 4 0 0 0 0
517 1 -0.002413712511524892 0.007739615534241621 0.09831633875540267 4 0 0 0 0
518 1 0.008797220820722047 -0.004281303285250625 0.09702420233414269 4 0 0 0 0
519 1 -4.486571804017536e-05 0.006837562780501474 0.09681845184559378 4 0 0 0 0
520 1 0.01040262648626853 -0.001183432766934948 0.09650734618651377 4 0 0 0 0
521 1 -0.0003124999999999972 0.009609329945113643 0.09651282788558735 4 0 0 0 0
522 1 -0.003683382757275182 0.005159633347338372 0.09852460083157687 4 0 0 0 0
523 1 0.003297742600854557 0.0111364905516133 0.09752292575690738 4 0 0 0 0
524 1 0.01008097849068717 0.004359770314335261 0.09849052419260237 4 0 0 0 0
525 1 -0.0005245149793581585 0.008830923695917424 0.09632019270909731 4 0 0 0 0
526 1 -0.0006866474388272749 -0.008559746358968938 0.09630714435153982 4 0 0 0 0
527 1 0.0082729385568123 -0.00750196893039278 0.09902302651073945 4 0 0 0 0
528 1 -0.004189602593709584 0.005841139268654601 0.09850785710365163 4 0 0 0 0
529 1 -0.006195929193284226 0.0002856984182774535 0.09902323064397486 4 0 0 0 0
530 1 -0.001479759765996014 0.005471173189624487 0.09934103033697458 4 0 0 0 0
531 1 0.006623591941003046 0.008609950848398967 0.09701670055077977 4 0 0 0 0
532 1 -0.002352095603672112 0.005093796293833532 0.09836309748967592 4 0 0 0 0
533 1 0.002419977695542411 -0.001511462046077809 0.09750543142803555 4 0 0 0 0
534 1 -0.004538100087051854 -0.005564631110375234 0.0989531043991229 4 0 0 0 0
535 1 0.002372699416538609 -0.003964470732495055 0.09739501650766688 4 0 0 0 0
536 1 -0.002878595402907369 -0.00025049946715207 0.0989928990755148 4 0 0 0 0
537 1 0.007813212430640872 0.002345964568945343 0.09849928737045655 4 0 0 0 0
538 1 0.0009816429482664994 0.007024504641999442 0.09683985228058872 4 0 0 0 0
539 1 0.0001520479630802972 0.001426988657274388 0.09650125721113834 4 0 0 0 0
540 1 -0.0001006589298113057 0.002866355169770854 0.09709631081459785 4 0 0 0 0
541 1 0.008235430746457174 0.002597847498940704 0.09650277468290624 4 0 0 0 0
542 1 -0.006652978744490401 -0.009132045314357923 0.09697855945975634 4 0 0 0 0
543 1 -0.00544121875746818 -0.007585126835815392 0.09692796510577502 4 0 0 0 0
544 1 0.00298118625057469 0.006433752663760992 0.09744929493764826 4 0 0 0 0
545 1 0.003173310888399337 0.01099101234372627 0.09852292575690738 4 0 0 0 0
546 1 -0.00084228298041169 0.006260684133948806 0.09715948218256837 4 0 0 0 0
547 1 0.0004430532969393443 -0.006773404092839846 0.09681010290514269 4 0 0 0 0
548 1 -0.006112919598827817 -0.0002285733704596995 0.09753142258468911 4 0 0 0 0
549 1 -0.001979446080872719 -0.006365841320878952 0.09834109735232574 4 0 0 0 0
550 1 0.01035426711315119 -0.00511990391794656 0.09753935341706738 4 0 0 0 0
551 1 0.009419221719519932 0.006184006886351482 0.09900203945068016 4 0 0 0 0
552 1 -0.01085359691776498 -0.003495966532579841 0.09903538108218769 4 0 0 0 0
553 1 0.004137582377969673 0.01060423506482403 0.09697125807067559 4 0 0 0 0
554 1 -0.001139968253016969 0.006899950675948291 0.09680791469871172 4 0 0 0 0
555 1 0.00728513676130617 0.003544121127118364 0.09949507545594501 4 0 0 0 0
556 1 -0.007349624323065154 -0.003598320333018621 0.09900852648055504 4 0 0 0 0
557 1 0.001512303333900601 0.005356668348646335 0.0964826399299135 4 0 0 0 0
558 1 0.006189740032162612 -0.002858581629369157 0.09645075324291152 4 0 0 0 0
559 1 0.0024513805533135 0.006637314874581553 0.09895324425118557 4 0 0 0 0
560 1 0.01053491759484143 0.003723758824269839 0.09899579213883886 4 0 0 0 0
561 1 -0.0005980969624984428 -0.007063402796881149 0.09679999063192127 4 0 0 0 0
562 1 0.004110083082832774 -0.001939978299448796 0.09650625150267977 4 0 0 0 0
563 1 0.008640462404238346 0.006907719348346315 0.09848680021531563 4 0 0 0 0
564 1 -0.001044945511279878 0.002029176830696329 0.09759654090237661 4 0 0 0 0
565 1 0.0004862905909371682 0.00847223927426992 0.09902209025583586 4 0 0 0 0
566 1 -0.008528972143413714 -0.007867385435954805 0.09749638008091728 4 0 0 0 0
567 1 0.00152542426244685 -0.004162000764173825 0.09748063249493247 4 0 0 0 0
568 1 -0.003838107105111366 0.003624960752410081 0.09708468546879161 4 0 0 0 0
569 1 -0.002755375355270656 -0.006502177443697097 0.09836589215659058 4 0 0 0 0
570 1 0.001341461182485895 0.00629503107230322 0.0968132298402537 4 0 0 0 0
571 1 0.0006229128484230076 -0.005825545907498024 0.0970197699442556 4 0 0 0 0
572 1 0.00218459566571383 -0.006304234128958826 0.09896030994691955 4 0 0 0 0
573 1 0.006478786168506634 -0.004966933504117418 0.09900125928761438 4 0 0 0 0
574 1 -0.0007269412483844633 0.01003208829724733 0.09704343528550712 4 0 0 0 0
575 1 -0.001066300477221323 0.008246070991230221 0.09948786193525358 4 0 0 0 0
576 1 -0.001809997024311707 0.009597933754334544 0.09701913165312705 4 0 0 0 0
577 1 -0.006009240724878073 0.005985797142770917 0.09751734357061412 4 0 0 0 0
578 1 0.009595289150894706 0.001530537067033378 0.0975115581010253 4 0 0 0 0
579 1 -0.006610227791507477 -0.005807677586054464 0.09844883496782476 4 0 0 0 0
580 1 -0.006683256494348849 0.009122606508231608 0.09899475125855814 4 0 0 0 0
581 1 0.005363534121219716 -0.00648314280970955 0.09652750158723898 4 0 0 0 0
582 1 0.001022654256828644 -0.008189753270010048 0.09631094969589038 4 0 0 0 0
583 1 0.007722409231703765 0.002847602419222724 0.09699785013885123 4 0 0 0 0
584 1 -0.009185919815976763 -0.006454267597910681 0.09899122183978044 4 0 0 0 0
585 1 -0.003102799611152766 0.006817777865298728 0.09650776173873725 4 0 0 0 0
586 1 0.01111226151563293 0.002454067431016398 0.09742060600349656 4 0 0 0 0
587 1 0.001735746863801164 -0.009381435005621894 0.09697273285773192 4 0 0 0 0
588 1 0.006797509971792416 -0.005458974802056153 0.09851832856976732 4 0 0 0 0
589 1 0.002950490014882273 0.005185270995652469 0.09885354979733378 4 0 0 0 0
590 1 0.003245213257887187 -0.006840273421124237 0.09845219757762654 4 0 0 0 0
591 1 0.002409972212028975 -0.01032586013961027 0.09702358379079447 4 0 0 0 0
592 1 -0.003405828474539974 -0.00854731407920304 0.09650202358954717 4 0 0 0 0
593 1 0.006793521499999445 -0.0005834960350585374 0.09949627099667514 4 0 0 0 0
594 1 0.00141475943300978 -0.005773401859333252 0.09848092668192283 4 0 0 0 0
595 1 -0.003668354771534143 0.004195897287059037 0.09651430541396411 4 0 0 0 0
596 1 -0.002406208098595337 -0.004836850265810037 0.09651103660153955 4 0 0 0 0
597 1 0.002840074989789722 -0.0101356665972399 0.09651439018578291 4 0 0 0 0
598 1 0.002740432265754062 0.003784803244385542 0.09688574670117227 4 0 0 0 0
599 1 -0.005739631882829289 0.005767453997251413 0.09851734357061412 4 0 0 0 0
600 1 0.001123238614200837 0.005675360734294362 0.0968132298402537 4 0 0 0 0
601 1 0.0007870752867460291 0.0109076560852022 0.0983444043769667 4 0 0 0 0
602 1 -0.0006709801224563554 0.005882761003685575 0.09667162024731479 4 0 0 0 0
603 1 0.001144545500806971 0.01012254138695967 0.09835866029452536 4 0 0 0 0
604 1 0.0003615691059067878 0.007402020457577178 0.09899712430550209 4 0 0 0 0
605 1 0.004868361406945814 -0.0003180986476821326 0.0995068908895529 4 0 0 0 0
606 1 -0.004160639042339019 -0.006023429205038493 0.09846694013941866 4 0 0 0 0
607 1 -0.009105345175285533 -0.006469476626084396 0.09699122183978044 4 0 0 0 0
608 1 -0.002157224486896833 0.0056524869950758 0.09884879207571182 4 0 0 0 0
609 1 -0.001946212290611731 0.004388316632976152 0.09744710316594596 4 0 0 0 0
610 1 -0.007337719838837421 -0.002963494225797304 0.09700848412983556 4 0 0 0 0
611 1 0.005631719897776638 -0.007319240841615593 0.09903912603646078 4 0 0 0 0
612 1 0.002560130173564646 0.004875694452748613 0.09885354979733378 4 0 0 0 0
613 1 -0.007486219993439258 0.002807373602286255 0.09898389954410372 4 0 0 0 0
614 1 -0.004121035837856203 -0.00830885241779495 0.09750175663803456 4 0 0 0 0
615 1 -0.003305271602044082 -0.002820514253267007 0.09651317313092422 4 0 0 0 0
616 1 0.001009506798243674 0.008808911291007714 0.09784786325976369 4 0 0 0 0
617 1 -0.001407594124681526 0.004483905287939097 0.09693279775198185 4 0 0 0 0
618 1 0.007280381071213243 -0.00813870672765781 0.09752110791123841 4 0 0 0 0
619 1 -0.006430104851746699 -0.003004578357750029 0.09901642623214796 4 0 0 0 0
620 1 0.008198643137934957 -0.008153819961188257 0.09851544069060313 4 0 0 0 0
621 1 -0.008209323277975406 -0.008121868522731812 0.09849638008091728 4 0 0 0 0
622 1 0.001358796418066137 0.01107901157055912 0.09883157649137936 4 0 0 0 0
623 1 0.007332353478205358 -0.001371575122520075 0.0969940247905927 4 0 0 0 0
624 1 0.002085873286779706 0.003015923365404438 0.09701938023334257 4 0 0 0 0
625 1 -0.001290335528684454 0.006898282247143282 0.09632005276345816 4 0 0 0 0
626 1 -0.009950077448904556 0.002254883615695591 0.09650227229249897 4 0 0 0 0
627 1 0.004224007509708949 -0.006123761101596677 0.09652750158723898 4 0 0 0 0
628 1 -0.003144977474885129 0.005874813780269224 0.09650776173873725 4 0 0 0 0
629 1 0.004497797347055005 -0.002363058792801788 0.09695700474559127 4 0 0 0 0
630 1 -0.006886325190833788 -0.0009439906508723148 0.09849741831590716 4 0 0 0 0
631 1 -0.004194154940615943 0.007020312906013654 0.09649756168603889 4 0 0 0 0
632 1 0.009921829444725484 0.005491915130585864 0.09900203945068016 4 0 0 0 0
633 1 -0.00437554255188833 0.003929905051998218 0.09858721914766712 4 0 0 0 0
634 1 -0.005142348272775577 0.00818244099991354 0.09650206755787183 4 0 0 0 0
635 1 -0.003960857264090048 0.009191555775141637 0.09849811206833582 4 0 0 0 0
636 1 0.004592381666887118 -0.00499126614270824 0.09649989390527293 4 0 0 0 0
637 1 0.001026053582230252 0.009493874089782138 0.09767885300362267 4 0 0 0 0
638 1 0.001658917944367663 -0.001220675767912625 0.09751498223912655 4 0 0 0 0
639 1 -0.006238521820100353 -0.00699303995365772 0.09944206779758337 4 0 0 0 0
640 1 0.00378368418006818 -0.007420739572034719 0.09652750158723898 4 0 0 0 0
641 1 0.002153036825676316 -0.005698415312450969 0.09646115673766723 4 0 0 0 0
642 1 -0.004250033068864211 0.00454246816539335 0.09901683909283963 4 0 0 0 0
643 1 0.002003156518273446 -0.008977000220889741 0.09646353925272036 4 0 0 0 0
644 1 -0.006965483023014474 -0.005366188214582247 0.09900676717024141 4 0 0 0 0
645 1 0.009377735398473227 -0.004702696731242047 0.09952283695180122 4 0 0 0 0
646 1 -0.001566853323456237 -0.003339236451029351 0.09949943108935899 4 0 0 0 0
647 1 0.001433600514382816 -0.008222593070501397 0.09677448894861071 4 0 0 0 0
648 1 0.01084284893822197 0.00375686067808609 0.09752589966892519 4 0 0 0 0
649 1 0.006330524925438813 -0.004929015845977511 0.09700125928761438 4 0 0 0 0
650 1 -0.003453549586941511 -0.003674723206690769 0.09902420973246376 4 0 0 0 0
651 1 0.003113123222782865 0.005624571751860964 0.09834960048379646 4 0 0 0 0
652 1 0.003228547300390445 -0.001256170878545153 0.09900657240577358 4 0 0 0 0
653 1 -0.00159140004562793 0.0009321351874013767 0.09747490658170228 4 0 0 0 0
654 1 -0.006342962971982191 0.005537455807012767 0.09701978188457522 4 0 0 0 0
655 1 -0.007670629559467844 -0.002331014518826544 0.09750393163757301 4 0 0 0 0
656 1 0.003334802373471284 0.005541101854714098 0.09686696055388297 4 0 0 0 0
657 1 0.000195672191949341 0.01145909243349874 0.09852687377147323 4 0 0 0 0
658 1 -0.003718954341331121 -0.002175805968143331 0.09903593911210608 4 0 0 0 0
659 1 0.004255426289603482 -0.004555497866006491 0.09693489465301061 4 0 0 0 0
660 1 0.00483456671151973 -0.007890447653820907 0.09903912603646078 4 0 0 0 0
661 1 -0.003675234497518056 0.001856809686282606 0.0976033481075779 4 0 0 0 0
662 1 -0.002697509721757705 0.007084615401624625 0.09682781450219539 4 0 0 0 0
663 1 0.006580608675601065 0.009287554263480784 0.09854045592911803 4 0 0 0 0
664 1 -0.00682071078839369 -0.005566495711825128 0.09744883496782476 4 0 0 0 0
665 1 0.001981287997938824 -0.01061255304522991 0.09650919360501156 4 0 0 0 0
666 1 0.002493846104068495 -0.001532395577941918 0.09850543142803556 4 0 0 0 0
667 1 -0.01085263537544945 -0.002924098143302899 0.09699354898672875 4 0 0 0 0
668 1 -0.002098069927286224 0.000790195129585557 0.09897364937056395 4 0 0 0 0
669 1 -0.008162636315818329 -0.0001331238858889071 0.09898922637519292 4 0 0 0 0
670 1 0.0008080915833958304 0.005431365312853676 0.09730386248307614 4 0 0 0 0
671 1 0.002424684321622405 0.01081708752854805 0.09736912658076 4 0 0 0 0
672 1 0.001826187192775735 -0.002070490700817043 0.09649885902226199 4 0 0 0 0
673 1 0.001283416235162819 0.008639834986925131 0.09733503537417634 4 0 0 0 0
674 1 -0.004209119829203255 -0.003860787827430726 0.09651317313092422 4 0 0 0 0
675 1 0.006746521422372383 -0.005392645232765853 0.09751832856976732 4 0 0 0 0
676 1 0.001095849602314969 -0.00670403665086469 0.09649915320925234 4 0 0 0 0
677 1 0.001450026553267896 -0.005149791644702357 0.09898177347267051 4 0 0 0 0
678 1 0.01067661487313074 -0.00334420187937283 0.09699132833536833 4 0 0 0 0
679 1 -0.006693487661431806 -0.003584173011495945 0.09950823429143373 4 0 0 0 0
680 1 0.007122496673995126 0.008039203393227312 0.09751968892920337 4 0 0 0 0
681 1 -0.0006866474388272797 -0.009440253641031054 0.09630714435153982 4 0 0 0 0
682 1 -0.001127165756603131 0.007229277874409554 0.09680791469871172 4 0 0 0 0
683 1 -1.699314443251952e-05 0.006888863104037697 0.09948786193525358 4 0 0 0 0
684 1 -0.006460375442288354 0.006619491852741912 0.09751193199332792 4 0 0 0 0
685 1 0.003375414863840378 -0.003241023784133763 0.0964350007477377 4 0 0 0 0
686 1 0.00127695249921847 -0.001710175831971182 0.09701466133603273 4 0 0 0 0
687 1 0.009443599242225166 0.006815645040022891 0.09849111923380871 4 0 0 0 0
688 1 0.0008434367654931899 0.005341094362400923 0.09897327257273594 4 0 0 0 0
689 1 -0.00573426099189605 0.005615894527930416 0.09650253367887553 4 0 0 0 0
690 1 -0.009449205947747268 -0.005946761253342783 0.09850384452020826 4 0 0 0 0
691 1 0.001942782395106243 0.01145672401890354 0.09835487066320131 4 0 0 0 0
692 1 -0.0070518987198783 0.003394309203686787 0.09948162725160478 4 0 0 0 0
693 1 0.003656430015124735 -0.006082277577727139 0.0969886583249062 4 0 0 0 0
694 1 -0.001310790896561053 -0.007250716980594989 0.09835058355464341 4 0 0 0 0
695 1 -0.002791215215509661 0.005032726850628046 0.09902206715270134 4 0 0 0 0
696 1 -0.001717099453117359 -0.007799766473629522 0.09836356620815967 4 0 0 0 0
697 1 0.00294409322667575 0.005657831564403902 0.09734960048379646 4 0 0 0 0
698 1 -0.01018990616640286 -0.003235871062961535 0.09951162571286819 4 0 0 0 0
699 1 0.006481891897850197 -0.003802967249492243 0.09695211862525296 4 0 0 0 0
700 1 0.001194307273800613 -0.004499240861449956 0.09652061673500328 4 0 0 0 0
701 1 -0.007005409154976858 0.008599571421861766 0.09849187336014746 4 0 0 0 0
702 1 0.002377201993728005 -0.009715115891227741 0.0984871230435148 4 0 0 0 0
703 1 -0.008044620000143466 -0.000102494993262999 0.09698922637519292 4 0 0 0 0
704 1 0.004191857308282812 -0.009565614927042814 0.09951439018578291 4 0 0 0 0
705 1 0.0006210511237488727 0.0073094778235945 0.09716004498968603 4 0 0 0 0
706 1 -0.008387398339656803 0.001198385277701964 0.09899605115995441 4 0 0 0 0
707 1 -0.004137078153343104 0.0003047221730603929 0.09905221775770126 4 0 0 0 0
708 1 7.704091361984076e-05 -0.01153044543322918 0.09698994036956328 4 0 0 0 0
709 1 0.002620010231340681 0.003232429431796228 0.09651483683375199 4 0 0 0 0
710 1 -0.001954143895883738 0.008669508455590912 0.09648852425320729 4 0 0 0 0
711 1 -9.618258475877216e-05 -0.008202743547552347 0.09683147249974758 4 0 0 0 0
712 1 -0.002865386518347334 0.007650512140098889 0.09899628599194453 4 0 0 0 0
713 1 -0.006982832763730289 0.00861291341636629 0.09749187336014746 4 0 0 0 0
714 1 -0.001153618729623408 0.004553398354988486 0.09842343039480428 4 0 0 0 0
715 1 0.00110909835175191 -0.007735509517803598 0.09631094969589038 4 0 0 0 0
716 1 -0.002112176982403726 0.0006996359254661712 0.09697364937056396 4 0 0 0 0
717 1 0.002167091353025706 -0.00744337440599571 0.09896269246197267 4 0 0 0 0
718 1 -0.006856119932948638 -0.003345307855367146 0.09751671842126927 4 0 0 0 0
719 1 0.00818708546166378 -0.008093397426455793 0.09751544069060313 4 0 0 0 0
720 1 -0.001358664209912226 0.002541047436861423 0.09709528369123829 4 0 0 0 0
721 1 -0.003611231228887264 0.001293766163356141 0.09703296805275041 4 0 0 0 0
722 1 0.001571166573291581 0.002783371306245125 0.09650454339959059 4 0 0 0 0
723 1 0.005658845000178925 0.009229251429464019 0.09852571909422289 4 0 0 0 0
724 1 0.002995444655791021 -0.0016836282226022 0.09650625150267977 4 0 0 0 0
725 1 -0.001896704799073303 0.003782235722011704 0.09710607282897138 4 0 0 0 0
726 1 0.006331920181827491 -0.003530854538862562 0.09895211862525299 4 0 0 0 0
727 1 -0.005793721141338568 0.007822354669895329 0.09749675134550002 4 0 0 0 0
728 1 0.0005888241251256313 -0.008398674850312145 0.09631094969589038 4 0 0 0 0
729 1 0.002551849785166783 0.003787858465771468 0.09951483683375199 4 0 0 0 0
730 1 0.001366677363527382 0.002167986862402179 0.0995045433995906 4 0 0 0 0
731 1 0.008367944817880911 -0.003081820346219469 0.09852195612806025 4 0 0 0 0
732 1 0.001732786352893747 -0.001241609299776735 0.09851498223912655 4 0 0 0 0
733 1 0.002792743316421249 -0.002830029487895977 0.09744011127267943 4 0 0 0 0
734 1 -0.01112782414745414 -0.003500737156658728 0.09751730435604827 4 0 0 0 0
735 1 0.0006134809973146131 -0.01119820910106867 0.09849913397457484 4 0 0 0 0
736 1 0.002247288511707136 -0.01122182618177556 0.09703248779014273 4 0 0 0 0
737 1 -0.0065249885615623 0.009712108185847463 0.09751839433436829 4 0 0 0 0
738 1 -0.003316955651510355 -0.00537370469615684 0.09651103660153955 4 0 0 0 0
739 1 -0.005400538744791932 0.006064235863688566 0.0970000953649144 4 0 0 0 0
740 1 0.0104575697655081 0.003137319271120111 0.09703288221299256 4 0 0 0 0
741 1 0.007350145509447022 0.001791250973968834 0.0989965126875503 4 0 0 0 0
742 1 0.003661642473207509 0.003894015853022396 0.09637090986742029 4 0 0 0 0
743 1 -0.002539405778993699 0.007983140897750761 0.09680857701666544 4 0 0 0 0
744 1 0.001110685445281031 0.008295133671901135 0.09682945507934582 4 0 0 0 0
745 1 -0.005191991254568922 -0.01073903467226737 0.09651026734336329 4 0 0 0 0
746 1 -0.001189983135101951 0.009693299532542748 0.09853195953871439 4 0 0 0 0
747 1 -0.001441566071976352 0.0007190114785821957 0.09847490658170228 4 0 0 0 0
748 1 0.003443967120191923 0.006699000846029843 0.09696665500773477 4 0 0 0 0
749 1 -0.001234693615481593 0.0004741736035219346 0.09697139030547126 4 0 0 0 0
750 1 -0.009191385351767388 -0.007089054182016647 0.09849640689032536 4 0 0 0 0
751 1 -0.001358086633143098 0.003877824376974649 0.09659176741500727 4 0 0 0 0
752 1 -0.003627903154293724 0.001718550860979581 0.09860334810757791 4 0 0 0 0
753 1 0.002999071381378661 0.0005050092339297262 0.09650032090309382 4 0 0 0 0
754 1 0.002185518993718434 0.009905585061908282 0.09684583240893802 4 0 0 0 0
755 1 0.0109992367089126 -0.003901341239991178 0.09751462250719031 4 0 0 0 0
756 1 0.0001567374791039281 -0.009721957006799099 0.09852831092616643 4 0 0 0 0
757 1 0.003432712011002723 0.00245948357101779 0.09651483683375199 4 0 0 0 0
758 1 0.001362329196264691 -0.007399056508553419 0.09727364215786305 4 0 0 0 0
759 1 -0.006411146847442701 0.004768366146494948 0.09701978188457522 4 0 0 0 0
760 1 0.0004346403027906668 0.004010499814002874 0.09699517604241303 4 0 0 0 0
761 1 1.980346568266901e-05 -0.007301008953997377 0.09781966664503081 4 0 0 0 0
762 1 -0.006183765611272299 -0.009283725708892094 0.09900907935161771 4 0 0 0 0
763 1 0.004030345695866796 0.01030133434295094 0.0989712580706756 4 0 0 0 0
764 1 -0.00356695896883442 -0.01080986390741537 0.09691521171356368 4 0 0 0 0
765 1 0.003381926023950562 -0.0006579409483951352 0.09950032090309383 4 0 0 0 0
766 1 0.004954198068712329 -0.007776102851774309 0.09703912603646078 4 0 0 0 0
767 1 -0.009181820281853648 -0.007102998830650017 0.09749640689032536 4 0 0 0 0
768 1 -0.001558560038835191 -0.001813130744585039 0.09896956418369192 4 0 0 0 0
769 1 0.00940884827319464 0.006133350812806267 0.09700203945068016 4 0 0 0 0
770 1 -0.0006113680385523392 -0.003786111317842204 0.09702004782436226 4 0 0 0 0
771 1 0.001299963019149398 0.009324797785699555 0.09716602511803532 4 0 0 0 0
772 1 -0.000752906266004789 0.002859015247554772 0.09659176741500727 4 0 0 0 0
773 1 -0.0005099476312762922 0.006008989221601101 0.09765011482539079 4 0 0 0 0
774 1 -0.0003386447733209576 0.005631066091337872 0.09716225289013725 4 0 0 0 0
775 1 0.002915120711451019 0.009192645122185095 0.09650558029483053 4 0 0 0 0
776 1 0.004775119253252398 -0.002036166626498437 0.09845327574226639 4 0 0 0 0
777 1 0.008472470284356742 0.002109191904561695 0.09900421191451156 4 0 0 0 0
778 1 -0.001256629321096743 0.001522768388010918 0.09700477348736934 4 0 0 0 0
779 1 0.006090089666226907 -0.004114925933781661 0.09845201253052591 4 0 0 0 0
780 1 0.002300252609167185 0.01067160932066101 0.09836912658076 4 0 0 0 0
781 1 0.0001188532582502389 0.007220249496330466 0.09713864455469107 4 0 0 0 0
782 1 -0.004915079949200037 0.007878403120284167 0.09699962924391071 4 0 0 0 0
783 1 0.003412774928567288 -0.006031511351186649 0.09898865832490621 4 0 0 0 0
784 1 0.001218029665163659 0.008943976842186317 0.09852767055066639 4 0 0 0 0
785 1 0.009948930091695739 0.002102945849267581 0.09950277468290625 4 0 0 0 0
786 1 -0.001988015691640161 -0.001385163449330169 0.09947013309433295 4 0 0 0 0
787 1 -0.00567630390173021 -0.01023467170033877 0.09751934669498102 4 0 0 0 0
788 1 0.003493576441587048 0.005237578892235644 0.09886696055388297 4 0 0 0 0
789 1 0.001188152063739304 0.005809461515965392 0.09948263992991351 4 0 0 0 0
790 1 -0.0002998731974026208 -0.006697591180361019 0.09679999063192127 4 0 0 0 0
791 1 0.009958263065667678 0.004327368089421599 0.09749052419260237 4 0 0 0 0
792 1 0.004168223762923289 -0.004336977387977717 0.09893489465301061 4 0 0 0 0
793 1 -0.0073273146967448 -0.0005198946238614106 0.09898922637519292 4 0 0 0 0
794 1 0.0004048209946571056 0.002560603208433569 0.09650454339959059 4 0 0 0 0
795 1 0.004447490149061061 0.004802854892483088 0.09647757390907455 4 0 0 0 0
796 1 -0.01007123445146097 -0.002934889115729387 0.09651162571286818 4 0 0 0 0
797 1 -0.002708365138407838 0.005638562893069099 0.09684879207571181 4 0 0 0 0
798 1 -0.008179393901373268 0.005918989601625493 0.09651724820569971 4 0 0 0 0
799 1 0.002194032946498685 0.007631706171410197 0.09897986669152059 4 0 0 0 0
800 1 -0.0009086684045534367 -0.005800726460749035 0.0964890409360309 4 0 0 0 0
801 1 0.00555131975501597 -0.0002970699486662445 0.09700316188622803 4 0 0 0 0
802 1 0.0006573678934547925 0.004163852128578241 0.09899517604241304 4 0 0 0 0
803 1 0.009602199768233271 0.0008859639429883098 0.09700878341811905 4 0 0 0 0
804 1 -0.0005132230225499717 -0.00855974635896894 0.09682766715539702 4 0 0 0 0
805 1 -0.005214931257951805 0.007749614688065285 0.09699962924391071 4 0 0 0 0
806 1 0.002151540933901547 -0.007779387965037597 0.09646353925272036 4 0 0 0 0
807 1 -0.002836785361488239 0.008389061414064614 0.09648852425320729 4 0 0 0 0
808 1 -0.008183519707319353 0.0005299970423287365 0.09649377886745547 4 0 0 0 0
809 1 0.00686479032745334 -0.007251884525297259 0.09702869373137474 4 0 0 0 0
810 1 -0.009378196376969778 -0.005948025632883129 0.09750384452020826 4 0 0 0 0
811 1 -0.00560693685703676 -0.004839617586674711 0.09650823429143372 4 0 0 0 0
812 1 0.001049363464947035 0.009724754447749555 0.09901840818041785 4 0 0 0 0
813 1 -0.005557706672761285 8.966499290690005e-05 0.0995294517765194 4 0 0 0 0
814 1 0.008228748767085861 -0.00375979750943803 0.09702420233414269 4 0 0 0 0
815 1 0.01021848148660338 0.0008867284769306156 0.09650734618651377 4 0 0 0 0
816 1 0.005684724784176933 0.001853251538756468 0.09700196634549789 4 0 0 0 0
817 1 -0.002596344098734382 0.005591417551870315 0.09950776173873725 4 0 0 0 0
818 1 0.0008463630402126812 0.00364543611069143 0.09650454339959059 4 0 0 0 0
819 1 -0.006831529929745751 -0.009387322450614922 0.09850174150318236 4 0 0 0 0
820 1 -0.006526063159715489 0.009723120180750673 0.09851839433436829 4 0 0 0 0
821 1 0.004306702605924485 0.0004944856258241149 0.0965068908895529 4 0 0 0 0
822 1 -0.006518661053577588 -0.009719562607365513 0.09750174150318236 4 0 0 0 0
823 1 0.005385023824317864 -0.003700285798639617 0.09645075324291152 4 0 0 0 0
824 1 0.002675972725797287 -0.01093513327615591 0.09754687797592564 4 0 0 0 0
825 1 -0.003873734733176097 0.003493421860327746 0.09908468546879161 4 0 0 0 0
826 1 0.005992816972579119 -0.004143337844932054 0.09745201253052591 4 0 0 0 0
827 1 0.0002720216892425631 0.009244322338271261 0.09683302059468465 4 0 0 0 0
828 1 -0.001955965472604175 0.008179683811020484 0.09680857701666544 4 0 0 0 0
829 1 0.0005705596212641912 -0.0112457920052156 0.09749913397457484 4 0 0 0 0
830 1 -0.007796853506701742 0.008240033900495302 0.09898980580227563 4 0 0 0 0
831 1 0.002313685410366847 0.01026139715575882 0.09634025211410752 4 0 0 0 0
832 1 -0.003804592967430196 0.006372560247287905 0.09900532342477612 4 0 0 0 0
833 1 -0.00716028010235902 0.002133179891231523 0.09847767841155919 4 0 0 0 0
834 1 0.005241023995886602 0.006135645544144969 0.0975237330681655 4 0 0 0 0
835 1 -0.006029460580338152 -0.005515616428558575 0.09895030208901708 4 0 0 0 0
836 1 -0.005122242496020502 -0.001563708229267576 0.0990309579218961 4 0 0 0 0
837 1 0.008495707855755749 -0.003271112473971341 0.09652283695180122 4 0 0 0 0
838 1 -0.00637078218114482 0.00420868686827788 0.09750140913618 4 0 0 0 0
839 1 0.008626602858979256 0.006825322657128919 0.09748680021531564 4 0 0 0 0
840 1 0.002983401134466096 -0.001124065043931538 0.09700657240577357 4 0 0 0 0
841 1 0.00674320394982474 -0.001130517484536508 0.09649627099667514 4 0 0 0 0
842 1 -0.002886118114511238 0.006343296964490402 0.09650776173873725 4 0 0 0 0
843 1 0.00257788094117914 0.005259671298788487 0.09948263992991351 4 0 0 0 0
844 1 -0.003748225250151979 0.004105984973722877 0.09951430541396411 4 0 0 0 0
845 1 9.933912642877478e-05 -0.006658702637414157 0.09729914384117361 4 0 0 0 0
846 1 -0.006659491651044528 -0.004637725164833005 0.09650823429143372 4 0 0 0 0
847 1 -0.005125296629414341 0.003655859538754671 0.09755454098530779 4 0 0 0 0
848 1 0.003465953977667134 -0.002808831650167251 0.09694125225041744 4 0 0 0 0
849 1 0.01046514617370132 0.005276544299686408 0.0984950569066128 4 0 0 0 0
850 1 0.008208950402402182 -0.007376671509612502 0.09702302651073945 4 0 0 0 0
851 1 -0.005003437592589306 -0.007313659075867368 0.09744180084607078 4 0 0 0 0
852 1 -0.0007040182696016411 -0.004582570764116276 0.09952061673500329 4 0 0 0 0
853 1 0.0001650834022251959 -0.002067312226895056 0.09751409242539172 4 0 0 0 0
854 1 0.003150216246681806 0.006400492851218055 0.09844929493764826 4 0 0 0 0
855 1 0.001329702941836801 -0.001752323916568307 0.09901466133603273 4 0 0 0 0
856 1 -0.004803127641306497 0.005707619391120664 0.0990000953649144 4 0 0 0 0
857 1 0.003319759269256747 0.003625372419137021 0.09688574670117227 4 0 0 0 0
858 1 -0.006046743663385245 0.008732565341634586 0.09650206755787183 4 0 0 0 0
859 1 0.004255333920595298 -0.003183450391558649 0.09839200549332897 4 0 0 0 0
860 1 0.0006069875175254663 -0.007674114457930377 0.09901967601310954 4 0 0 0 0
861 1 0.01115192117072271 -0.003473832102334433 0.09851462250719031 4 0 0 0 0
862 1 -0.007465212339541049 -0.007191846992353585 0.09649853287880771 4 0 0 0 0
863 1 -0.006061870764640659 0.00729608705391833 0.0969946837876282 4 0 0 0 0
864 1 0.01058755925774836 -0.003790304815909637 0.0990461311236232 4 0 0 0 0
865 1 -1.260325029363882e-05 0.00225414237822929 0.09859756802573619 4 0 0 0 0
866 1 -5.125007857262396e-05 -0.002641862392832811 0.09699829011162098 4 0 0 0 0
867 1 -0.001872948426862557 0.006640544881366749 0.09765670677442354 4 0 0 0 0
868 1 -0.001857415392150729 0.004336771176555603 0.09844710316594596 4 0 0 0 0
869 1 -0.0007578412776844759 -3.285213407560938e-05 0.09848719261924203 4 0 0 0 0
870 1 -0.006369970922166443 0.008220542250167953 0.09699918965946117 4 0 0 0 0
871 1 -0.001482289093202388 0.006552164474924611 0.0971489450356863 4 0 0 0 0
872 1 0.005098179157757309 0.001499716124850491 0.0965068908895529 4 0 0 0 0
873 1 0.005415884793391222 -0.003971568917349077 0.09895064714818444 4 0 0 0 0
874 1 -0.00757124760459051 0.006684749903835405 0.09901437030728902 4 0 0 0 0
875 1 -0.002938872879534378 -0.004078013630846582 0.09951103660153955 4 0 0 0 0
876 1 -0.002017451932234493 -0.005693935450419591 0.09900007753757044 4 0 0 0 0
877 1 -0.00560428515696336 0.001607548410436211 0.09901107902812417 4 0 0 0 0
878 1 0.006927336553144549 -0.007378636629320023 0.09902869373137474 4 0 0 0 0
879 1 0.005567971572151514 -0.000867205091882975 0.09649627099667514 4 0 0 0 0
880 1 -0.008188883105038148 -0.008578831295464485 0.09649266215156467 4 0 0 0 0
881 1 -0.001020032574479104 -0.006708677304067698 0.0964890409360309 4 0 0 0 0
882 1 -0.00491303075825261 -0.001605731343376126 0.0970309579218961 4 0 0 0 0
883 1 0.00910900179207798 -0.006337407760870818 0.09701029157559711 4 0 0 0 0
884 1 -0.004097405040010193 -0.005004926884032961 0.09951103660153955 4 0 0 0 0
885 1 0.00857075930515927 -0.008148530905569181 0.09950595722858653 4 0 0 0 0
886 1 0.001968107415234928 -0.009236784318112515 0.09897273285773192 4 0 0 0 0
887 1 0.01002908629908255 0.005046763446262049 0.09698774950969612 4 0 0 0 0
888 1 -0.00245943957761658 0.001283125533747736 0.09650351627623102 4 0 0 0 0
889 1 -0.009710150142064361 -0.006744280792530397 0.09649268896097274 4 0 0 0 0
890 1 -0.00440986305170157 -0.006548827997002828 0.09651383574029576 4 0 0 0 0
891 1 0.005585188007581436 -0.01041763418838173 0.09650595722858651 4 0 0 0 0
892 1 0.005556752944364193 0.006472273667727546 0.09702768238170284 4 0 0 0 0
893 1 1.59158162951804e-05 -0.003370378809688437 0.09851890684662423 4 0 0 0 0
894 1 0.008305591821457287 0.007724147303302108 0.09899206816155214 4 0 0 0 0
895 1 0.0001638933343003626 0.009718063614910663 0.09651282788558735 4 0 0 0 0
896 1 -0.002614566832654622 -0.007443506088853739 0.0983568791445982 4 0 0 0 0
897 1 0.002770603637523018 0.002309322371171407 0.09951483683375199 4 0 0 0 0
898 1 -0.001210725754605568 -0.003383637082819309 0.09649943108935899 4 0 0 0 0
899 1 -0.002771133826538021 0.005235442717842209 0.09736309748967592 4 0 0 0 0
900 1 -0.009790724782755588 -0.006729071764356683 0.09949268896097274 4 0 0 0 0
901 1 0.006266440317520436 -0.007478083932899414 0.09651162444922182 4 0 0 0 0
902 1 -0.004225079911041384 -0.007635588574999157 0.09651383574029576 4 0 0 0 0
903 1 0.001946000718634773 -0.006946364934315323 0.09949915320925234 4 0 0 0 0
904 1 0.0008705900860587062 -0.007097055325690854 0.09681010290514269 4 0 0 0 0
905 1 8.650331004044038e-05 -0.005947382217672619 0.0975088108802865 4 0 0 0 0
906 1 -0.005133068199903084 -0.008202110819522596 0.09648589730819168 4 0 0 0 0
907 1 -0.002206776621060583 9.338154848849081e-05 0.09947013309433295 4 0 0 0 0
908 1 -0.006879126713745565 -0.0007516094941946206 0.09749741831590715 4 0 0 0 0
909 1 -0.007918641085282601 0.008027114783977983 0.09649712210158934 4 0 0 0 0
910 1 -0.0004261846736097869 -0.0113134963896584 0.0990217765607237 4 0 0 0 0
911 1 0.002154727298926582 -0.005197870268142993 0.09946115673766723 4 0 0 0 0
912 1 0.01100542958271242 0.003351732861326732 0.09852589966892519 4 0 0 0 0
913 1 0.000979777326487688 0.008371997946098157 0.09632019270909731 4 0 0 0 0
914 1 0.003507802145535282 0.006084470040906999 0.09649605068646269 4 0 0 0 0
915 1 -0.0009239153049428693 -0.01136290907228224 0.09702177656072369 4 0 0 0 0
916 1 -0.006169586517981746 0.001310732385928473 0.09850485789557964 4 0 0 0 0
917 1 -0.0004995686089611097 -0.00544413153382095 0.09700965767103417 4 0 0 0 0
918 1 0.00638211240839763 0.004057726849620667 0.09699800090218388 4 0 0 0 0
919 1 0.0006832849645696089 -0.001984646717434681 0.09701466133603273 4 0 0 0 0
920 1 -0.001128474894481073 0.01025598601702344 0.09653060739991977 4 0 0 0 0
921 1 0.003669357359504547 -0.009624483959212374 0.09651439018578291 4 0 0 0 0
922 1 0.006026864033017857 0.0006095727746077841 0.0995068908895529 4 0 0 0 0
923 1 0.009590841117933775 -0.004308527346400189 0.09652283695180122 4 0 0 0 0
924 1 0.002553799414777624 -0.002226070612304935 0.09900511052494174 4 0 0 0 0
925 1 -0.005221611347017544 0.01029260353695037 0.09903116333306687 4 0 0 0 0
926 1 -0.008536145694150983 -0.008139167293703812 0.09950518505054493 4 0 0 0 0
927 1 -0.008633025484704399 -0.002641995493134038 0.09650029218912133 4 0 0 0 0
928 1 -0.009100225066646489 -0.003624347156202198 0.09650029218912133 4 0 0 0 0
929 1 -0.004695287035024209 -0.007930643059574572 0.09699973304848741 4 0 0 0 0
930 1 0.002840653105805454 -0.002964141343588331 0.09844011127267943 4 0 0 0 0
931 1 -0.004025904595743344 0.009530814052198511 0.09650752025725672 4 0 0 0 0
932 1 -0.005261332780622458 5.243212513601631e-05 0.09652945177651939 4 0 0 0 0
933 1 -0.007237910460494455 -0.001950487684536463 0.09700363944845171 4 0 0 0 0
934 1 -0.003687598429486417 -0.008920980672012885 0.09898792089773883 4 0 0 0 0
935 1 -0.003350121988790221 -0.001593394870775364 0.09952276598118187 4 0 0 0 0
936 1 -0.007177519509192986 -0.00948911946586525 0.09649266215156466 4 0 0 0 0
937 1 0.006650945815221594 0.001950544197907269 0.09949507545594501 4 0 0 0 0
938 1 -0.006031103877712199 0.002041736289499029 0.09948162725160478 4 0 0 0 0
939 1 0.003648690826735166 -0.003180060311063924 0.09894125225041746 4 0 0 0 0
940 1 0.01023931614507507 0.005636381126587657 0.09749505690661278 4 0 0 0 0
941 1 -0.005466600119113058 0.009876207593492437 0.0985332308909387 4 0 0 0 0
942 1 0.003978145681211799 0.004543978639879904 0.09684848377649481 4 0 0 0 0
943 1 -0.006384715811845148 -0.005074127057086358 0.09950823429143373 4 0 0 0 0
944 1 0.009308373410265917 0.0006225693945080396 0.09900878341811906 4 0 0 0 0
945 1 -0.005483080881253896 0.007223347072088286 0.09649756168603889 4 0 0 0 0
946 1 -0.002685201910789135 -0.01091635297184597 0.09889784238793572 4 0 0 0 0
947 1 1.808240563269637e-05 0.003674164359854994 0.09758694345742031 4 0 0 0 0
948 1 0.004357285770042368 0.005255906289464742 0.09697362459553721 4 0 0 0 0
949 1 0.005809345476358098 0.006099674902852034 0.0965029254462389 4 0 0 0 0
950 1 -0.005212384717741604 0.01068419116816764 0.09649291815890398 4 0 0 0 0
951 1 0.002486142837655328 0.004261424900364826 0.09637090986742029 4 0 0 0 0
952 1 -0.006432361488908234 0.004447617254902071 0.09850140913618 4 0 0 0 0
953 1 0.009429739696966076 0.006733248348805495 0.09749111923380871 4 0 0 0 0
954 1 0.005296633227554363 -0.004127866131561524 0.09695064714818444 4 0 0 0 0
955 1 0.002244049885259118 0.01122110469371579 0.09686354628592947 4 0 0 0 0
956 1 0.005103887871626396 -0.008526845497248404 0.09951162444922182 4 0 0 0 0
957 1 0.003866010449458956 -0.0107341016384426 0.09700761248693641 4 0 0 0 0
958 1 -0.0008781477303444722 -0.0006377846761839189 0.09898593540810371 4 0 0 0 0
959 1 -0.00464188060889172 -0.002024004073617495 0.09854413105282032 4 0 0 0 0
960 1 0.00587714789147321 -0.005316004084154238 0.09949989390527293 4 0 0 0 0
961 1 -0.009208313279970029 -0.00246839276252276 0.0970119179019895 4 0 0 0 0
962 1 0.001513180378708092 0.01160114586564254 0.09949132437727186 4 0 0 0 0
963 1 0.009782498302344744 0.006749713109599572 0.09950730739691666 4 0 0 0 0
964 1 0.009272792253915536 -0.001895853796210034 0.09649775379391758 4 0 0 0 0
965 1 -0.006918730894688885 -5.082210378271632e-05 0.09949377886745547 4 0 0 0 0
966 1 -0.009146838871209798 0.003637057028248015 0.09899283340016438 4 0 0 0 0
967 1 -0.0003886852718717144 0.004058310566722385 0.09708240005782971 4 0 0 0 0
968 1 -0.002611067001837103 0.009441285402496578 0.09648852425320729 4 0 0 0 0
969 1 0.003877685374201753 0.004726766886926042 0.0983445344629575 4 0 0 0 0
970 1 0.000466951483771789 -0.002559196883372436 0.09649885902226199 4 0 0 0 0
971 1 -0.01129334470761234 -0.003140955636460385 0.09851730435604829 4 0 0 0 0
972 1 0.002445302579116711 0.01016341094682459 0.09684583240893802 4 0 0 0 0
973 1 0.005680239081603824 -0.002399017287821087 0.09645075324291152 4 0 0 0 0
974 1 0.003459868734359102 -0.007627089215334814 0.09899104083995931 4 0 0 0 0
975 1 0.004078021710431319 0.00395697658739195 0.09684848377649481 4 0 0 0 0
976 1 0.01153968038050125 0.003995517660777639 0.09702312498601895 4 0 0 0 0
977 1 -0.008188701864571194 0.0005275687330577893 0.09949377886745547 4 0 0 0 0
978 1 0.005362041284913768 -0.00662659907360486 0.09952750158723898 4 0 0 0 0
979 1 -0.001027650383515805 -0.009258688466959986 0.09832626167269469 4 0 0 0 0
980 1 -0.009615088325572486 0.001208857965209184 0.09700007501609195 4 0 0 0 0
981 1 -0.006180211071910587 0.007162811978559867 0.09899468378762821 4 0 0 0 0
982 1 -0.002980232769581024 0.001063363953805189 0.09650351627623102 4 0 0 0 0
983 1 -0.005775953838641406 -0.005339823296239395 0.09695030208901707 4 0 0 0 0
984 1 -0.001861000756039444 -0.001580126942783769 0.09696956418369193 4 0 0 0 0
985 1 -0.00573742435788411 0.006759552400683752 0.09949756168603889 4 0 0 0 0
986 1 -0.004735517920866785 -0.001039388394197048 0.09952276598118187 4 0 0 0 0
987 1 -0.001570348019729091 0.002034638994176012 0.09650351627623102 4 0 0 0 0
988 1 -0.007180561125268166 0.009485504741567259 0.09649268370068631 4 0 0 0 0
989 1 0.0001860011979092501 -0.002744384444445214 0.09899829011162098 4 0 0 0 0
990 1 -0.000882793040977371 0.004583146019067849 0.09742343039480428 4 0 0 0 0
991 1 -0.0009123596570701937 -0.0007155820087015537 0.09698593540810371 4 0 0 0 0
992 1 0.005657715308991806 -0.003387497522429978 0.09945075324291153 4 0 0 0 0
993 1 0.00171626663212708 0.01029389687231659 0.09884583240893802 4 0 0 0 0
994 1 -0.00061727546619037 0.002115691480831051 0.0990930246261456 4 0 0 0 0
995 1 -0.006596405238730585 0.001744920264991292 0.09897540611906025 4 0 0 0 0
996 1 0.004431387456919849 -0.00262942836545688 0.09895700474559127 4 0 0 0 0
997 1 2.229304347871189e-05 -0.01174856790112986 0.09851312241298932 4 0 0 0 0
998 1 -0.0009991399454229199 0.01076436094928213 0.09653060739991977 4 0 0 0 0
999 1 -0.00481371582516853 -0.002150259946938754 0.09754413105282032 4 0 0 0 0
1000 1 0.003965353702602441 -0.006067775835594431 0.09952750158723898 4 0 0 0 0
1001 1 0.009152077961787452 -0.007017494141111405 0.09751624880418364 4 0 0 0 0
1002 1 -0.004679257736167979 0.00494069808674945 0.09650253367887553 4 0 0 0 0
1003 1 0.00574388536895445 -0.005283305465476088 0.09649989390527293 4 0 0 0 0
1004 1 0.007840504848255977 0.001416579122457099 0.09650143723160531 4 0 0 0 0
1005 1 0.004205736676834035 0.007021482126428041 0.09749141194319869 4 0 0 0 0
1006 1 0.002934737964027869 -0.009265482703537185 0.09897792943850324 4 0 0 0 0
1007 1 -0.005115892591202378 -0.007315025093768598 0.09844180084607078 4 0 0 0 0
1008 1 -0.001930915059890678 -0.002217781606562768 0.09649943108935899 4 0 0 0 0
1009 1 0.000527958031300315 -0.005332414819304238 0.09652061673500328 4 0 0 0 0
1010 1 -0.006038934690890826 -0.008743473784054349 0.09648589730819168 4 0 0 0 0
1011 1 -0.001385430060696353 0.007439787044932257 0.09948786193525358 4 0 0 0 0
1012 1 0.003273041441582511 0.008717655041412769 0.09845339139652327 4 0 0 0 0
1013 1 -0.00736274828525799 0.00239848136060903 0.09698389954410372 4 0 0 0 0
1014 1 -0.0008706339884306755 0.006762559473282614 0.09948786193525358 4 0 0 0 0
1015 1 0.003073572847067993 0.007119615092954158 0.09647060432127208 4 0 0 0 0
1016 1 -0.005087912313225575 -0.003515181139773294 0.09702140742235793 4 0 0 0 0
1017 1 0.003171482171595084 -0.005948100980017221 0.09646115673766723 4 0 0 0 0
1018 1 0.004490180419657862 -0.004767526625217711 0.09949989390527293 4 0 0 0 0
1019 1 0.003736138506480557 0.003688333153506575 0.09736332061024681 4 0 0 0 0
1020 1 -0.003568885816007986 -0.0001148461015616917 0.09952276598118187 4 0 0 0 0
1021 1 0.00566909780109455 0.003937866700489452 0.09847557481125843 4 0 0 0 0
1022 1 -0.003964872612623383 -0.01124820736609293 0.09651026734336329 4 0 0 0 0
1023 1 5.586440153839079e-05 -0.003323925802195589 0.09751890684662423 4 0 0 0 0
1024 1 -0.0006827863617250648 -0.0001035787725901489 0.09748719261924203 4 0 0 0 0
1025 1 0.002438124973644946 0.005412758389516157 0.09685354979733378 4 0 0 0 0
1026 1 0.0026689970881315 0.007244881380265807 0.09947060432127208 4 0 0 0 0
1027 1 -0.007204212114667923 0.009483174741965947 0.09949268370068631 4 0 0 0 0
1028 1 -0.0005259881960949395 -0.001740466790613164 0.09701523340312976 4 0 0 0 0
1029 1 0.005034022626349489 0.006628125117571035 0.09702080762192661 4 0 0 0 0
1030 1 -0.006708306375974884 -0.00964079986039942 0.09952318204342603 4 0 0 0 0
1031 1 -0.008395016169875348 0.008195412604638434 0.09849499085282055 4 0 0 0 0
1032 1 -0.004575015868481131 0.009479415056700007 0.09700958781512854 4 0 0 0 0
1033 1 0.001324800606246991 -0.009837239881673064 0.09650919360501156 4 0 0 0 0
1034 1 0.001759693869712615 -0.01165298924220995 0.09752383364240835 4 0 0 0 0
1035 1 0.005373816425591846 -0.0110372585021928 0.09699917952974002 4 0 0 0 0
1036 1 0.007680946412639948 0.005802644342055211 0.09850064587842598 4 0 0 0 0
1037 1 0.005464904062762564 -0.002117899737380718 0.09894702423958665 4 0 0 0 0
1038 1 -0.008255327485979718 0.008618388390976856 0.09949268370068631 4 0 0 0 0
1039 1 0.009918581729904931 0.0006333565727403185 0.09950734618651377 4 0 0 0 0
1040 1 0.006955404879287013 -0.004977289435150955 0.09650136538234147 4 0 0 0 0
1041 1 0.001439416806018483 -0.01037282665575974 0.09650919360501156 4 0 0 0 0
1042 1 0.003887941302193105 0.004997030036861558 0.0973445344629575 4 0 0 0 0
1043 1 0.0005856481243810682 -0.003801420844687915 0.09901947575726525 4 0 0 0 0
1044 1 3.604845602925321e-05 -0.005836084341347097 0.0985088108802865 4 0 0 0 0
1045 1 -0.002223613653622554 0.003782852035635116 0.09910607282897138 4 0 0 0 0
1046 1 -0.002229356967249821 0.009854584035725644 0.09701913165312705 4 0 0 0 0
1047 1 0.002097166355748197 0.01197885831398696 0.09901461854909381 4 0 0 0 0
1048 1 0.005092089824443553 -0.01066392358590888 0.09949322230115351 4 0 0 0 0
1049 1 -0.007697893538997552 0.001787485946432411 0.09899605115995441 4 0 0 0 0
1050 1 -0.005034758423370192 -0.003639003874004702 0.09902140742235793 4 0 0 0 0
1051 1 -0.01022668949834041 -0.0006961523400715887 0.09700942843646118 4 0 0 0 0
1052 1 -0.003135682826341911 0.00826954474371891 0.0994885242532073 4 0 0 0 0
1053 1 0.002463178245030705 0.008286542400668014 0.09848544698635112 4 0 0 0 0
1054 1 -0.001582930736828635 -0.01114629380438384 0.09842672093092408 4 0 0 0 0
1055 1 -0.005014972703524244 -0.009356626782073064 0.09648589730819168 4 0 0 0 0
1056 1 -0.0009789552730717823 -0.007199502101032184 0.09714101044667656 4 0 0 0 0
1057 1 -0.0002416139912481819 -0.01091989861761017 0.09649859451729767 4 0 0 0 0
1058 1 -0.004934580634579864 0.008099864385223813 0.09899962924391072 4 0 0 0 0
1059 1 -0.00952265574245871 -0.001194028362849837 0.09850487594419864 4 0 0 0 0
1060 1 0.007929785643378384 -0.001619508842444412 0.09649775379391758 4 0 0 0 0
1061 1 0.003547862855332022 0.01163051887948738 0.09901734546207687 4 0 0 0 0
1062 1 0.002828834120440481 0.005296028679826353 0.09637090986742029 4 0 0 0 0
1063 1 0.002973489075050492 0.008692951112173723 0.09697618461610258 4 0 0 0 0
1064 1 -0.01213839817024377 0.002181480879443023 0.09698432663350076 4 0 0 0 0
1065 1 0.008725073532828328 0.005942984846691448 0.09949473205376351 4 0 0 0 0
1066 1 0.01054542278470791 0.005632823014478412 0.09950730739691667 4 0 0 0 0
1067 1 0.001168486036040111 -0.01140786774058551 0.09700053945727719 4 0 0 0 0
1068 1 0.008496463886281927 -0.008800381936364659 0.09899837140845021 4 0 0 0 0
1069 1 0.01115440120778738 0.003375976253811659 0.09653010753008631 4 0 0 0 0
1070 1 0.002440058466888103 0.009508109744032038 0.09650558029483053 4 0 0 0 0
1071 1 0.0004576196447388251 -0.01040215147755298 0.09900778812230923 4 0 0 0 0
1072 1 -0.0003215591862386607 -0.01185349599876023 0.09751312241298932 4 0 0 0 0
1073 1 -0.009786625248632474 -0.007377802997096018 0.09699787401151766 4 0 0 0 0
1074 1 0.007638890577270784 0.005604765217249538 0.09750064587842598 4 0 0 0 0
1075 1 0.00934673116182318 0.004137990983412301 0.09899750673666974 4 0 0 0 0
1076 1 -0.002449505778033948 0.006107046077290278 0.09684879207571181 4 0 0 0 0
1077 1 -0.007628129589046477 0.006357244364354998 0.09701437030728902 4 0 0 0 0
1078 1 -0.0117214049071119 0.00172877526551707 0.09647627610276849 4 0 0 0 0
1079 1 -0.009685331315491154 0.00125515340553393 0.09900007501609195 4 0 0 0 0
1080 1 0.001837624040437687 -0.0002470177646606787 0.09650032090309382 4 0 0 0 0
1081 1 0.009554195887391658 -0.007183280803702002 0.09950595722858652 4 0 0 0 0
1082 1 0.001963026341987073 0.005755636581263098 0.0964826399299135 4 0 0 0 0
1083 1 -0.007356070694448337 -0.009744396602122249 0.09901584419499071 4 0 0 0 0
1084 1 -0.005815179001927713 0.004451424041418905 0.09650253367887553 4 0 0 0 0
1085 1 -0.002555964685667696 0.003167886077158213 0.09701782169019513 4 0 0 0 0
1086 1 0.006764486144831959 0.004569835409870789 0.0965029254462389 4 0 0 0 0
1087 1 0.00578725383067394 -0.001954797379119801 0.09694702423958665 4 0 0 0 0
1088 1 -0.01131345052038019 1.396280769328784e-05 0.09949780272359302 4 0 0 0 0
1089 1 -0.009796190318546213 -0.007363858348462649 0.09899787401151769 4 0 0 0 0
1090 1 0.00707958311899105 0.005829384188921974 0.09700591382466249 4 0 0 0 0
1091 1 -0.004418118015027109 0.006239040369753968 0.09949756168603889 4 0 0 0 0
1092 1 -0.008539380139702776 0.007969151493616591 0.09700230715213426 4 0 0 0 0
1093 1 -0.001725557420740167 -0.00962563633624269 0.09771270682858499 4 0 0 0 0
1094 1 0.007481696888163386 0.00521269871792961 0.09899765750000239 4 0 0 0 0
1095 1 2.787262528625602e-05 0.004394646020870264 0.09649063264282245 4 0 0 0 0
1096 1 0.009081341642325224 0.002009890428173583 0.09700421191451156 4 0 0 0 0
1097 1 0.001424165867686148 -0.0006898809546440857 0.09701612321686459 4 0 0 0 0
1098 1 0.001890236595240086 0.00856859879805949 0.09901484266507904 4 0 0 0 0
1099 1 0.008553325020872485 -0.0005020818599437175 0.09899919102552288 4 0 0 0 0
1100 1 0.008246148841512028 0.008348253905441617 0.09848401177686797 4 0 0 0 0
1101 1 -0.001351137046990599 0.001473818241540309 0.09900477348736934 4 0 0 0 0
1102 1 -0.001356032199269674 -0.01104463615293179 0.09742672093092408 4 0 0 0 0
1103 1 -0.003170101272067792 0.003100334431522044 0.09758820174502261 4 0 0 0 0
1104 1 -0.007882634238288048 0.008649916723227456 0.09698980580227563 4 0 0 0 0
1105 1 -0.001904386973484727 -0.009560562054785955 0.0967120887217402 4 0 0 0 0
1106 1 -0.009333737434678427 -0.000606443980987012 0.09899325023133047 4 0 0 0 0
1107 1 -0.01105791527788305 -0.00185274668967882 0.09651162571286818 4 0 0 0 0
1108 1 -0.0008574576538317078 -0.009813764679747809 0.09680573886883746 4 0 0 0 0
1109 1 -0.002329425592884365 -0.009602229147519441 0.09640494437020039 4 0 0 0 0
1110 1 0.008238767243374587 0.006264178401197751 0.09899772043218709 4 0 0 0 0
1111 1 -0.001289287210825312 0.002193350393044902 0.0985965409023766 4 0 0 0 0
1112 1 -0.001943719536995545 0.00313222944851268 0.09760958910520239 4 0 0 0 0
1113 1 -0.0007993434271579029 0.003545785914168975 0.09659176741500727 4 0 0 0 0
1114 1 -0.008033495286347557 0.006222454098626891 0.09951724820569971 4 0 0 0 0
1115 1 -0.007398468661302782 0.006689821529794103 0.09649712210158934 4 0 0 0 0
1116 1 0.00295507002634352 -0.0005924335629274727 0.09650032090309382 4 0 0 0 0
1117 1 -0.003183740975155233 -0.006139848208383354 0.09902487234183528 4 0 0 0 0
1118 1 -0.005776046327077255 -0.0108520626090037 0.09703344938678934 4 0 0 0 0
1119 1 -9.167877651033766e-05 0.0003178419008334206 0.09650125721113834 4 0 0 0 0
1120 1 0.003875862774581248 0.01096101275391158 0.0994940512902549 4 0 0 0 0
1121 1 -0.00322774227614358 -0.01130424678748945 0.09740810973129901 4 0 0 0 0
1122 1 0.001758413254549762 0.01165040729810778 0.09735487066320131 4 0 0 0 0
1123 1 -0.008810212183319368 -0.008521035456639493 0.09699784720210959 4 0 0 0 0
1124 1 -0.0001312214744283877 4.58468653103106e-05 0.09901705952490909 4 0 0 0 0
1125 1 -0.001626298475196998 -0.008223759113292718 0.09902254639340437 4 0 0 0 0
1126 1 -0.001555887226376497 0.01004468489162782 0.09653060739991977 4 0 0 0 0
1127 1 0.001926847424778272 -0.002246750641106523 0.09949885902226199 4 0 0 0 0
1128 1 0.005264497326526723 -0.00837916720476275 0.09651162444922182 4 0 0 0 0
1129 1 -0.005348801716652109 -0.002994302824119845 0.09752959936307218 4 0 0 0 0
1130 1 -0.009838290811310307 -0.001100346899486999 0.09651162571286818 4 0 0 0 0
1131 1 -0.005040411430620213 0.009286877965845836 0.09650206755787183 4 0 0 0 0
1132 1 0.00407803530729044 0.00762300005124544 0.09647060432127208 4 0 0 0 0
1133 1 -4.030397118970911e-05 -0.006521762793601664 0.09898819414528322 4 0 0 0 0
1134 1 -0.002826628919083566 -0.0083945421210961 0.09650202358954717 4 0 0 0 0
1135 1 -0.00849056331788106 -0.008775518543416499 0.09899784720210959 4 0 0 0 0
1136 1 -0.007516899047694699 -0.005672884210003981 0.09949853287880771 4 0 0 0 0
1137 1 -0.001555497045211437 -0.009315141452400592 0.09830776245838463 4 0 0 0 0
1138 1 -0.005886216983107872 0.004078205970410588 0.09898416093048029 4 0 0 0 0
1139 1 -0.01126482808887966 0.003932231929912026 0.09651076143618714 4 0 0 0 0
1140 1 -0.007545753375500067 0.004608327310723967 0.09651724820569971 4 0 0 0 0
1141 1 -0.003083115554578099 -0.01135469643052352 0.09949289801773535 4 0 0 0 0
1142 1 -3.653765978440391e-05 0.008948667876499259 0.09951282788558735 4 0 0 0 0
1143 1 0.008484906210010752 -0.008739959401632193 0.0969983714084502 4 0 0 0 0
1144 1 -0.00147445886408198 -0.009789514604398458 0.09630714435153982 4 0 0 0 0
1145 1 0.007129023039298747 0.0029938301963572 0.096495075455945 4 0 0 0 0
1146 1 0.005237740555814979 0.006079350844348764 0.0985237330681655 4 0 0 0 0
1147 1 0.004521465625311624 0.007358110250010617 0.09699536125673602 4 0 0 0 0
1148 1 0.007239213143623071 -0.005066412083041202 0.09950136538234147 4 0 0 0 0
1149 1 0.002512455441407755 -0.01076390863705866 0.09854687797592564 4 0 0 0 0
1150 1 0.007371401376220583 -0.005440918821939297 0.0970184346644944 4 0 0 0 0
1151 1 0.0007557335059951379 -0.003175426479444692 0.09949885902226199 4 0 0 0 0
1152 1 -0.01156502890664718 -0.001462234711894799 0.09701796651093601 4 0 0 0 0
1153 1 0.00347072975659342 -0.002143637321315976 0.09650625150267977 4 0 0 0 0
1154 1 -0.003112084108149372 0.00966919127744191 0.09699604451046399 4 0 0 0 0
1155 1 0.005502516219672137 0.0003096317034239248 0.0965068908895529 4 0 0 0 0
1156 1 0.007557936946908853 -0.005558453380979937 0.09901843466449441 4 0 0 0 0
1157 1 -0.001882900026084669 0.00335584358633243 0.09959176741500728 4 0 0 0 0
1158 1 0.0004422832639502803 -0.00212338127101461 0.09851409242539172 4 0 0 0 0
1159 1 -0.003906715516171598 -0.008208987769245023 0.09850175663803458 4 0 0 0 0
1160 1 -0.007148104650392079 0.006243657101668821 0.09701437030728902 4 0 0 0 0
1161 1 0.001114209486114292 -0.01073697829068095 0.09650919360501156 4 0 0 0 0
1162 1 0.003822736270651597 0.008219236636426827 0.09894781110169278 4 0 0 0 0
1163 1 -0.01005859047642633 0.005067209279740021 0.09649056110766541 4 0 0 0 0
1164 1 0.003453897650846578 0.009336270282031668 0.0969827870752512 4 0 0 0 0
1165 1 0.0006504111023548752 -0.005755777507954966 0.09901976994425561 4 0 0 0 0
1166 1 0.004515525863375933 0.007819349804033546 0.09699536125673602 4 0 0 0 0
1167 1 0.00355635420078043 -0.003874813328549371 0.0994350007477377 4 0 0 0 0
1168 1 0.008646852009739411 0.008217891065445916 0.09948907978312854 4 0 0 0 0
1169 1 -0.002764542789718776 0.007053247296996562 0.09950776173873725 4 0 0 0 0
1170 1 -0.0003286397718494152 0.0118565648413131 0.09952272150861405 4 0 0 0 0
1171 1 0.0005459311261617083 0.009075246034188677 0.09632019270909731 4 0 0 0 0
1172 1 -0.0002515279270883841 -0.0005590856767979989 0.09951580231377077 4 0 0 0 0
1173 1 0.006987265311107333 0.01001615639460443 0.09701569899365411 4 0 0 0 0
1174 1 -0.001755470552257389 0.0002416743415867291 0.09647013309433294 4 0 0 0 0
1175 1 0.007265083786884735 0.009368162587153495 0.09949194361531585 4 0 0 0 0
1176 1 -0.004349293642384816 -0.0001063400947673867 0.09705221775770126 4 0 0 0 0
1177 1 -6.938477792462774e-05 -0.007275366986510406 0.09850871694914043 4 0 0 0 0
1178 1 0.01172659408736186 -0.0002647116648131628 0.09900734618651377 4 0 0 0 0
1179 1 0.005950491336658325 0.006580516589229857 0.09702768238170284 4 0 0 0 0
1180 1 0.006188830362481433 0.004068064753409609 0.09899800090218389 4 0 0 0 0
1181 1 0.008506771150749153 -0.008023233484788903 0.09650595722858653 4 0 0 0 0
1182 1 -0.004977707083169948 0.01083388669760998 0.09852408149197088 4 0 0 0 0
1183 1 0.009500587761513146 -0.0005841206553459808 0.09700509998043133 4 0 0 0 0
1184 1 -0.005714531573508644 -0.007058427984757618 0.09644206779758337 4 0 0 0 0
1185 1 0.004398155832133051 -0.003461484892553013 0.09688575399064919 4 0 0 0 0
1186 1 -0.001492815185149211 -0.008806041745209598 0.09832969074494417 4 0 0 0 0
1187 1 -0.006905000739864033 -0.002582967391507223 0.09650819194071425 4 0 0 0 0
1188 1 0.009223833494316063 -0.002450883044788805 0.09702059074571878 4 0 0 0 0
1189 1 0.001455576355030786 -0.009567421020552563 0.09950919360501156 4 0 0 0 0
1190 1 -0.01131099952619195 -0.003393132138463866 0.09648192327386057 4 0 0 0 0
1191 1 -0.003267079264728515 0.002502008827542809 0.09707389633105851 4 0 0 0 0
1192 1 0.004299141408280288 0.008354208057872764 0.0974725680371567 4 0 0 0 0
1193 1 -0.0006661765327295865 0.004125783340048417 0.09908240005782971 4 0 0 0 0
1194 1 0.003548121789446465 -0.01125375690150039 0.09753090667206758 4 0 0 0 0
1195 1 -0.008349210953664024 -0.002183260020321315 0.09699573969685878 4 0 0 0 0
1196 1 0.0002793708007806909 0.007769618263619741 0.09632019270909731 4 0 0 0 0
1197 1 0.01167013943338151 0.0005060758072043091 0.09868773259614705 4 0 0 0 0
1198 1 0.009806875825049978 0.007381351263270981 0.09899638718004522 4 0 0 0 0
1199 1 -0.01131196106850747 -0.003965000527740809 0.09952375536931952 4 0 0 0 0
1200 1 -0.004563532989676095 0.006530099150665271 0.09649756168603889 4 0 0 0 0
1201 1 -0.005774814335629832 0.003891744763201838 0.09698416093048029 4 0 0 0 0
1202 1 -0.005720569692307121 -0.003668717598488924 0.09650823429143372 4 0 0 0 0
1203 1 -0.0001451145638595026 -0.001298888027476713 0.09651580231377077 4 0 0 0 0
1204 1 0.006502298845121842 0.006506769082916083 0.09753067076012642 4 0 0 0 0
1205 1 0.00154133524985348 -0.0005981087599726965 0.09901612321686459 4 0 0 0 0
1206 1 -0.007923691110432304 -0.003450544520901785 0.09650029218912133 4 0 0 0 0
1207 1 -0.002569989339680617 -0.007949648485416887 0.09684304340430247 4 0 0 0 0
1208 1 0.004831082662010477 0.008245342982605475 0.09700196371588463 4 0 0 0 0
1209 1 -0.01103390916128379 -0.0009438205669915359 0.09751576923452902 4 0 0 0 0
1210 1 0.006291503878034726 -0.007687181770988944 0.09951162444922182 4 0 0 0 0
1211 1 -0.008414399045909108 0.005285476297991178 0.09700780931336511 4 0 0 0 0
1212 1 0.007096357732989641 0.009280850116210968 0.09649194361531585 4 0 0 0 0
1213 1 -0.005784248698368077 0.01084583865418982 0.09701656123471417 4 0 0 0 0
1214 1 0.001147925565747104 0.003646520305578694 0.0995045433995906 4 0 0 0 0
1215 1 0.006458615587955353 -0.009697000228644719 0.09701758167780833 4 0 0 0 0
1216 1 0.001621084596267144 0.009896109933106467 0.09950558029483053 4 0 0 0 0
1217 1 0.003626006549269685 0.004005072056059013 0.0983633206102468 4 0 0 0 0
1218 1 0.008620731080244727 0.008476378027972601 0.09748401177686797 4 0 0 0 0
1219 1 -0.007604094500263834 -0.002243848271296053 0.09850393163757303 4 0 0 0 0
1220 1 -0.0003290408274553535 -0.0007495887358511323 0.09651580231377077 4 0 0 0 0
1221 1 0.009088252259663789 0.001365317304128515 0.09650143723160531 4 0 0 0 0
1222 1 0.005285959704982739 0.00840479121533733 0.09700196371588463 4 0 0 0 0
1223 1 0.0002067863332642844 -0.008094009877755326 0.09631094969589038 4 0 0 0 0
1224 1 -0.009795697515526345 0.0006441597330742355 0.09649780272359301 4 0 0 0 0
1225 1 -0.009160494422380469 -0.004147310411926498 0.09701291486954915 4 0 0 0 0
1226 1 0.006563585260063654 -0.009008180308066402 0.09651162444922182 4 0 0 0 0
1227 1 -0.0007218088093832823 -0.006342865687547567 0.0964890409360309 4 0 0 0 0
1228 1 -0.005083997760216899 -0.006129116415212727 0.09944206779758337 4 0 0 0 0
1229 1 -0.01118175909380823 -0.001892679172757876 0.09951162571286819 4 0 0 0 0
1230 1 0.007210913641592705 -0.009169256164439848 0.09900403862908549 4 0 0 0 0
1231 1 0.000506188800161137 0.01008183980121681 0.09685307999969486 4 0 0 0 0
1232 1 -0.005720596088208676 0.007750571481945969 0.09849675134550002 4 0 0 0 0
1233 1 -0.01156724639132242 0.003977619040774952 0.09901881196691943 4 0 0 0 0
1234 1 -0.004706536715504064 -0.006587914509875987 0.0989559035378791 4 0 0 0 0
1235 1 0.004652017841455735 0.001161795724978331 0.0995068908895529 4 0 0 0 0
1236 1 0.004419597565415359 -0.007341405199401697 0.09652750158723898 4 0 0 0 0
1237 1 -0.0116358018245714 -0.001466884357826928 0.09901796651093601 4 0 0 0 0
1238 1 -0.005361176728050472 -0.004166779563652323 0.09950823429143373 4 0 0 0 0
1239 1 0.01065267963906497 0.005187671330154598 0.09649301745593261 4 0 0 0 0
1240 1 0.001280970638821785 -0.01171060854374148 0.09900053945727719 4 0 0 0 0
1241 1 0.003199337234843366 0.003072998606547707 0.09651483683375199 4 0 0 0 0
1242 1 -0.007043201818280173 -0.01007663675887284 0.09701584419499071 4 0 0 0 0
1243 1 0.001961946895429995 -0.008540041569082281 0.09646353925272036 4 0 0 0 0
1244 1 -0.005141138088616735 -0.002608856879646959 0.09902136507163847 4 0 0 0 0
1245 1 0.002910701601302441 -0.008286247200936486 0.09646353925272036 4 0 0 0 0
1246 1 -0.01110468207920801 -0.0009484702129236651 0.09851576923452902 4 0 0 0 0
1247 1 0.006534164838627103 -0.009101936333237923 0.09951162444922182 4 0 0 0 0
1248 1 0.00886808856836965 -0.0007706545515702059 0.09649775379391758 4 0 0 0 0
1249 1 -0.0006523412888019267 0.005204863226906681 0.09683166297979703 4 0 0 0 0
1250 1 -0.004699605975695733 0.0002851069860851685 0.09652945177651939 4 0 0 0 0
1251 1 0.008585446112052492 -0.0002480610751010813 0.09699919102552287 4 0 0 0 0
1252 1 0.004703288214504879 -0.003849254897360029 0.09838564789592213 4 0 0 0 0
1253 1 -0.001249784516441161 -0.01187530851495505 0.09652318204342603 4 0 0 0 0
1254 1 0.000235339587635202 2.393987205505767e-05 0.09701705952490909 4 0 0 0 0
1255 1 -0.0001395214916847225 -0.001789465140729623 0.09901523340312975 4 0 0 0 0
1256 1 0.00381330710761938 0.006846040595436604 0.09896665500773477 4 0 0 0 0
1257 1 -0.006980720827499474 0.004881289829144179 0.09651724820569971 4 0 0 0 0
1258 1 0.004654618726813426 0.00349702192799563 0.09647757390907455 4 0 0 0 0
1259 1 0.005837547359966535 0.004200203689115006 0.09747557481125843 4 0 0 0 0
1260 1 0.00800940336316289 0.001554478309585186 0.09950143723160532 4 0 0 0 0
1261 1 -0.008853490149153324 0.008573767095119988 0.09899786875123123 4 0 0 0 0
1262 1 -0.0004833920233501502 0.004701494651875033 0.09949063264282246 4 0 0 0 0
1263 1 -0.004272810965247687 0.001697858290382345 0.09909983183134689 4 0 0 0 0
1264 1 -0.005567325892233743 -0.003177624075128839 0.09852959936307218 4 0 0 0 0
1265 1 -0.01215015841021348 0.001683573816704951 0.09898432663350076 4 0 0 0 0
1266 1 -0.0009846766379373244 0.005456558139254384 0.09634103033697458 4 0 0 0 0
1267 1 -0.001874970307345595 0.009882286332291901 0.09901913165312705 4 0 0 0 0
1268 1 -0.00301699695420359 -0.007692289041828349 0.0973568791445982 4 0 0 0 0
1269 1 -0.005665063953621573 0.01055027952914191 0.09952364307581016 4 0 0 0 0
1270 1 -0.005272883578815451 0.006625190591829517 0.09649756168603889 4 0 0 0 0
1271 1 0.005121172266430015 -0.00271116147633916 0.09945075324291153 4 0 0 0 0
1272 1 -0.006319422260283121 0.008135417067714069 0.09899918965946117 4 0 0 0 0
1273 1 -0.004928175967189617 -0.006534289673400731 0.0969559035378791 4 0 0 0 0
1274 1 -0.007045944181881374 0.0100726764195818 0.09701632677649646 4 0 0 0 0
1275 1 -0.003061946106196427 -0.004878640530756043 0.09651103660153955 4 0 0 0 0
1276 1 0.004120506860911471 -0.002946333586354331 0.09739200549332896 4 0 0 0 0
1277 1 -0.004539763786169979 0.007656239470265733 0.09949756168603889 4 0 0 0 0
1278 1 -0.002730374073562089 0.01008248991067098 0.09752665191038375 4 0 0 0 0
1279 1 0.003824744363059717 -0.002626038284962154 0.09950625150267978 4 0 0 0 0
1280 1 0.005699850333815292 -0.01081681683106847 0.09899917952974002 4 0 0 0 0
1281 1 0.008249137871972876 3.795316564210422e-05 0.09950143723160532 4 0 0 0 0
1282 1 0.0112708389284371 -4.020182341016575e-05 0.09950734618651377 4 0 0 0 0
1283 1 0.004737677930564224 0.006912617051160752 0.09702080762192661 4 0 0 0 0
1284 1 0.001138251838796534 -0.001108823376764268 0.09951580231377077 4 0 0 0 0
1285 1 0.01086290948505749 0.005777289010480206 0.09700032485284928 4 0 0 0 0
1286 1 -0.002160872257212273 -0.009372928073293044 0.0967120887217402 4 0 0 0 0
1287 1 -0.008531419336599342 -0.006174671283796247 0.09949853287880771 4 0 0 0 0
1288 1 -0.01170534972936828 0.0004733566014108335 0.09897407882636149 4 0 0 0 0
1289 1 -0.01026816889805519 0.0008931250051164965 0.09949780272359302 4 0 0 0 0
1290 1 -0.006526771670455228 -0.005881254540831276 0.09644206779758337 4 0 0 0 0
1291 1 0.007974108320220405 0.008386537734166141 0.09699493199373943 4 0 0 0 0
1292 1 0.01012518436881423 -0.007079755186007846 0.09899917952203069 4 0 0 0 0
1293 1 -0.008924498748929656 -0.002009657289710036 0.09750736540972695 4 0 0 0 0
1294 1 -0.007047018780034562 0.01008368841448501 0.09901632677649647 4 0 0 0 0
1295 1 0.004842529386961555 0.008669681016572152 0.0964772067804207 4 0 0 0 0
1296 1 0.004596532070263996 0.006431775364782929 0.09649605068646269 4 0 0 0 0
1297 1 0.004343746401979392 0.004929348439733021 0.09897362459553721 4 0 0 0 0
1298 1 -0.0002553744586053481 -0.01186498535094164 0.09952318204342603 4 0 0 0 0
1299 1 -0.0008095448787220553 0.01030383795959279 0.09904343528550712 4 0 0 0 0
1300 1 -0.01065403764775164 0.004853812981470016 0.09700132254385255 4 0 0 0 0
1301 1 0.007199355965321529 -0.009108833629707384 0.09700403862908549 4 0 0 0 0
1302 1 -0.005981459095733656 -0.003147839282835475 0.09701642623214796 4 0 0 0 0
1303 1 -0.0008999228909504062 0.001064806804131476 0.09650125721113834 4 0 0 0 0
1304 1 -0.005175119969128969 0.00360339035933923 0.09855454098530779 4 0 0 0 0
1305 1 -0.01151565559818606 0.00202785280052728 0.09950805053073228 4 0 0 0 0
1306 1 0.009514482512051304 -0.0009360190973163165 0.09900509998043133 4 0 0 0 0
1307 1 0.008666314514930896 0.007769874734615695 0.09699206816155213 4 0 0 0 0
1308 1 -0.008503373292708224 0.008591953432866064 0.09749499085282055 4 0 0 0 0
1309 1 -0.002508949947745454 0.003817892350657236 0.09651430541396411 4 0 0 0 0
1310 1 -0.0009483171281859196 -0.001382401301174048 0.09748536649746269 4 0 0 0 0
1311 1 -0.001199076027558979 -0.01129517310052863 0.0990217765607237 4 0 0 0 0
1312 1 0.01135349909421394 -0.003461430774636108 0.09646849138356711 4 0 0 0 0
1313 1 0.00199087175069612 0.009324482884316122 0.09650558029483053 4 0 0 0 0
1314 1 -0.01171844179071339 -0.0004363752509441749 0.09900414352166084 4 0 0 0 0
1315 1 -0.008734481199318946 -0.005076344641571971 0.09651262268042783 4 0 0 0 0
1316 1 -0.004199597767689911 -0.009337553188556145 0.09948589730819168 4 0 0 0 0
1317 1 0.009730387467298115 -0.006605123881808536 0.09649322229344418 4 0 0 0 0
1318 1 0.004505391161536322 0.008073268065799532 0.0984725680371567 4 0 0 0 0
1319 1 0.005032393367966312 0.005269092445894233 0.09747655004177611 4 0 0 0 0
1320 1 -0.0008145396623804605 -0.007271298744637149 0.0990095637398881 4 0 0 0 0
1321 1 0.01108873951368374 0.005417452183578956 0.09900032485284928 4 0 0 0 0
1322 1 -0.005363357738863913 -0.01043960165439854 0.09851934669498102 4 0 0 0 0
1323 1 -0.01144278365906664 -0.002387533007756415 0.09699354898672875 4 0 0 0 0
1324 1 -0.01061634099310344 0.004864504479596637 0.09900132254385255 4 0 0 0 0
1325 1 0.001166981622839853 0.01140504727885449 0.09683157649137936 4 0 0 0 0
1326 1 -0.002468742407635981 0.008814556842969766 0.09648852425320729 4 0 0 0 0
1327 1 0.011300522619009 -2.308778624891354e-06 0.09700734618651377 4 0 0 0 0
1328 1 -0.001319715941187908 -0.005825206917226885 0.09948904093603091 4 0 0 0 0
1329 1 -0.01020545924814545 0.005685630826980793 0.09698264412803603 4 0 0 0 0
1330 1 0.002681829438367336 -0.005862203911284953 0.09946115673766723 4 0 0 0 0
1331 1 0.007094386293213227 -0.009797653550285701 0.097509995857672 4 0 0 0 0
1332 1 0.005329757963287819 0.004590223768559655 0.09898049935531344 4 0 0 0 0
1333 1 0.001605047996426774 -0.01110822084420983 0.09950919360501156 4 0 0 0 0
1334 1 0.01168457678587502 0.0002036377950649995 0.09900734618651377 4 0 0 0 0
1335 1 0.009773463637007587 -0.007285210262049122 0.0969991795220307 4 0 0 0 0
1336 1 -0.002028138699691918 0.009302411585800094 0.0994885242532073 4 0 0 0 0
1337 1 -0.01116466681963514 0.003355791597103869 0.09950805053073228 4 0 0 0 0
1338 1 -0.003034078270639804 -0.007665150331694999 0.09901585932984291 4 0 0 0 0
1339 1 -0.0003958035577257528 -0.002410468314160228 0.09949943108935899 4 0 0 0 0
1340 1 0.01011185142994979 -0.0008275820696780618 0.09950734618651377 4 0 0 0 0
1341 1 -0.009931877191208381 0.005053859735387634 0.09949056110766541 4 0 0 0 0
1342 1 -0.00716940466054553 0.001910531540859348 0.09747767841155919 4 0 0 0 0
1343 1 -0.008974304961002448 0.003434076303813722 0.09699283340016437 4 0 0 0 0
1344 1 -0.007216316058945679 -0.0002213951546744937 0.09698922637519292 4 0 0 0 0
1345 1 -0.01158618829819663 -0.003969771151819694 0.09700567864318009 4 0 0 0 0
1346 1 0.0116670527687104 0.0005799915901457647 0.09739506997701777 4 0 0 0 0
1347 1 0.001042200422536954 -0.001179381018702642 0.09651580231377077 4 0 0 0 0
1348 1 0.009217945305195988 -6.15271788768563e-05 0.09750653721203664 4 0 0 0 0
1349 1 0.002728823637559668 -0.00551882736594295 0.09646115673766723 4 0 0 0 0
1350 1 -0.0006791253023556572 0.001396159329326458 0.09950125721113834 4 0 0 0 0
1351 1 0.006821037969671996 0.00747850929632481 0.09902774531388753 4 0 0 0 0
1352 1 -0.00678175985181805 -0.001383690153357169 0.09700363944845171 4 0 0 0 0
1353 1 -0.003767077863713822 0.01077859814701103 0.09650752025725672 4 0 0 0 0
1354 1 -0.009349118571962078 0.00306842099688217 0.09950227229249897 4 0 0 0 0
1355 1 0.004884262940327796 -0.003250564703066445 0.09645075324291152 4 0 0 0 0
1356 1 0.006417637490247625 -0.009730333719083776 0.09901758167780833 4 0 0 0 0
1357 1 -0.005894687973195468 0.0004696196049334478 0.09702323064397486 4 0 0 0 0
1358 1 0.005068965023235418 0.00461165550984325 0.09647757390907455 4 0 0 0 0
1359 1 0.005854773122881162 0.006303430624630645 0.09902768238170284 4 0 0 0 0
1360 1 0.0007851317195320637 0.007778424644405515 0.09950926237024854 4 0 0 0 0
1361 1 -0.009362608751913597 0.001894164842647762 0.09650227229249897 4 0 0 0 0
1362 1 0.005033804171686706 0.01008615929571931 0.0964772067804207 4 0 0 0 0
1363 1 0.0001116127564294068 0.002944478880418763 0.09909631081459785 4 0 0 0 0
1364 1 0.0056381087291824 0.00356567257905495 0.09697264936501954 4 0 0 0 0
1365 1 -0.01194989728783077 -0.001997021029972394 0.0974998897847966 4 0 0 0 0
1366 1 -0.008535601592952901 0.004779829375023897 0.09900780931336511 4 0 0 0 0
1367 1 0.01222980748858173 0.0005269478535423035 0.09918038640963328 4 0 0 0 0
1368 1 -0.009290030149995729 -0.002700321488039537 0.0990119179019895 4 0 0 0 0
1369 1 0.00812187871665538 0.004873087068713186 0.09949473205376351 4 0 0 0 0
1370 1 -0.003625655919932544 -0.011742590246167 0.09700316536109864 4 0 0 0 0
1371 1 0.01072325947341585 -0.005194836385032686 0.09952329417182199 4 0 0 0 0
1372 1 -0.0005988377473384967 -0.009377842631620127 0.09901911732115487 4 0 0 0 0
1373 1 -0.01164766887278918 -0.0004317256050120458 0.09700414352166084 4 0 0 0 0
1374 1 -0.002854448075781025 0.01097355644089869 0.09754836480049957 4 0 0 0 0
1375 1 -0.004014917553118435 -0.00703314291489405 0.09651383574029576 4 0 0 0 0
1376 1 0.007045320780477985 -0.00358883988106035 0.09950136538234147 4 0 0 0 0
1377 1 -0.01179016888775118 0.003632036837574158 0.09701881196691944 4 0 0 0 0
1378 1 -0.009042525843647524 -0.002038231653782023 0.09850736540972695 4 0 0 0 0
1379 1 -0.001747318009435159 -0.01025182062914368 0.09890353888749803 4 0 0 0 0
1380 1 -0.001681901410767966 -0.01155703559560459 0.09692812641362641 4 0 0 0 0
1381 1 0.004681309342315809 -0.003977140200422082 0.09738564789592213 4 0 0 0 0
1382 1 -9.946753211022482e-05 -0.0001375854997397276 0.09701705952490909 4 0 0 0 0
1383 1 -0.007016434024689653 -0.001732661016853564 0.09900363944845171 4 0 0 0 0
1384 1 -0.002299965897543655 0.006517197762433329 0.09716884483916996 4 0 0 0 0
1385 1 -0.0102737757342282 -0.001111836191090606 0.0990094284364612 4 0 0 0 0
1386 1 0.005241098561689481 -0.004805748243761556 0.09649989390527293 4 0 0 0 0
1387 1 -0.0085745232632858 -0.005650494016529978 0.09701115555923552 4 0 0 0 0
1388 1 0.000424128559294729 -0.008371483012634139 0.09952052280385722 4 0 0 0 0
1389 1 0.0003702487506527498 0.004827798372254099 0.09949063264282246 4 0 0 0 0
1390 1 0.004835014672033075 0.006628442141827626 0.09902080762192661 4 0 0 0 0
1391 1 -0.001426281580064313 0.01134560645811487 0.09653060739991977 4 0 0 0 0
1392 1 -0.0008751397837828203 -0.01023838954144564 0.09649859451729767 4 0 0 0 0
1393 1 0.001992895290788684 -0.0001071668927212696 0.09950032090309383 4 0 0 0 0
1394 1 0.006172169424310899 0.002245240724877822 0.096495075455945 4 0 0 0 0
1395 1 0.0116928400169504 -0.001644850184476843 0.09630697419237874 4 0 0 0 0
1396 1 0.005034142237728087 -0.002601282965681261 0.09645075324291152 4 0 0 0 0
1397 1 -0.002147490928211081 -0.01161144839428576 0.09842102443136175 4 0 0 0 0
1398 1 0.007094386293213227 -0.009797653550285701 0.09850999585767201 4 0 0 0 0
1399 1 0.002525643385534792 -0.008787151130421958 0.09946353925272036 4 0 0 0 0
1400 1 -0.003421135784537025 0.01132040252800211 0.09701775740057982 4 0 0 0 0
1401 1 0.005706812452809977 0.01016046745443363 0.09900096215875896 4 0 0 0 0
1402 1 0.0005740586751359129 -0.006441455960209532 0.09949915320925234 4 0 0 0 0
1403 1 0.0003291244736441015 0.007411381005331782 0.0976479069249396 4 0 0 0 0
1404 1 -0.004183278365211132 -0.001517458742097596 0.09652276598118187 4 0 0 0 0
1405 1 -0.008192599583229794 0.004857490930293648 0.09700780931336511 4 0 0 0 0
1406 1 0.003461261640564692 -0.01063558289684932 0.09951439018578291 4 0 0 0 0
1407 1 -0.004346135069321293 0.001974162170256674 0.09709983183134689 4 0 0 0 0
1408 1 0.01167612092999581 -0.004018570135254457 0.09699178555538911 4 0 0 0 0
1409 1 0.005501490962231429 0.004908855456981415 0.09698049935531344 4 0 0 0 0
1410 1 0.007555785442192563 -0.007033980961181545 0.09951706928215294 4 0 0 0 0
1411 1 -0.01011644261757571 0.005661589784501785 0.09898264412803603 4 0 0 0 0
1412 1 -0.007536729694292905 -0.007020973609143746 0.09949853287880771 4 0 0 0 0
1413 1 0.004406046668154376 0.007201781688377738 0.09849141194319869 4 0 0 0 0
1414 1 -0.001141158867667894 -0.009933724568888823 0.09680573886883746 4 0 0 0 0
1415 1 -0.006912536952038964 0.005650379489661999 0.09651724820569971 4 0 0 0 0
1416 1 0.008019691754906574 0.007680034440809235 0.0965029883784236 4 0 0 0 0
1417 1 -0.004083963432127052 -0.002061987345660224 0.09703593911210608 4 0 0 0 0
1418 1 0.01090460353127 -0.005807833743957478 0.09901651646526616 4 0 0 0 0
1419 1 -0.0008390502855007873 -0.001375330607170953 0.09848536649746269 4 0 0 0 0
1420 1 0.007128893990434541 0.006214651820411256 0.09900591382466249 4 0 0 0 0
1421 1 -0.008794705468369848 -0.005667164939228348 0.09901115555923552 4 0 0 0 0
1422 1 -0.002007640902300471 0.001545001892543671 0.09950351627623102 4 0 0 0 0
1423 1 -0.008013195880319542 0.002024586832454957 0.09650227229249897 4 0 0 0 0
1424 1 -0.004808241773500395 0.009385077514731787 0.09900958781512854 4 0 0 0 0
1425 1 0.008592614038671224 -0.006153821701074697 0.09951706928215294 4 0 0 0 0
1426 1 -0.005847804652105167 -0.00837043600025838 0.09948589730819168 4 0 0 0 0
1427 1 0.00410263652222188 -0.01100626290544606 0.09900761248693642 4 0 0 0 0
1428 1 0.0001931032584831507 -0.0123000568624131 0.09901452789569165 4 0 0 0 0
1429 1 0.01170299667146611 -0.0006510881041841364 0.09861962239600996 4 0 0 0 0
1430 1 -0.006233578829583913 0.003509781229209625 0.09948162725160478 4 0 0 0 0
1431 1 0.0003097642993874457 0.005456895488586627 0.09682122255316265 4 0 0 0 0
1432 1 0.003716932881867146 -0.004321885494171624 0.0964350007477377 4 0 0 0 0
1433 1 -0.006931348428419958 -0.006183840344239872 0.09694060067639106 4 0 0 0 0
1434 1 0.004844258807786548 0.01069727078179557 0.09697125807067559 4 0 0 0 0
1435 1 -0.003112490662869945 -0.01016823167017402 0.09640494437020039 4 0 0 0 0
1436 1 0.01199798097748393 -0.002178612639158117 0.09677546557594585 4 0 0 0 0
1437 1 0.006182673777613495 0.003423195739560611 0.096495075455945 4 0 0 0 0
1438 1 0.008587409029794152 0.008841997667585425 0.09898102339844439 4 0 0 0 0
1439 1 0.002041678455711426 0.005935794078360482 0.09948263992991351 4 0 0 0 0
1440 1 1.141683342086166e-05 0.003771384797260391 0.09858694345742031 4 0 0 0 0
1441 1 0.009072103309631829 0.003948254030665928 0.09699750673666974 4 0 0 0 0
1442 1 -0.008628514923682154 0.002950297978003383 0.09650227229249897 4 0 0 0 0
1443 1 0.002362426782070237 -0.008194077404408336 0.09646353925272036 4 0 0 0 0
1444 1 -0.003261991317543301 0.009591558155567259 0.098996044510464 4 0 0 0 0
1445 1 -0.002652942678328419 0.002569560473178978 0.09650351627623102 4 0 0 0 0
1446 1 0.008182851862746332 0.005983902585174682 0.09699772043218709 4 0 0 0 0
1447 1 0.01126444347883157 -0.003907533711172915 0.09952329417182199 4 0 0 0 0
1448 1 -0.001803155482816496 -0.009646402432960159 0.09840556247704518 4 0 0 0 0
1449 1 -0.004563253001404881 0.009801473458189726 0.09950752025725672 4 0 0 0 0
1450 1 0.0001570816288684801 0.01221501612941616 0.0990140458858859 4 0 0 0 0
1451 1 -0.0002380211486800166 0.01034067060055406 0.09951282788558735 4 0 0 0 0
1452 1 -0.005997269599655112 0.008658452154083913 0.09950206755787183 4 0 0 0 0
1453 1 0.0006172350640680508 0.01050470691932031 0.09634025211410752 4 0 0 0 0
1454 1 -0.004391818696637208 0.00101514556346862 0.0995294517765194 4 0 0 0 0
1455 1 -0.005557950572237839 -0.009820895819702455 0.09900907935161771 4 0 0 0 0
1456 1 -0.01149585455706759 -0.002422815844903342 0.09899354898672875 4 0 0 0 0
1457 1 0.005640703296329654 0.01021817031774528 0.09700096215875896 4 0 0 0 0
1458 1 0.0009637576906269469 0.00659658119656212 0.09633058991034021 4 0 0 0 0
1459 1 -0.01025173181969134 -0.005238552759426116 0.09951262268042783 4 0 0 0 0
1460 1 -0.007457423530600665 -0.00130856498984266 0.09949544750773746 4 0 0 0 0
1461 1 0.008278117979513203 -0.004029829159628266 0.09902420233414269 4 0 0 0 0
1462 1 0.007623544404466599 0.006208521556847119 0.0965029883784236 4 0 0 0 0
1463 1 -0.008400702989177885 -0.002124668136862811 0.09899573969685878 4 0 0 0 0
1464 1 -0.01080090641947077 0.005472234528710788 0.09849340556422317 4 0 0 0 0
1465 1 -0.005421159689773978 0.01109156268980151 0.09901656123471417 4 0 0 0 0
1466 1 -0.006265507139532755 0.005197314567249846 0.09901978188457522 4 0 0 0 0
1467 1 0.00303278519676285 0.00822190710647672 0.09647060432127208 4 0 0 0 0
1468 1 -8.874224734065195e-05 -0.005000971231651704 0.09652061673500328 4 0 0 0 0
1469 1 0.005451157932429495 0.01082928180382153 0.09849501344901386 4 0 0 0 0
1470 1 -0.01194989728783077 -0.001997021029972394 0.0984998897847966 4 0 0 0 0
1471 1 -0.01115403905644536 9.85095151738401e-05 0.09649780272359301 4 0 0 0 0
1472 1 -0.001670579218410708 -0.0005827346446231799 0.09947013309433295 4 0 0 0 0
1473 1 0.009224645859736749 -0.000201170822305963 0.09850653721203664 4 0 0 0 0
1474 1 -0.001909306563883486 0.006428817355991191 0.09666108310043273 4 0 0 0 0
1475 1 -0.002058846444373779 0.00601866567084814 0.09634103033697458 4 0 0 0 0
1476 1 0.005637250681152734 -0.001496331527295851 0.09949627099667514 4 0 0 0 0
1477 1 -0.005397910897381142 0.008767204073210216 0.09650206755787183 4 0 0 0 0
1478 1 0.003423964163570524 -0.01022528447072775 0.09651439018578291 4 0 0 0 0
1479 1 -0.004286698276069919 0.01106738698396086 0.09700043841616071 4 0 0 0 0
1480 1 0.003864888892679441 -0.003686646499651767 0.0964350007477377 4 0 0 0 0
1481 1 -0.001363463300165502 -0.01040069992528847 0.09949859451729767 4 0 0 0 0
1482 1 0.003983099456684125 0.01126391347578467 0.0964940512902549 4 0 0 0 0
1483 1 -0.007134018675369117 0.00139922632019218 0.09949377886745547 4 0 0 0 0
1484 1 -0.003754930831410836 -0.002943931661559786 0.09951317313092423 4 0 0 0 0
1485 1 -0.01080090641947077 0.005472234528710788 0.09749340556422317 4 0 0 0 0
1486 1 0.002153334454048856 -0.01140092524998119 0.09903248779014273 4 0 0 0 0
1487 1 0.007053374467587657 0.009958453531292783 0.09901569899365412 4 0 0 0 0
1488 1 0.003512266014446051 0.008836576272020296 0.09745339139652327 4 0 0 0 0
1489 1 0.004071749568807044 0.008703101102585859 0.0994772067804207 4 0 0 0 0
1490 1 -0.008707746859363156 -0.0007342970118967467 0.09949544750773746 4 0 0 0 0
1491 1 -0.001312446125984472 0.01186784496885886 0.09705332890853381 4 0 0 0 0
1492 1 0.005176217571768263 0.003892824597843746 0.09647757390907455 4 0 0 0 0
1493 1 -0.004593421711952677 -0.007832144428925875 0.09899973304848741 4 0 0 0 0
1494 1 -8.416124796267375e-05 -0.0105174112823609 0.09949859451729767 4 0 0 0 0
1495 1 0.0002465257809732377 0.01207611962463754 0.09649132437727186 4 0 0 0 0
1496 1 -0.01211034099970149 2.301854277337077e-05 0.09848041962442933 4 0 0 0 0
1497 1 0.003991338992737781 -0.01125481220921267 0.09649322230115351 4 0 0 0 0
1498 1 -0.005063671874700654 0.002857330474953195 0.09905200730643228 4 0 0 0 0
1499 1 0.0009352850675231221 0.003003348695206266 0.09650454339959059 4 0 0 0 0
1500 1 0.006711166036182898 0.007146105455387023 0.09702774531388753 4 0 0 0 0
1501 1 0.001829257096443866 -0.01200331294951284 0.09852383364240835 4 0 0 0 0
1502 1 -0.001400890885052444 -0.006844776608218733 0.09683006075078621 4 0 0 0 0
1503 1 0.0002478511286242795 -0.01208193439451242 0.09649134585226563 4 0 0 0 0
1504 1 -0.0001429345240853221 0.0007200515657542644 0.09950125721113834 4 0 0 0 0
1505 1 0.001736332277526451 0.009721958202192366 0.09684583240893802 4 0 0 0 0
1506 1 0.003959637469364687 0.005440160445042623 0.09949605068646269 4 0 0 0 0
1507 1 0.008562613294471269 0.002888445793185744 0.09950277468290625 4 0 0 0 0
1508 1 0.009414068296304255 0.004825645722580572 0.09949473205376351 4 0 0 0 0
1509 1 0.006489285351015495 -0.001387989900210274 0.09949627099667514 4 0 0 0 0
1510 1 0.00315116410992855 -0.01116863260439933 0.09903768437091408 4 0 0 0 0
1511 1 -0.006056827826884477 0.00103046150458653 0.09702323064397486 4 0 0 0 0
1512 1 0.006053584584060193 -0.001323983485584841 0.09649627099667514 4 0 0 0 0
1513 1 -0.01211034099970148 2.301854277337077e-05 0.09748041962442933 4 0 0 0 0
1514 1 -0.01007881120728074 -0.005177472390326032 0.09651262268042783 4 0 0 0 0
1515 1 -0.006247906484055262 0.001576235518275344 0.09750485789557964 4 0 0 0 0
1516 1 0.01186019067420922 1.856326771310297e-05 0.0965 4 0 0 0 0
1517 1 0.005117108358519373 0.009871033918421609 0.0994772067804207 4 0 0 0 0
1518 1 0.004690370891511978 -0.006628071997040489 0.09652750158723898 4 0 0 0 0
1519 1 0.007824547913959597 -0.004144977917332732 0.09650136538234147 4 0 0 0 0
1520 1 -0.0003402268815939902 0.0009424818285925409 0.09650125721113834 4 0 0 0 0
1521 1 -0.003940756196893122 0.01160919136495194 0.09751067555948383 4 0 0 0 0
1522 1 -0.01067439800500308 -0.004963816259503088 0.09703637804974734 4 0 0 0 0
1523 1 -0.002799931970786196 0.01093938059486508 0.09854836480049957 4 0 0 0 0
1524 1 0.008340525617289398 -0.005927331774061508 0.09651706928215294 4 0 0 0 0
1525 1 -0.005621499975745518 -0.002148561035297041 0.09950819194071425 4 0 0 0 0
1526 1 -0.005714410706499085 0.002845102341102833 0.09948162725160478 4 0 0 0 0
1527 1 -0.002831633728205049 0.009113172039102611 0.0994885242532073 4 0 0 0 0
1528 1 0.01173651835104814 -0.0005112768264134811 0.09731432037889251 4 0 0 0 0
1529 1 -0.003155905560417898 0.003021264718855149 0.09858820174502261 4 0 0 0 0
1530 1 -0.01161671118335767 0.0005532536629592566 0.09697407882636148 4 0 0 0 0
1531 1 0.005849490524674703 0.004720421821479812 0.0995029254462389 4 0 0 0 0
1532 1 0.000919618712818345 -0.002955126618771906 0.09649885902226199 4 0 0 0 0
1533 1 -0.01008485742644791 -0.0005242518092277815 0.09949780272359302 4 0 0 0 0
1534 1 -0.007950334692986588 0.004769596142078405 0.09951724820569971 4 0 0 0 0
1535 1 -0.0009980281401216842 -0.007920250017422782 0.09952052280385722 4 0 0 0 0
1536 1 0.01182880539180591 -0.003591060997597711 0.09899178555538909 4 0 0 0 0
1537 1 0.00486145383813889 0.01053984826780952 0.0989712580706756 4 0 0 0 0
1538 1 -3.932216093523248e-06 0.005030692624155436 0.09649063264282245 4 0 0 0 0
1539 1 -0.008687380839790581 0.00493672976535986 0.09649056110766541 4 0 0 0 0
1540 1 0.004128425841877167 0.005926109634927373 0.09649605068646269 4 0 0 0 0
1541 1 -0.003725766579986318 0.01082339393203943 0.09950752025725672 4 0 0 0 0
1542 1 -0.00488275613672937 0.004965650785082137 0.09950253367887553 4 0 0 0 0
1543 1 -0.006638120545468533 0.007694274634190956 0.09649712210158934 4 0 0 0 0
1544 1 -0.009741864302684665 -0.002284104394695051 0.09651162571286818 4 0 0 0 0
1545 1 -0.001974976472060579 0.01109388180724728 0.09653060739991977 4 0 0 0 0
1546 1 0.01210229717641055 0.0006679424051720505 0.09807545638665105 4 0 0 0 0
1547 1 -0.0007602671687220661 -0.007475996801095276 0.09766153325053378 4 0 0 0 0
1548 1 0.005156344347218273 0.008403700076078477 0.09900196371588463 4 0 0 0 0
1549 1 -0.005039841295835302 0.003047844708939939 0.09705200730643228 4 0 0 0 0
1550 1 -0.00267585796856726 0.01004831406463737 0.09852665191038375 4 0 0 0 0
1551 1 -0.01175170885835484 -0.003609989631621353 0.09900567864318009 4 0 0 0 0
1552 1 -0.00547356594694857 -0.001501163059808082 0.09650819194071425 4 0 0 0 0
1553 1 0.001912797215191716 0.0121725415931912 0.09701461854909382 4 0 0 0 0
1554 1 0.004165492520534577 -0.007495618949874524 0.09952750158723898 4 0 0 0 0
1555 1 0.003288500611099574 -0.00194984591290817 0.09950625150267978 4 0 0 0 0
1556 1 -0.01077630904663619 -0.005026161008143518 0.09903637804974734 4 0 0 0 0
1557 1 -0.003205552209854289 0.00228468028957289 0.09907389633105852 4 0 0 0 0
1558 1 -0.009876652070711322 -0.002551315957358755 0.09951162571286819 4 0 0 0 0
1559 1 -0.004608570619753185 -0.003070236678522822 0.09951317313092423 4 0 0 0 0
1560 1 -0.003366619679542195 0.01128622668196851 0.09901775740057982 4 0 0 0 0
1561 1 -0.003582100189545105 0.01001845342667854 0.09650752025725672 4 0 0 0 0
1562 1 0.005451157932429495 0.01082928180382153 0.09749501344901385 4 0 0 0 0
1563 1 0.002790932893283621 -0.007936836080245219 0.09946353925272036 4 0 0 0 0
1564 1 -0.004377026836013679 0.003209693410189255 0.0965703800548275 4 0 0 0 0
1565 1 0.004929589818446429 0.0007755515327320314 0.0965068908895529 4 0 0 0 0
1566 1 -0.002127226500846426 -0.01109281717198333 0.09640494437020039 4 0 0 0 0
1567 1 0.001913953007595685 -0.01217401925170307 0.09701464003739679 4 0 0 0 0
1568 1 0.009830397857159542 -0.003584351263327597 0.09652283695180122 4 0 0 0 0
1569 1 0.002398433845901072 0.01174323898879922 0.09652329417182196 4 0 0 0 0
1570 1 0.008927300158115492 -0.002537320563692836 0.09902059074571878 4 0 0 0 0
1571 1 0.005345351406977277 -0.004644231990087353 0.09949989390527293 4 0 0 0 0
1572 1 0.0007893159304779388 -0.007430947377463221 0.09631094969589038 4 0 0 0 0
1573 1 0.002846134994908131 1.890953328574567e-05 0.09950032090309383 4 0 0 0 0
1574 1 -0.008023833430077789 0.002461679657487143 0.09950227229249897 4 0 0 0 0
1575 1 0.000685678222612991 -0.005132167293324071 0.09952061673500329 4 0 0 0 0
1576 1 0.008287630569088201 0.0002873383297689799 0.09650143723160531 4 0 0 0 0
1577 1 0.0006249113301924527 0.005700890910027312 0.09633058991034021 4 0 0 0 0
1578 1 -0.00252581955234827 0.007503155952519602 0.09632005276345816 4 0 0 0 0
1579 1 -0.002353160272214725 0.01153819720018172 0.09704084454324287 4 0 0 0 0
1580 1 0.005452047239099258 0.006852521922109507 0.09952475693546395 4 0 0 0 0
1581 1 0.002401547649590207 -0.01174285619126868 0.09652329418513117 4 0 0 0 0
1582 1 -0.005022741733051934 0.002107928027005617 0.09858145908295166 4 0 0 0 0
1583 1 -0.00257294022744661 0.004796126667923614 0.09685533575093869 4 0 0 0 0
1584 1 -0.001975247169314611 0.01030133517301892 0.09653060739991977 4 0 0 0 0
1585 1 -0.007916491854690635 -0.001802733186031233 0.09649544750773746 4 0 0 0 0
1586 1 -0.0001718576678472598 -0.00434763247927879 0.09652061673500328 4 0 0 0 0
1587 1 0.001621091296708067 0.007913762568801675 0.09950926237024854 4 0 0 0 0
1588 1 -0.008540415362103102 -0.003276800286743748 0.09650029218912133 4 0 0 0 0
1589 1 -0.004822775754380088 -0.009182002834317051 0.09948589730819168 4 0 0 0 0
1590 1 -0.002064032811457304 -0.01197107636252543 0.09742102443136175 4 0 0 0 0
1591 1 0.003792538991585739 -0.01153931261299606 0.09853090667206758 4 0 0 0 0
1592 1 0.006159358527719382 0.007219852961700796 0.09652475693546395 4 0 0 0 0
1593 1 -0.002720107007780654 -0.005556564848228286 0.09951103660153955 4 0 0 0 0
1594 1 0.005029109927894688 0.005212797746098027 0.09847655004177611 4 0 0 0 0
1595 1 0.003487837215732606 0.007401299204537682 0.09947060432127208 4 0 0 0 0
1596 1 -0.0003125000000000032 0.008390670054886364 0.09632019270909731 4 0 0 0 0
1597 1 -0.007118949197018163 -0.0008534758138370421 0.09649544750773746 4 0 0 0 0
1598 1 0.004644394437372523 0.004306774462194648 0.09947757390907455 4 0 0 0 0
1599 1 -0.0004930594594673243 0.002806027983020524 0.09959176741500728 4 0 0 0 0
1600 1 -0.008471703448970422 -0.0006750937551988514 0.09649544750773746 4 0 0 0 0
1601 1 0.0008304848999959024 0.002844096855907303 0.0995045433995906 4 0 0 0 0
1602 1 -0.005847789205416864 -0.006242126083045174 0.09944206779758337 4 0 0 0 0
1603 1 -0.0007446854315879907 -0.01075233477288143 0.09649859451729767 4 0 0 0 0
1604 1 -0.000898662418185435 -0.008999999999999994 0.09630714435153982 4 0 0 0 0
1605 1 -0.003901353444836986 -0.0007786840425599312 0.09652276598118187 4 0 0 0 0
1606 1 0.006509553881196169 0.006694157589599695 0.09853067076012642 4 0 0 0 0
1607 1 -0.002543840503157441 0.0022211209600269 0.09950351627623102 4 0 0 0 0
1608 1 0.006422872650192603 0.003417010248639906 0.09949507545594501 4 0 0 0 0
1609 1 -0.004493424621262242 -0.003275462636380013 0.09651317313092422 4 0 0 0 0
1610 1 -0.001768673769780429 0.006916283208389121 0.09632005276345816 4 0 0 0 0
1611 1 0.003088052407636162 0.003111735495198035 0.09951483683375199 4 0 0 0 0
1612 1 -0.003103502014220516 0.006249745027213943 0.09950776173873725 4 0 0 0 0
1613 1 -0.009128811702441838 0.00160147739189614 0.09950227229249897 4 0 0 0 0
1614 1 -0.002953334200568329 0.004321277239670023 0.09651430541396411 4 0 0 0 0
1615 1 0.009303736648617703 -0.003068442166711344 0.09652283695180122 4 0 0 0 0
1616 1 0.00518622179808386 0.0004850419504883454 0.0995068908895529 4 0 0 0 0
1617 1 0.003672294567787241 0.01177599708737442 0.09701734546207685 4 0 0 0 0
1618 1 0.001609160054977638 -0.003048850030552304 0.09949885902226199 4 0 0 0 0
1619 1 -0.008301672061601555 -0.006171945009731245 0.09649853287880771 4 0 0 0 0
1620 1 0.00389919400823337 0.009531392208405307 0.0964772067804207 4 0 0 0 0
1621 1 0.01222672082391062 0.000600863636483759 0.096887723790504 4 0 0 0 0
1622 1 -0.006029816924704012 -0.004332545804662937 0.09650823429143372 4 0 0 0 0
1623 1 0.009800670265977446 0.00350197949334688 0.09950277468290625 4 0 0 0 0
1624 1 0.00367345033272529 -0.01177446747227046 0.09701651648628468 4 0 0 0 0
1625 1 -0.0006900699964781207 -0.009993571576798725 0.09949859451729767 4 0 0 0 0
1626 1 0.006128155159894802 0.002628651491751175 0.09949507545594501 4 0 0 0 0
1627 1 -0.008114981616297146 -0.003485532759299482 0.09950029218912133 4 0 0 0 0
1628 1 -0.001249421072235552 -0.002536802144607542 0.09949943108935899 4 0 0 0 0
1629 1 0.006388242393160241 0.007991553888184818 0.09952475693546395 4 0 0 0 0
1630 1 0.007111998319981125 -0.004310014817599309 0.09650136538234147 4 0 0 0 0
1631 1 -0.001657202339890727 -0.008629921721864275 0.09630714435153982 4 0 0 0 0
1632 1 -0.007578848454756058 -0.006428325615423877 0.09649853287880771 4 0 0 0 0
1633 1 -0.008648207295526088 -0.002786757971120326 0.09950029218912133 4 0 0 0 0
1634 1 -0.007819852255607085 0.001536637012705275 0.09699605115995441 4 0 0 0 0
1635 1 -0.002894584441010536 0.004232288649328756 0.09951430541396411 4 0 0 0 0
1636 1 -0.01024331810090622 -0.005798031459973592 0.09700531164140057 4 0 0 0 0
1637 1 -0.00937364741937745 -0.004753317188277562 0.09651262268042783 4 0 0 0 0
1638 1 0.006929644465957979 0.005624706196285656 0.0995029254462389 4 0 0 0 0
1639 1 -0.009360156461816226 0.003904845671208533 0.09649056110766541 4 0 0 0 0
1640 1 -0.004997482611957673 -0.008388586977454645 0.09948589730819168 4 0 0 0 0
1641 1 -0.002252381339473132 0.002027495401848034 0.09650351627623102 4 0 0 0 0
1642 1 0.008720066970585215 0.004426126851551369 0.09649473205376351 4 0 0 0 0
1643 1 -0.006734929345365164 0.005584600957455127 0.09951724820569971 4 0 0 0 0
1644 1 0.01192539900006466 0.002208274883070221 0.09691783132059034 4 0 0 0 0
1645 1 -0.004793652568099632 0.001137155544961641 0.09652945177651939 4 0 0 0 0
1646 1 0.00896425162795908 -0.004010362862918394 0.09952283695180122 4 0 0 0 0
1647 1 0.01226266472666634 -0.0006302160578461422 0.09911227620949623 4 0 0 0 0
1648 1 -0.001794131908621063 0.01122349325097045 0.09953060739991977 4 0 0 0 0
1649 1 0.0100530674664048 -0.003096525089232297 0.09952283695180122 4 0 0 0 0
1650 1 -0.005367954074124757 0.00496637525741527 0.09650253367887553 4 0 0 0 0
1651 1 -0.004282131800690502 0.001411118647330208 0.09652945177651939 4 0 0 0 0
1652 1 -0.002298644167219895 0.01150402135414811 0.09904084454324287 4 0 0 0 0
1653 1 0.004242275111498078 0.006272701048886493 0.09949605068646269 4 0 0 0 0
1654 1 -0.0001522186749504447 0.01239938873705413 0.0970140458858859 4 0 0 0 0
1655 1 0.008528591045897097 -0.001995203585791408 0.09949775379391758 4 0 0 0 0
1656 1 0.0002846531141919625 -0.001235180651057673 0.09951580231377077 4 0 0 0 0
1657 1 0.005918212720676552 0.008016789760542984 0.09652475693546395 4 0 0 0 0
1658 1 0.01156077899300106 0.001692757538738239 0.096387723790504 4 0 0 0 0
1659 1 -0.002510171539316428 0.005199246843150505 0.09634103033697458 4 0 0 0 0
1660 1 0.00668114425631506 0.005206266582740354 0.0965029254462389 4 0 0 0 0
1661 1 0.0004485328878880936 -0.001453851904166141 0.09651580231377077 4 0 0 0 0
1662 1 -0.01013839684548956 -0.001738527104190967 0.09651162571286818 4 0 0 0 0
1663 1 0.007440808738362413 -0.006842353971110967 0.09651706928215294 4 0 0 0 0
1664 1 0.01210304850074951 -0.0007017293363845371 0.0979265965883887 4 0 0 0 0
1665 1 -0.002541734844060401 -0.007481718350327214 0.09634101981475532 4 0 0 0 0
1666 1 -0.000150748971234222 -0.01240498496004348 0.09701452789569165 4 0 0 0 0
1667 1 0.002174799607766854 0.009230217199967271 0.09950558029483053 4 0 0 0 0
1668 1 -0.006779037243985032 0.007547657564327967 0.09949712210158934 4 0 0 0 0
1669 1 -0.002509357901535764 -0.01150685793890418 0.09689784238793572 4 0 0 0 0
1670 1 -0.003886323681197103 -0.000917273141179 0.09952276598118187 4 0 0 0 0
1671 1 -0.001778944945988533 -0.006925895966163592 0.09634101981475532 4 0 0 0 0
1672 1 -0.001776121406213956 -0.009985186916483788 0.0967120887217402 4 0 0 0 0
1673 1 -0.005719362633732392 0.004827903282758363 0.09950253367887553 4 0 0 0 0
1674 1 -0.001665729050945135 0.007821377555917738 0.09632005276345816 4 0 0 0 0
1675 1 -0.006866847703933619 0.002746486575385372 0.09648162725160478 4 0 0 0 0
1676 1 0.01012156697125245 -0.0004277679386324786 0.09650734618651377 4 0 0 0 0
1677 1 -0.01031432767168371 -0.005796767080433246 0.09900531164140057 4 0 0 0 0
1678 1 0.001099812058711762 -0.007101211116944317 0.09949915320925234 4 0 0 0 0
1679 1 0.0001264371399151591 0.006459639650238243 0.09633058991034021 4 0 0 0 0
1680 1 -0.004299903097337245 0.01114635861502287 0.0990004384161607 4 0 0 0 0
1681 1 -0.005383762503804869 -0.008791962740226464 0.09648589730819168 4 0 0 0 0
1682 1 0.001977941248019347 0.01061188536468664 0.09634025211410752 4 0 0 0 0
1683 1 -0.007286989234026932 0.00746384386113982 0.09649712210158934 4 0 0 0 0
1684 1 -0.0007423216768927593 -0.002315016956550919 0.09649943108935899 4 0 0 0 0
1685 1 -0.004024561631647298 -0.002666311719448035 0.09651317313092422 4 0 0 0 0
1686 1 -0.006462752626047299 -0.002248348353678589 0.09950819194071425 4 0 0 0 0
1687 1 -0.005244713550271207 0.0008879012564247781 0.0995294517765194 4 0 0 0 0
1688 1 -0.005517519226715364 0.001465322583665571 0.09652945177651939 4 0 0 0 0
1689 1 0.0001493253364229827 -0.004455878572846844 0.09952061673500329 4 0 0 0 0
1690 1 -0.005048734493901207 0.002245973081576921 0.09758145908295167 4 0 0 0 0
1691 1 0.01229618640624836 -0.0004904047800754868 0.09680697419237874 4 0 0 0 0
1692 1 0.005962714122145625 0.005402809790356639 0.0965029254462389 4 0 0 0 0
1693 1 0.001321365583481807 0.01192718157393791 0.09649132437727186 4 0 0 0 0
1694 1 -0.003937979836531752 0.002619361311516877 0.0965703800548275 4 0 0 0 0
1695 1 0.003561766443987989 0.00448101790551035 0.09637090986742029 4 0 0 0 0
1696 1 0.00339191208568892 0.007706986174587175 0.09647060432127208 4 0 0 0 0
1697 1 -0.003850460020808253 0.002263987718975653 0.0995703800548275 4 0 0 0 0
1698 1 -0.01083890489862856 -0.005584375329150648 0.09752906701072007 4 0 0 0 0
1699 1 -0.002441637473983092 -0.008177765481662486 0.09950202358954717 4 0 0 0 0
1700 1 0.001322745173923182 -0.01192889775007863 0.09649134585226563 4 0 0 0 0
1701 1 -0.00333042478962966 -0.00697873023646916 0.09951383574029576 4 0 0 0 0
1702 1 -0.007430001656024938 0.0006285179190691919 0.09949377886745547 4 0 0 0 0
1703 1 -0.002227650286873295 -0.0009629935824577655 0.09647013309433294 4 0 0 0 0
1704 1 0.00644131500719448 0.002856245463346281 0.096495075455945 4 0 0 0 0
1705 1 -0.001396842928394188 0.01178064268174139 0.09905332890853381 4 0 0 0 0
1706 1 -0.00152494523905727 -0.01180757254320144 0.09952318204342606 4 0 0 0 0
1707 1 -0.003940756196893122 0.01160919136495194 0.09851067555948383 4 0 0 0 0
1708 1 -0.006009554277594064 -0.001716056239173199 0.09650819194071425 4 0 0 0 0
1709 1 -0.004882992525772314 0.006903686989111774 0.09949756168603889 4 0 0 0 0
1710 1 -0.007805539361461651 -0.001117035493440448 0.09649544750773746 4 0 0 0 0
1711 1 0.01179360085519749 0.002803027400839942 0.09653010753008634 4 0 0 0 0
1712 1 -0.002362986442225014 -0.01009845343994476 0.09940494437020039 4 0 0 0 0
1713 1 2.895875442697791e-06 -0.007285522648287347 0.09631094969589038 4 0 0 0 0
1714 1 -0.006169048246635051 -0.002522269698916443 0.09650819194071425 4 0 0 0 0
1715 1 0.00483196034112317 0.008923767702613591 0.0994772067804207 4 0 0 0 0
1716 1 -0.00570859788388615 0.002011096597354385 0.09701107902812417 4 0 0 0 0
1717 1 -0.001901355186993019 0.01206117078491906 0.09756356605185691 4 0 0 0 0
1718 1 -0.00325631002792278 -0.004880441618541153 0.09951103660153955 4 0 0 0 0
1719 1 0.002552454886515686 -7.48340612641169e-05 0.09650032090309382 4 0 0 0 0
1720 1 -0.00615712700659913 -0.004284994418522376 0.09950823429143373 4 0 0 0 0
1721 1 -0.01035662931251431 0.006365940894049398 0.09949208302037063 4 0 0 0 0
1722 1 -0.001234564912834973 -0.002594606130890802 0.09649943108935899 4 0 0 0 0
1723 1 0.004503415818097814 -0.00674506764007173 0.09952750158723898 4 0 0 0 0
1724 1 0.0002457069058918893 0.009749898534034617 0.09951282788558735 4 0 0 0 0
1725 1 -0.009345699662765055 0.004626258852425662 0.09649056110766541 4 0 0 0 0
1726 1 -0.005657692997584883 -0.01043828672836739 0.09952318204342603 4 0 0 0 0
1727 1 0.008644881876259343 -0.001445493760873628 0.09649775379391758 4 0 0 0 0
1728 1 0.008552747541230117 0.0008311998203184358 0.09950143723160532 4 0 0 0 0
1729 1 -0.002418823915606352 -0.009493035243761246 0.09890696795974754 4 0 0 0 0
1730 1 -0.00969249598596547 -0.004751856671194526 0.09951262268042783 4 0 0 0 0
1731 1 0.00884316167318704 -0.001236930134954071 0.09949775379391758 4 0 0 0 0
1732 1 -0.01083890489862856 -0.005584375329150648 0.09852906701072009 4 0 0 0 0
1733 1 -0.002060955041362318 -0.01216609789511575 0.09901608006116137 4 0 0 0 0
1734 1 0.008672644251133871 0.00569444964834056 0.09649473205376351 4 0 0 0 0
1735 1 0.007563917239993839 -0.004272389854903232 0.09950136538234147 4 0 0 0 0
1736 1 -0.005463100164210958 -0.01105699256306347 0.09903344938678935 4 0 0 0 0
1737 1 -0.007544300775441718 0.00744215281115055 0.09949712210158934 4 0 0 0 0
1738 1 0.0076154601229591 -0.00607310061580056 0.09651706928215294 4 0 0 0 0
1739 1 -0.005181717919409089 0.008767835747842328 0.09950206755787183 4 0 0 0 0
1740 1 0.004706970916853343 0.01119952667877015 0.0994940512902549 4 0 0 0 0
1741 1 0.001201624330354916 -0.01034146452748041 0.09950919360501156 4 0 0 0 0
1742 1 0.00168518688717343 -0.002740891321680013 0.09649885902226199 4 0 0 0 0
1743 1 0.007544404119423387 0.007374901867150079 0.0995029883784236 4 0 0 0 0
1744 1 -0.00164198502316531 -0.0004713659120696817 0.09647013309433294 4 0 0 0 0
1745 1 -0.007818708912437543 -0.006344914204026835 0.09949853287880771 4 0 0 0 0
1746 1 -0.0023153427008818 -0.009293792390259417 0.09721411231128735 4 0 0 0 0
1747 1 -0.001442821409799869 -0.01012939688097415 0.09721068323903784 4 0 0 0 0
1748 1 0.009066396096579023 0.005052352358878677 0.09649473205376351 4 0 0 0 0
1749 1 0.009311532127458656 -0.007871117835735214 0.09650595722858653 4 0 0 0 0
1750 1 -0.006330631252130818 0.000681159133624091 0.09649377886745547 4 0 0 0 0
1751 1 -0.009100591358580417 -0.005030474678087222 0.09951262268042783 4 0 0 0 0
1752 1 -0.002034075928083862 -0.008283148164359159 0.09715018775584228 4 0 0 0 0
1753 1 -0.0004357322138965887 -0.008621686813999803 0.09952052280385722 4 0 0 0 0
1754 1 -0.0082548423126738 -0.001408317876840359 0.09949544750773746 4 0 0 0 0
1755 1 0.006165875056347756 0.005567075579300066 0.0995029254462389 4 0 0 0 0
1756 1 0.003380088942343761 -0.009781225741818098 0.09951439018578291 4 0 0 0 0
1757 1 -0.004386661703229137 0.002940109463535615 0.0995703800548275 4 0 0 0 0
1758 1 -0.002865331875975895 0.01185086744125154 0.0995102371433231 4 0 0 0 0
1759 1 0.006392477255282779 -0.01041860820052896 0.09650595722858651 4 0 0 0 0
1760 1 0.007936522654263842 0.009203846423183119 0.09649194361531585 4 0 0 0 0
1761 1 -0.007942492553129569 -0.00928214994710861 0.09949266215156467 4 0 0 0 0
1762 1 -0.005537570460076621 -0.006460994681226117 0.09644206779758337 4 0 0 0 0
1763 1 0.007686714821169179 0.006676185879553797 0.0995029883784236 4 0 0 0 0
1764 1 0.008807434530585684 0.005141839138332483 0.09949473205376351 4 0 0 0 0
1765 1 0.00785442617178631 -0.006255510060889013 0.09951706928215294 4 0 0 0 0
1766 1 -0.001602724431352752 -0.009364889742700624 0.09630714435153982 4 0 0 0 0
1767 1 -0.001583616163069572 -0.008382049105546401 0.09767071055969948 4 0 0 0 0
1768 1 -0.01177492581906263 0.002806311925950203 0.09950805053073228 4 0 0 0 0
1769 1 0.007936861826243181 -0.009246559917560841 0.09649241417986368 4 0 0 0 0
1770 1 0.006046260356022464 -0.008264252813618984 0.09651162444922182 4 0 0 0 0
1771 1 -0.009218179968159655 0.004476772530690273 0.09949056110766541 4 0 0 0 0
1772 1 -0.01217878861815257 -0.0009501397499153087 0.09650634079806783 4 0 0 0 0
1773 1 0.007948419502514356 -0.009306982452293305 0.09949241417986368 4 0 0 0 0
1774 1 0.0009028686843071222 0.01218571407620304 0.09949132437727186 4 0 0 0 0
1775 1 -0.002542013775210747 -0.01005324999585581 0.09640494437020039 4 0 0 0 0
1776 1 0.0001638933343003574 0.008281936385089339 0.09632019270909731 4 0 0 0 0
1777 1 0.002965593811938492 0.00468899612760426 0.09637090986742029 4 0 0 0 0
1778 1 -0.01051077250109452 8.945222757662216e-05 0.09949780272359302 4 0 0 0 0
1779 1 0.01045520623330539 9.559007177895173e-05 0.09650734618651377 4 0 0 0 0
1780 1 -0.00190135518699302 0.01206117078491906 0.09856356605185691 4 0 0 0 0
1781 1 -0.0007854588556455418 -0.006517694551728407 0.09948904093603091 4 0 0 0 0
1782 1 -0.0103802677561326 -0.00180703395134201 0.09951162571286819 4 0 0 0 0
1783 1 0.009428864782171252 0.00287141255965935 0.09950277468290625 4 0 0 0 0
1784 1 0.005979357269408994 -0.008440354572857269 0.09951162444922182 4 0 0 0 0
1785 1 0.01043222309727425 -8.194661643542932e-05 0.09950734618651377 4 0 0 0 0
1786 1 0.008406182253662214 0.0009532255871334104 0.09650143723160531 4 0 0 0 0
1787 1 0.006371309593932252 0.01042687324660926 0.09652375537833827 4 0 0 0 0
1788 1 0.002792043122569651 -0.01180564921732186 0.09952329418513117 4 0 0 0 0
1789 1 -0.008673565304445232 0.002289686690052456 0.09650227229249897 4 0 0 0 0
1790 1 0.009331139630086192 0.007884772642520816 0.09648907978312854 4 0 0 0 0
1791 1 -0.01132771298324185 -0.004670612573922563 0.09652375536931951 4 0 0 0 0
1792 1 -0.00374521222020636 0.01001979193586589 0.09950752025725672 4 0 0 0 0
1793 1 0.009019572225267889 0.002631809588964918 0.09650277468290624 4 0 0 0 0
1794 1 -0.002919847980970724 0.01188504328728514 0.0965102371433231 4 0 0 0 0
1795 1 -0.009321420187501905 -0.007969063395666526 0.09650518505054492 4 0 0 0 0
1796 1 0.006351499157575052 -0.01045194169096801 0.09950595722858652 4 0 0 0 0
1797 1 -0.009321419045853922 0.007968660129859455 0.09650518505054492 4 0 0 0 0
1798 1 -0.005886591478667673 -0.005957167928654141 0.09644206779758337 4 0 0 0 0
1799 1 -0.001494532050965699 0.01049282475934194 0.09953060739991977 4 0 0 0 0
1800 1 0.009289058415413979 -0.003231203015235812 0.09952283695180122 4 0 0 0 0
1801 1 -0.0113451998247869 0.004673074872129482 0.09651076143618714 4 0 0 0 0
1802 1 -0.001029259567719023 0.00348214771231285 0.09959176741500728 4 0 0 0 0
1803 1 0.009344999175345283 0.007967169333738214 0.09948907978312854 4 0 0 0 0
1804 1 -0.01044564594308406 0.006389981936528405 0.09649208302037063 4 0 0 0 0
1805 1 -0.00688605222296328 0.0005131804977510708 0.09649377886745547 4 0 0 0 0
1806 1 0.00567403242090251 0.007756293478938563 0.09952475693546395 4 0 0 0 0
1807 1 0.002829188536741824 0.01183325015150555 0.09952329417182199 4 0 0 0 0
1808 1 -0.007639963741148687 0.005525564730122727 0.09951724820569971 4 0 0 0 0
1809 1 0.009414898623017056 0.003242956553637159 0.09650277468290624 4 0 0 0 0
1810 1 -0.01044565759704832 -0.00638991699328121 0.09649268896097274 4 0 0 0 0
1811 1 -0.006427200701995308 -0.01048739223616934 0.09652318204342603 4 0 0 0 0
1812 1 -0.006429933747882972 0.0104834398245151 0.09652364307581016 4 0 0 0 0
1813 1 -0.01214783092872106 0.001028198371061463 0.09647627610276849 4 0 0 0 0
1814 1 -0.009330985257415644 -0.007955118747033156 0.09950518505054493 4 0 0 0 0
1815 1 0.01183439780059393 -0.001792235802207959 0.09961227620949623 4 0 0 0 0
1816 1 -0.006375936818772144 -0.01041947885199823 0.09952318204342603 4 0 0 0 0
1817 1 0.00454240640103447 0.009419833071984528 0.0964772067804207 4 0 0 0 0
1818 1 -0.005689359002050792 0.003283729933387106 0.09648162725160478 4 0 0 0 0
1819 1 -0.007984838754573908 0.009338494146077658 0.09949268370068631 4 0 0 0 0
1820 1 0.01185627144487558 -0.002865260745623006 0.09646849138356711 4 0 0 0 0
1821 1 0.01047575660134147 -0.006348736530254064 0.09649322229344418 4 0 0 0 0
1822 1 -0.01223646947473167 0.0009483013095130394 0.09947627610276849 4 0 0 0 0
1823 1 -0.004712199694001743 -0.01137613223205463 0.09651026734336329 4 0 0 0 0
1824 1 0.004688255945033307 -0.01133631475127709 0.09949322230115351 4 0 0 0 0
1825 1 -0.004184065836254362 -0.007105033845033263 0.09951383574029576 4 0 0 0 0
1826 1 0.006437418750412574 0.01036917038329761 0.09952375537833827 4 0 0 0 0
1827 1 -0.008871738212976855 0.002390320603988509 0.09950227229249897 4 0 0 0 0
1828 1 0.009363962605597595 -0.007935992721783029 0.09950595722858653 4 0 0 0 0
1829 1 0.0009385503502021223 -0.01227072807184503 0.09949134585226563 4 0 0 0 0
1830 1 -0.007517355619810574 0.000971938780570324 0.09649377886745547 4 0 0 0 0
1831 1 0.004696047074409656 -0.0113497091957693 0.09649322230115351 4 0 0 0 0
1832 1 0.000545931126161707 0.008586601357646158 0.09632019270909731 4 0 0 0 0
1833 1 0.01127868784792938 0.004706932956005696 0.09649301745593264 4 0 0 0 0
1834 1 -0.01190114780980913 -0.002856567002917382 0.09648192327386057 4 0 0 0 0
1835 1 -0.007961663021752639 -0.009351676616682691 0.09649266215156466 4 0 0 0 0
1836 1 -0.0009448076958007629 -0.01220629003005156 0.09952318204342606 4 0 0 0 0
1837 1 -0.004730150882673948 0.0113250629761524 0.09649291815890398 4 0 0 0 0
1838 1 -0.01199277783449932 0.002913657785290662 0.09650805053073228 4 0 0 0 0
1839 1 0.0074206726406752 0.006960101334994894 0.0965029883784236 4 0 0 0 0
1840 1 -0.00796226236332734 0.00935183614058218 0.09649268370068631 4 0 0 0 0
1841 1 0.01049462548284941 0.006397010686118904 0.09950730739691667 4 0 0 0 0
1842 1 -0.01051666716782581 -0.006388652613740864 0.09949268896097276 4 0 0 0 0
1843 1 0.008039139551678613 0.009348861757437297 0.09949194361531585 4 0 0 0 0
1844 1 -0.01033714488219573 9.850951517385978e-05 0.09649780272359301 4 0 0 0 0
1845 1 0.01049811158178321 0.006428751303791084 0.09650730739691665 4 0 0 0 0
1846 1 0.01140140327294887 0.004739335180919358 0.09949301745593264 4 0 0 0 0
1847 1 0.001324595850399536 0.009836182636987632 0.09634025211410752 4 0 0 0 0
1848 1 0.004689775886501 0.01135694919275621 0.0964940512902549 4 0 0 0 0
1849 1 0.0005594289773593634 0.006262292612244213 0.09633058991034021 4 0 0 0 0
1850 1 0.002955560406959183 -0.01197687385641911 0.09652329418513117 4 0 0 0 0
1851 1 0.002953620249197044 0.01197872835939259 0.09652329417182196 4 0 0 0 0
1852 1 0.01141505324935745 -0.004730303587846324 0.09652329417182198 4 0 0 0 0
1853 1 -0.01130750317013869 0.004683766370256104 0.09951076143618715 4 0 0 0 0
1854 1 -0.00199708101600914 -0.00740313466073216 0.09634101981475532 4 0 0 0 0
1855 1 0.0003208340436933259 -0.007580526157112851 0.09631094969589038 4 0 0 0 0
1856 1 -0.002907271545324727 -0.01194520139758173 0.09649289801773533 4 0 0 0 0
1857 1 -0.01195421870781009 -0.002891849840064309 0.0994819232738606 4 0 0 0 0
1858 1 -0.004743355703941274 0.0114040346072144 0.09949291815890399 4 0 0 0 0
1859 1 -0.0008980048776000121 0.01237008661672517 0.09652272150861405 4 0 0 0 0
1860 1 -0.0008965455107436144 -0.01237568365325721 0.09652318204342603 4 0 0 0 0
1861 1 -0.01224956153607678 -0.0009547893958474378 0.09950634079806783 4 0 0 0 0
1862 1 0.01053986752331612 -0.006459146581469101 0.09949322229344418 4 0 0 0 0
1863 1 -0.009364688835622319 0.008021802961783814 0.09950518505054493 4 0 0 0 0
1864 1 -0.00151161500254274 0.005152549998774887 0.09634103033697458 4 0 0 0 0
1865 1 0.01190474464596653 0.00287231338780329 0.09953010753008634 4 0 0 0 0
1866 1 -0.001987642934031163 0.007423204165726236 0.09632005276345816 4 0 0 0 0
1867 1 0.01203135090810113 -0.002872835085583466 0.09946849138356711 4 0 0 0 0
1868 1 -0.0009824016800097275 0.0122828843296077 0.09952272150861405 4 0 0 0 0
1869 1 0.0113075666005916 -0.004683613229986887 0.09952329417182199 4 0 0 0 0
1870 1 0.01216314905296828 -0.002278082567813985 0.09908076759306333 4 0 0 0 0
1871 1 0.01218763130530018 0.001097543062986493 0.096387723790504 4 0 0 0 0
1872 1 0.0008954230296373182 0.01231806650529417 0.09649132437727186 4 0 0 0 0
1873 1 0.0008956289741517006 -0.01231831097599196 0.09649134585226563 4 0 0 0 0
1874 1 -0.001987464480342763 0.005460081519038833 0.09634103033697458 4 0 0 0 0
1875 1 -0.002793316333286535 -0.01202046306239524 0.09949289801773535 4 0 0 0 0
1876 1 0.001438038404244018 0.01037029770563137 0.09634025211410752 4 0 0 0 0
1877 1 -0.006431008346036161 0.01049445181941831 0.09952364307581016 4 0 0 0 0
1878 1 0.00111271540977388 0.01073415701540723 0.09634025211410752 4 0 0 0 0
1879 1 0.01219071796997129 0.001023627280045038 0.09968038640963328 4 0 0 0 0
1880 1 -0.001380166991153742 -0.008999999999999991 0.09630714435153982 4 0 0 0 0
1881 1 0.0122235752080559 -0.001126895484348872 0.09961227620949623 4 0 0 0 0
1882 1 -0.002759075955983164 -0.008980191963097213 0.09950202358954717 4 0 0 0 0
1883 1 -0.01142962402487496 -0.004732957322562993 0.09952375536931952 4 0 0 0 0
1884 1 -0.004785586949765357 -0.01136928631701966 0.0995102673433633 4 0 0 0 0
1885 1 -0.006134195479052047 0.002693397834714731 0.09648162725160478 4 0 0 0 0
1886 1 -0.002134657285762221 -0.01043620776482016 0.09640494437020039 4 0 0 0 0
1887 1 0.01225709688763793 -0.000987084206578217 0.09630697419237874 4 0 0 0 0
1888 1 0.004571990121713606 -0.001013698222477942 0.09750941338890778 4 0 0 0 0
1889 1 0.004897274737407486 -0.0005048033488482119 0.09700316188622801 4 0 0 0 0
1890 1 -0.004303469809047106 -0.004278949347460161 0.09753244402389748 4 0 0 0 0
1891 1 -0.00480360752116659 -0.004100506330824006 0.09702140742235793 4 0 0 0 0
1892 1 0.002186226952199403 0.008278240729164256 0.09748544698635112 4 0 0 0 0
1893 1 0.002457313209355651 0.008565728210062438 0.09697618461610258 4 0 0 0 0
1894 1 0.006826419468174687 0.0004548896134036815 0.0970083281211582 4 0 0 0 0
1895 1 0.006469386543488453 -5.723978432820156e-05 0.09750459911783334 4 0 0 0 0
1896 1 0.0006308999634125692 0.0003981415625961441 0.09701705952490911 4 0 0 0 0
1897 1 0.001160302380045023 0.0001419624718477961 0.0975173804280029 4 0 0 0 0
1898 1 0.0008576461897060604 -9.91229652861275e-06 0.09651580231377077 4 0 0 0 0
1899 1 0.001387048606338514 -0.0002660913872769608 0.09701612321686458 4 0 0 0 0
1900 1 -0.00285521635931245 -0.006010152962160401 0.09685205641629484 4 0 0 0 0
1901 1 -0.0026861533410762 -0.00648355147222737 0.09634101981475529 4 0 0 0 0
1902 1 0.002056745672990178 0.001511027034618985 0.0970048643026844 4 0 0 0 0
1903 1 0.002323250694255511 0.0020791247612551 0.09751970113643639 4 0 0 0 0
1904 1 -0.003604814350005927 -0.003880467695196711 0.09651317313092422 4 0 0 0 0
1905 1 -0.003471732993882929 -0.004282210548239095 0.09702420973246377 4 0 0 0 0
1906 1 0.01079124756337292 0.002361486820012004 0.09903288221299256 4 0 0 0 0
1907 1 0.01074728802970279 0.001676114310958916 0.09854022839950632 4 0 0 0 0
1908 1 -0.007786861447653197 0.002957009031726128 0.09698389954410375 4 0 0 0 0
1909 1 -0.007290960866328825 0.003305014246502469 0.09648162725160478 4 0 0 0 0
1910 1 0.0001591304149189298 0.01048148106367848 0.09685307999969484 4 0 0 0 0
1911 1 0.0002701766788258437 0.01090434818178198 0.09634025211410749 4 0 0 0 0
1912 1 0.007580694526507031 -0.002834655770021627 0.09899911917625903 4 0 0 0 0
1913 1 0.007067925741972882 -0.002363644165134268 0.09849539017293417 4 0 0 0 0
1914 1 0.002318956779636045 0.007674333850257895 0.09647060432127208 4 0 0 0 0
1915 1 0.001978832349590114 0.007694093340010621 0.09697986669152062 4 0 0 0 0
1916 1 -0.01003098916956612 0.007010559653303642 0.09699726807091555 4 0 0 0 0
1917 1 -0.009414209378902735 0.007152050876648396 0.09650518505054492 4 0 0 0 0
1918 1 0.0077841786487611 0.002225683258431388 0.09749928737045656 4 0 0 0 0
1919 1 0.008297200163514509 0.001975928338149369 0.09700421191451156 4 0 0 0 0
1920 1 -0.0009634467803127163 0.007611964590238546 0.09712810740780903 4 0 0 0 0
1921 1 -0.001068550367907786 0.007886790861496627 0.09664024547255545 4 0 0 0 0
1922 1 -0.0006393164592919263 0.007978586686349039 0.09632019270909731 4 0 0 0 0
1923 1 -0.000857417167932456 -0.007692098608626112 0.09717249231450287 4 0 0 0 0
1924 1 -0.0004229990440506901 -0.007790660179015019 0.09683147249974758 4 0 0 0 0
1925 1 -0.001274457605723656 -0.008049101420042705 0.09716868697015232 4 0 0 0 0
1926 1 -0.0008400394818418896 -0.008147662990431612 0.09682766715539701 4 0 0 0 0
1927 1 0.01160438504780465 0.002115694272065827 0.09953010753008631 4 0 0 0 0
1928 1 0.01210565621684123 0.001753631821490043 0.09921049393971962 4 0 0 0 0
1929 1 0.0001043249908573491 -0.01051468705597141 0.09649859451729764 4 0 0 0 0
1930 1 0.0005162830713383718 -0.01057490255531103 0.0970077881223092 4 0 0 0 0
1931 1 -0.001724917370737946 -0.007950200478855462 0.09664816416629513 4 0 0 0 0
1932 1 -0.001502514226214338 -0.008217838353326951 0.09630714435153981 4 0 0 0 0
1933 1 -0.002861929007929818 -0.0004697149087439011 0.09647013309433294 4 0 0 0 0
1934 1 -0.003206195703786439 -0.0006931833537234316 0.09699289907551481 4 0 0 0 0
1935 1 -0.009368462538101387 0.007181152666093747 0.09950518505054493 4 0 0 0 0
1936 1 -0.009941972538996376 0.006986518610824635 0.09899726807091555 4 0 0 0 0
1937 1 -0.008492961418075956 -0.004713072702010872 0.09951262268042782 4 0 0 0 0
1938 1 -0.008561853643270513 -0.004161333956960186 0.09901291486954915 4 0 0 0 0
1939 1 0.004029418383986383 -0.0002426017429092583 0.09900721179264671 4 0 0 0 0
1940 1 0.003876039660426265 -0.0008408316730592762 0.09851346329532648 4 0 0 0 0
1941 1 0.00368391534906873 0.01010468271516855 0.09647720678042068 4 0 0 0 0
1942 1 0.003238618991681938 0.009909560788794916 0.09698278707525121 4 0 0 0 0
1943 1 -0.003308647255055707 -0.007087261413202334 0.09685485555505105 4 0 0 0 0
1944 1 -0.00291077204159386 -0.007032044648329048 0.09634101981475529 4 0 0 0 0
1945 1 0.003014052704393473 -0.004926335270374565 0.09689615748540491 4 0 0 0 0
1946 1 0.00310389792538896 -0.004515098289142826 0.0964350007477377 4 0 0 0 0
1947 1 0.003220258374269235 -0.009267274701383442 0.09651439018578289 4 0 0 0 0
1948 1 0.003053522128523843 -0.008881105234077461 0.09697792943850325 4 0 0 0 0
1949 1 0.004440509135421395 -0.005556073677725426 0.09902739549251188 4 0 0 0 0
1950 1 0.003887930361386242 -0.005519809193317644 0.0984885522301791 4 0 0 0 0
1951 1 0.003525789443931152 0.009411853393535305 0.09947720678042068 4 0 0 0 0
1952 1 0.003063298056192018 0.009374153981147723 0.09898278707525121 4 0 0 0 0
1953 1 -0.006209054088661698 0.006154740387456694 0.09901480989173858 4 0 0 0 0
1954 1 -0.006651840802688175 0.006557999965332809 0.09851193199332792 4 0 0 0 0
1955 1 0.01076663520020705 -0.005131116691677085 0.09652329417182198 4 0 0 0 0
1956 1 0.01084049260929535 -0.005697423692742442 0.09701651646526618 4 0 0 0 0
1957 1 0.008415804701454109 -0.002653553352048802 0.09702059074571878 4 0 0 0 0
1958 1 0.008148845612784221 -0.003142238387515491 0.09752195612806025 4 0 0 0 0
1959 1 0.00378960009803593 0.003403349388621598 0.09899241074282651 4 0 0 0 0
1960 1 0.004341926958361129 0.003502470241950255 0.09947757390907452 4 0 0 0 0
1961 1 0.0117022610249917 0.00359038984401828 0.09902312498601895 4 0 0 0 0
1962 1 0.01123174903712072 0.003962415806961388 0.09949301745593261 4 0 0 0 0
1963 1 0.002759129457435674 -0.003451415306282957 0.0964350007477377 4 0 0 0 0
1964 1 0.002341258693743368 -0.003190570207977481 0.09693385976999966 4 0 0 0 0
1965 1 -0.003681623875690219 -0.0111906627726627 0.09840810973129901 4 0 0 0 0
1966 1 -0.003253038722373967 -0.01072750729220571 0.0988978423879357 4 0 0 0 0
1967 1 -0.004079537519479182 -0.01162900623134026 0.09900316536109864 4 0 0 0 0
1968 1 -0.00365095236616293 -0.01116585075088327 0.09949289801773534 4 0 0 0 0
1969 1 -0.01032255901619454 0.002939360872098379 0.09901032282323124 4 0 0 0 0
1970 1 -0.01012027931544226 0.003507996903464223 0.09850088393089665 4 0 0 0 0
1971 1 0.009503798693594094 -0.006812039065070128 0.09851624880418364 4 0 0 0 0
1972 1 0.008932810212171525 -0.006915564682764283 0.09902302651073946 4 0 0 0 0
1973 1 -0.009157943737465037 -0.001187188717178358 0.09700707322060564 4 0 0 0 0
1974 1 -0.009546342424495141 -0.0007829941577629485 0.09750487594419863 4 0 0 0 0
1975 1 -0.002018711662467912 0.002757382769253956 0.0990952836912383 4 0 0 0 0
1976 1 -0.002359425290005797 0.003184391218556641 0.09860958910520237 4 0 0 0 0
1977 1 0.009793016279790887 0.007298954572053585 0.0969963871800452 4 0 0 0 0
1978 1 0.00977212485601945 0.006699057036054357 0.09650730739691665 4 0 0 0 0
1979 1 -0.01160727842488038 0.001706536171340817 0.09748212935709377 4 0 0 0 0
1980 1 -0.0111902851617485 0.001253830557414864 0.09697407882636147 4 0 0 0 0
1981 1 0.0005523000270846511 -0.004074640648052643 0.09652061673500326 4 0 0 0 0
1982 1 0.0007284153652965238 -0.003602335536748145 0.09701947575726524 4 0 0 0 0
1983 1 -0.004893661540333396 0.009703548112567052 0.09700958781512853 4 0 0 0 0
1984 1 -0.004768932111137575 0.01042651517597611 0.09700043841616071 4 0 0 0 0
1985 1 -0.005465525520959869 0.009865195598589227 0.09753323089093871 4 0 0 0 0
1986 1 -0.005340796091764048 0.01058816266199828 0.09752408149197089 4 0 0 0 0
1987 1 0.0008882265920224827 0.009439022220494819 0.09666044482320479 4 0 0 0 0
1988 1 0.0006143171551033374 0.009608098524577401 0.09717327270879214 4 0 0 0 0
1989 1 -0.002136245063817283 -0.008807177483072 0.09630714435153981 4 0 0 0 0
1990 1 -0.00229071550748681 -0.008728041800038371 0.09680916794108697 4 0 0 0 0
1991 1 -4.059817550972332e-05 0.007462177581979425 0.09632019270909731 4 0 0 0 0
1992 1 -0.0001475095672728113 0.007356427614803929 0.09680805464435087 4 0 0 0 0
1993 1 -0.00048289210128198 0.007562412334911698 0.09632019270909731 4 0 0 0 0
1994 1 -0.0005898034930450681 0.007456662367736204 0.09680805464435087 4 0 0 0 0
1995 2 -0.006175763982007166 -0.0002739540129311963 0.0921855609574736 3.999936268205798 -0.02188726895229212 0.02918565839938588 -10.45943257119983 10.45949619086285
1996 2 -0.006128502378404631 0.0002993384139545511 0.09250779858837405 3.999941666236774 -0.02263482071241334 -0.01272982631981713 -10.46065323716692 10.46068547141331
1997 2 -0.003861099352501426 0.000364020254537014 0.09233333399836866 3.999938907300623 -0.04189109399122162 -0.08408294069856405 -10.46220206821385 10.46262380671361
1998 2 -0.005846480594365307 0.0008283452421552929 0.09215770151892033 3.999935872445477 -0.09208411518512813 -0.1210723417615763 -10.46188738120223 10.46299314599639
1999 2 -0.00341893738336907 0.0007912450541498926 0.07203395736894734 3.999597761169236 0.01749690922375657 0.01793572081508632 -10.51642827540947 10.51645812542157
2000 2 -0.003896015813180388 0.0003902763339612623 0.07263900090715869 3.99960795308539 0.003668607147751984 -0.003112847710967615 -10.49036724929305 10.49036835261468
2001 2 -0.003869504238584776 -0.0004270976322404303 0.09235503802007677 3.999939220592777 -0.04374033028180578 0.006423412732873499 -10.45950164788815 10.45959507815189
2002 2 -0.006174019454851987 -9.878522056283091e-05 0.07220854501116175 3.999600720056188 -0.0011239095030777 0.003423942950232605 -10.4903970420981 10.49039766107169
2003 2 -0.003413682321285581 -0.0008030649829984093 0.09169183718662736 3.999928104815072 -0.01558353546671946 -0.03274636669059824 -10.50662036076913 10.50668294831616
2004 2 -0.004513824369659343 0.0009194326859277478 0.08764527770484054 3.999860100736797 0.003047207516807945 0.005856742897387432 -10.47957572519597 10.47957780480815
2005 2 -0.004001690309645259 0.000304708130056506 0.08764344602983817 3.999860070588519 0.005728141794206952 0.002662345590724853 -10.47961343734395 10.47961534102528
2006 2 -0.006613333356708521 -0.0002755410235578418 0.08116287432936925 3.999751213493969 0.0005156865703581548 -0.004417871843384527 -10.48358531633069 10.48358625987828
2007 2 -0.00677237354158074 7.980769809542353e-05 0.07282327942088528 3.999611052906028 0.0003427403584634347 0.002469769886340398 -10.49224640073209 10.49224669700964
2008 2 -0.003521505699559772 0.000707500452143895 0.08432281659266638 3.999804302254626 0.002370944505347034 -0.0003853302381143375 -10.48125623468685 10.4812565099333
2009 2 -0.006749306297063308 0.0005091269742771046 0.09183814366705322 3.999930509654308 0.07687168117897347 -0.04989042967444289 -10.34880443610171 10.34921019049371
2010 2 -0.003895504210901574 -0.000410003637372917 0.07263709461225908 3.999607911130598 0.003745078381887177 -0.01229754522036871 -10.49024142702204 10.49024930363621
2011 2 -0.005954031581539413 -0.0007449769672093772 0.09217734202996974 3.999936156104543 -0.01838423918297306 0.02032867421479315 -10.45978860953893 10.4598245201096
2012 2 -0.00341764756236639 -0.0008095003828972449 0.07203211700979098 3.999597744141083 -0.005484257213156642 0.001189257208853245 -10.47360257922345 10.47360408259383
2013 2 -0.006305152256323616 -0.001005415921076234 0.08114733409191784 3.999750948279668 -0.0002310250796918868 -0.002559649732622181 -10.48359382414456 10.48359413916913
2014 2 -0.004000103916573531 0.0003031527571961205 0.08371896612721544 3.999794159940348 0.001975594869956345 -0.003025592897921947 -10.48529521361745 10.48529583626025
2015 2 -0.006638245926109071 0.0001440746669339781 0.08043281712368902 3.99973895028141 0.000325003423324514 -0.002438775572837951 -10.48690079709196 10.48690108570217
2016 2 -0.006040216766333202 -2.984932537815743e-05 0.08178142386695328 3.999761607119629 -0.0002509899345532501 -0.006037923367707162 -10.48636924424802 10.48637098553285
2017 2 -0.006040814689423952 -3.2744298749528e-05 0.07981961354169688 3.999728645025644 0.000487822031510047 -0.00265897696588033 -10.48728311424501 10.48728346267314
2018 2 -0.006130191946019594 -0.001384285925934075 0.07208690980196135 3.999598682744952 -0.007987787163834775 -0.002039691956566178 -10.50445468616278 10.50445792122251
2019 2 -0.006796567900665842 -6.41654526086428e-05 0.09151590603615278 3.999925111623332 0.06623150639937689 -0.07629246835874626 -10.36101110970754 10.3615036731476
2020 2 -0.005849960325211322 -0.00082461737494085 0.07265489725817792 3.999608232711475 -0.004307520832089189 0.01068486472143908 -10.49048920419448 10.49049552997334
2021 2 -0.005729587496923182 -0.0007619449160636288 0.07981401020117654 3.99972854600158 0.001381334536017383 -0.004842923480427369 -10.48735987967001 10.48736108883951
2022 2 -0.005732035665948297 -0.0007597242228965494 0.08176588362950186 3.999761341905329 -0.002018489209982286 -0.001798213211439722 -10.48651397908194 10.48651432752325
2023 2 -0.004448250410115075 0.0009878731679390713 0.09251730657120963 3.999941981889395 -0.08899556789939728 -0.03007058177417375 -10.45932429575165 10.45974613337698
2024 2 -0.004001465948184295 0.0003060554763657256 0.08568381792799318 3.999827163731493 0.003312229032675871 -0.0007794887443654193 -10.48437576628352 10.48437631846058
2025 2 -0.00337615657846648 0.0003068010206943076 0.08506109784266638 3.999816700990944 0.002140375740925289 9.195842338592987e-05 -10.48220222482731 10.48220244375385
2026 2 -0.006018837633223395 -0.001315000847898515 0.08041167354571727 3.999738586043045 0.001328966819685214 -0.004476376139011267 -10.4879120021014 10.48791304158834
2027 2 -0.003375501212469307 -0.0004948897690893277 0.08899171400856901 3.999882706520717 0.006102302201268527 -0.00355028153363403 -10.48219429840856 10.48219667589671
2028 2 -0.006467284513023983 0.001038133802477846 0.0914880465975995 3.999924715863011 0.0753251341254431 -0.05626810865955403 -10.34654955981025 10.34697674538282
2029 2 -0.003930522160451094 0.001405868505712283 0.07203395754078383 3.99959777732057 0.03715329147211573 -0.005186713099127992 -10.51644859811011 10.51651550589606
2030 2 -0.004407600590262411 0.001004899785523653 0.07263900107899518 3.999607969236725 0.01376141938974103 -0.01511226988784495 -10.49028901950227 10.49030893110659
2031 2 -0.005455783147480462 0.0007377574311894492 0.06975103510312566 3.99955941086475 -0.01271506236898481 0.02050864207018777 -10.47368711453753 10.47371491164621
2032 2 -0.005329454694919409 -0.001682524752767428 0.08040179539041395 3.999738418356995 -0.002038322820639298 -0.002053705482082702 -10.48793545470564 10.48793585385312
2033 2 -0.005279250597492454 0.001119962246675184 0.09212849140378107 3.999935429394394 0.03932005512104697 -0.03416445193362114 -10.46298008654931 10.46310974653511
2034 2 -0.004379731221067874 -0.001041468981222514 0.09222924740936325 3.999937027627886 -0.09900694374299782 -0.06038798986595169 -10.45992186095856 10.46056472766113
2035 2 -0.004382714658745623 -0.001019625683657878 0.0725942146275769 3.999607192445245 0.01562648236772844 0.001996106802460753 -10.49053842323917 10.49055025157646
2036 2 -0.003373436096197217 -0.0004964857230832351 0.08507795702546309 3.999816978282313 0.003437296137033611 -0.009704475295306275 -10.48220294943847 10.48220800523735
2037 2 -0.006175962380592535 -7.612092663725938e-05 0.07773073896122944 3.99969354481781 0.002255863104003799 0.0009712858281671295 -10.48839525794375 10.48839554551465
2038 2 -0.005040204558619196 -0.001129468820932542 0.07980413204587322 3.999728378315529 -0.002994628458945975 -0.002358812609138082 -10.48632908131629 10.48632977420872
2039 2 -0.005857328653381334 -0.000806798593651124 0.07773432296612488 3.999693604221828 0.002764169552200474 -0.0001963524571410102 -10.48839322665456 10.48839359273482
2040 2 -0.00390485801021044 -0.001419122429182205 0.0719892370251088 3.99959702545573 -0.001263024526417601 0.006428713782767774 -10.47359950614106 10.47360155527362
2041 2 -0.003998485291567497 -0.0004965558891875957 0.08960542619519635 3.999893017431408 0.004247018249809739 -0.005441038846126919 -10.47802343065532 10.47802570408327
2042 2 -0.003892800080297945 0.000400198840825561 0.07495668713410494 3.999646914729202 0.001604263564936773 -0.002592353637136143 -10.48991248866013 10.48991293165519
2043 2 -0.005174518663327285 -0.001173269876140904 0.0777442279497511 3.999693763599497 0.008609830821096646 -0.003143030147988501 -10.48837359602826 10.48837760083455
2044 2 -0.003923909303768678 -0.001417436331980493 0.09156604657591383 3.999925911850181 -0.04614941561156236 -0.06933311117950063 -10.50661461697815 10.50694472996627
2045 2 -0.005750646643086764 -0.0008666988778633118 0.07001038813012624 3.999563787718908 -0.005490155038386051 -0.006684514793674746 -10.47063693967244 10.4706405127372
2046 2 -0.005421737733504822 -0.001739022026318619 0.07201311485857213 3.999597440395414 0.003524700695073182 -0.007773054229212472 -10.50442667246153 10.50443013975572
2047 2 -0.003897385775599523 0.0004005403163940701 0.07769079583756799 3.999692870575219 0.0001927075473662794 -0.002707604644221432 -10.48839827462518 10.48839862588277
2048 2 -0.003998745465915032 -0.0004972312674118172 0.08570067711078988 3.999827441022862 0.003663043566682817 -0.009493179751235816 -10.48274570261904 10.48275064113079
2049 2 -0.004413220089510634 -0.001016583222331619 0.07772171260140458 3.999693379487367 0.002494035041320957 -0.004247669894131771 -10.4883915281764 10.48839268483178
2050 2 -0.005141506112696549 -0.001179353475325394 0.0725811023147887 3.999606990361938 0.01382451991518727 0.001582269091602421 -10.49051669903813 10.49052592741299
2051 2 -0.006170191575741231 -8.25709312870089e-05 0.07500811329265991 3.99964778187959 0.0009494748837814329 -0.001609776676370506 -10.48991749923632 10.48991766572397
2052 2 -0.004001690309645522 -0.0004966907328438158 0.08764344602983817 3.99986007410656 0.005713569487936123 0.002807178582954094 -10.47958854925566 10.47959048278215
2053 2 -0.003897713223390014 -0.0004012489606223654 0.07769447403524851 3.999692926152861 0.0001926779890219675 -0.007003231876534394 -10.48839633017947 10.48839867002126
2054 2 -0.006746374762608894 -0.0003270987153558892 0.07712098027377561 3.999683297043106 0.0002390664438309534 -0.001055476483077678 -10.49167794916227 10.49167800497715
2055 2 -0.006427741035397692 -0.001057776382369754 0.07712456427867104 3.999683356447123 -8.107822467659101e-05 -0.0003246629657030636 -10.49168175954073 10.49168176487732
2056 2 -0.003405277435202224 0.0007894517666793568 0.09167013316491925 3.999927800936659 0.01827097942498548 -0.004659377869216812 -10.56364610913497 10.56366293752
2057 2 -0.003892716735419972 -0.0004011002343204637 0.07498504469976895 3.999647391785984 0.001601824974764672 0.003222087044625906 -10.48991409501386 10.48991471216323
2058 2 -0.006074288089092734 -0.0001416817914263969 0.07002750801440842 3.999564063615863 -0.01431749055935537 0.0150501362147933 -10.47369516981923 10.47371576888693
2059 2 -0.005054123300551111 -0.001787028912628795 0.07713839121758789 3.99968357975813 0.006877848065480292 -0.0007075560234470489 -10.48504758579652 10.48504986549167
2060 2 -0.005262615905933476 -0.001118291798187879 0.09216060636217641 3.999935843530772 0.04275821508200978 -0.03557720278398958 -10.46311773328309 10.46326558502928
2061 2 -0.005810647572880767 0.001453864275655618 0.09271233690513395 3.999945202519953 -0.04586920609764646 -0.002196921944798695 -10.37919404331574 10.37929563117532
2062 2 -0.006581013708868195 -0.0007498101412482701 0.0927336764736594 3.999945457753401 -0.02380532224918736 0.02267859901362454 -10.45459233305965 10.45464403328446
2063 2 -0.004292824726734461 -0.00163034225881951 0.07711587586924137 3.999683195646 0.003229539832486731 -0.001413867468084955 -10.48511481645102 10.48511540914593
2064 2 -0.003520850333563211 -0.000895589200539646 0.08825343275856901 3.999870310975087 0.006707996168799254 0.0001433728672237082 -10.47586529376635 10.47586744240814
2065 2 -0.003270372529392924 0.0004004681295641105 0.0755821123458936 3.999657426350743 0.0009542685706409582 -0.002329272387210537 -10.4907522547403 10.49075255672714
2066 2 -0.005961205345368205 0.0006685146041879056 0.07220479312029578 3.999600654337195 -0.001639859429856037 0.001648969497010109 -10.49036801014623 10.4903682679179
2067 2 -0.006276539640568407 -0.001269258362456718 0.09150920539620176 3.999924913646731 -0.01599027295886935 -0.05482695600801495 -10.52323698473702 10.52339195891094
2068 2 -0.005849858181600182 -0.0008117480558553567 0.0750099151341807 3.999647807383626 0.002479201057749266 -0.005081905474079104 -10.48991108760792 10.48991261155786
2069 2 -0.004000543109171702 -0.0004987712494047513 0.08372202565795281 3.999794212652733 0.001215190130088431 0.004537507161547635 -10.48398081004668 10.48398186239777
2070 2 -0.004033500674286423 0.001322199455122564 0.08432102321932064 3.999804278304997 0.006281504211512393 -0.00494234647879665 -10.48121544468673 10.4812184922376
2071 2 -0.003270372016508757 0.0004004675156234803 0.07705783219015661 3.999682231954064 0.0009727273949053597 -0.003044938861550297 -10.4893769797358 10.48937746679289
2072 2 -0.006559559432096959 0.00084710752284616 0.07281952753001932 3.999610987187034 0.0001254737085724423 0.001694691916791186 -10.49224209201528 10.49224222962764
2073 2 -0.004512098891300181 0.0009178517601747893 0.0837171727538697 3.999794135990718 0.003548098143461016 -0.004897519064158408 -10.48533047022104 10.48533221430963
2074 2 -0.00327028918451495 -0.0004008309455819142 0.07561046991155762 3.999657903407526 0.0009523329843327656 0.002901370764844184 -10.49075350244071 10.49075394687448
2075 2 -0.005910754183211129 0.001294607960723389 0.07025824405021616 3.999567886879205 -0.0173438056543954 0.0284828412231157 -10.46145924388316 10.46151239502526
2076 2 -0.005815540233162738 0.001256289854048649 0.06912589499333785 3.999548891560759 -0.01410539245236852 0.0217365555653341 -10.48030533530579 10.48033736867202
2077 2 -0.005042178531342109 -0.001129408715876813 0.0817562790835972 3.999761182867972 -0.003482566028876516 -0.0008024151049295779 -10.48684001464631 10.48684062360648
2078 2 -0.003270699464299248 -0.0004013217613929552 0.07706151038783712 3.999682287531704 0.0009740708929322536 -0.006675299675085991 -10.4893771250743 10.48937929433729
2079 2 -0.003519224409888681 -0.0008977102982345195 0.08434273530620046 3.99980463225838 0.004413176211459574 -0.003624698245327332 -10.47245142527002 10.47245298242975
2080 2 -0.004034664715969541 0.001321834059966229 0.08825306462673518 3.999870282137394 0.01809722485834825 0.005213880323855266 -10.45678212001694 10.45679908000539
2081 2 -0.003522530655955457 0.0007071095040949875 0.08825123295173282 3.999870251989116 0.007745850485366125 0.01740783309012781 -10.45682257066055 10.45683992921038
2082 2 -0.006745190165943334 -0.0003332066304964994 0.07565674346440611 3.999658684347583 0.0006732966550082741 -0.001914844877546501 -10.48944964072038 10.48944983710624
2083 2 -0.006413634022098038 0.0009089221927148795 0.08043851776866909 3.999739049449671 0.0001733401438879249 -0.00325033129522164 -10.48689761228418 10.48689811742404
2084 2 -0.004408036989552123 -0.001016401260929687 0.07501602115050766 3.999647912377142 -0.002952779977735956 -0.002225316624548752 -10.4899337982201 10.4899344498421
2085 2 -0.006316738207792159 -0.001114183343915453 0.06940875191497883 3.999553676086071 -0.01372134781447231 -0.004674345599833239 -10.48303205487238 10.48304207701059
2086 2 -0.004515612615021872 0.0009211461514102926 0.08568939607913986 3.999827259610678 0.001955135915783145 0.0008040096269161037 -10.48439916422382 10.48439937734943
2087 2 -0.004028374166978415 -0.001509449404726676 0.08825935763148046 3.999870410430988 0.00219958995124157 -0.008533483078264476 -10.47583900978659 10.4758427163401
2088 2 -0.004925912183413443 -0.001742624318925411 0.08112785139070985 3.999750621556261 -0.002476392418593526 -0.001877637518460195 -10.48873421637516 10.48873467677589
2089 2 -0.004509214143060727 -0.001110550937030845 0.08764937090274963 3.999860173562461 -0.003088239241197996 -0.008965365841068596 -10.48377669139649 10.48378097968832
2090 2 -0.005841721991968916 0.0006093772564317786 0.06790507270812461 3.999528481658631 -0.03009525462106994 0.01935025132357071 -10.41826943353188 10.41833087141321
2091 2 -0.005168635510759172 -0.00117413865382803 0.07501409779337309 3.999647875784794 -0.003120470270640884 -0.002254702790214473 -10.48993438809245 10.48993509453246
2092 2 -0.00581620278541292 0.0007321032270313734 0.07982531418667695 3.999728744193905 0.0003604470909333215 -0.003147572840826404 -10.487208769533 10.48720924807485
2093 2 -0.003992428492815872 0.001413304680081414 0.09185410573776022 3.999930875525431 -0.03452797883336663 0.05730533238929093 -10.56135693681546 10.56156884318152
2094 2 -0.006049327451312787 0.0006032072803162918 0.08568680269217585 3.999827235744969 0.00307944818726076 -0.009316323535873815 -10.48265648932534 10.48266108152314
2095 2 -0.005585123964962468 -0.00164257319343522 0.09149246972840842 3.999924601072961 0.003705786064726522 -0.06425312202920579 -10.51685736132292 10.51705429076759
2096 2 -0.00505021404255311 -0.001221619048479624 0.07000128028319876 3.999563641079201 -0.01025668108641701 -0.003551712800334037 -10.47177601501156 10.4717816403295
2097 2 -0.006048056470992035 -0.0001566396324795621 0.06792857660276504 3.999528889329785 -0.02942091424332326 0.02156003726531166 -10.41830701250196 10.41837086267087
2098 2 -0.006424856771802285 -0.001062383755064847 0.0756585453059269 3.999658709851619 0.002058116281454878 -0.005076076338514686 -10.48943422895102 10.48943565907542
2099 2 -0.003377181534861818 0.0003064100726449841 0.08898951420173282 3.999882651052788 0.001638130379920884 0.03071320368296272 -10.48219415346363 10.48223927676041
2100 2 -0.005340140496154159 0.001037682682504705 0.08592992086150342 3.999831312084654 0.01547394268270819 -0.002100361978207002 -10.48669723688082 10.48670886372014
2101 2 -0.005455716096170266 0.001049253830282017 0.08974390397054838 3.999895358454952 -9.980957820292997e-05 -0.002732482117951714 -10.47758607610788 10.4775864328895
2102 2 -0.004506295834632994 -0.001110470892411492 0.08960543318790623 3.999893004665759 -0.003698838574879799 -0.01900136822695471 -10.47365944605665 10.47367733536664
2103 2 -0.006640379653798127 -0.0003891662574785378 0.06942587179926102 3.999553951983026 -0.01835652311053276 0.009732110592639755 -10.48306888557812 10.48308947475377
2104 2 -0.004513134303984817 -0.00111236553800357 0.08571145000682928 3.999827621103092 0.007624441854908392 -0.00280171780581788 -10.48489221943684 10.48489536595113
2105 2 -0.006046325616927791 0.0006080188699646812 0.08962831703032442 3.999893427993585 0.02054711699853684 0.009695884857202857 -10.48454262131752 10.48456723820415
2106 2 -0.004000165613960007 0.0003047439525467161 0.08960322638836016 3.999892961963478 0.002892450791837904 0.02978317613807946 -10.48448441044344 10.48452711173394
2107 2 -0.004018810839491135 -0.00150999816873347 0.08436174169549962 3.999804949708063 0.00321959969026642 -0.005917079026165108 -10.4724444622482 10.47244662877397
2108 2 -0.006466158710788202 0.0008006822009784042 0.06862214957770015 3.999540452465173 -0.004868999266578185 0.03349182528840062 -10.45833529158172 10.45839005204237
2109 2 -0.004404981791443457 0.001014932143730118 0.07495485537408023 3.999646891106965 0.00490507989119584 -0.00653273597774534 -10.48989866109695 10.48990184208277
2110 2 -0.004271345396905861 -0.0009753964172854269 0.07981068182340241 3.999728493084714 -0.003631750174738442 -0.002377229770962693 -10.48614913394843 10.48615003231587
2111 2 -0.005954100696726279 0.0006895633581198842 0.0777319766266735 3.99969356604089 0.001209905555300223 -0.002654731692361927 -10.48839687988775 10.48839728564431
2112 2 -0.005953610748963988 0.0006847584985969212 0.07502402507878146 3.999648053478472 -0.000120038800672818 -0.005373806605491802 -10.48992236749618 10.4899237446372
2113 2 -0.006672493189811319 3.466531206706346e-05 0.06864565347234057 3.999540860136327 -0.01628582979246725 -0.005252923854342391 -10.45846998378893 10.45848398302904
2114 2 -0.004409988487032238 0.001015350733939774 0.07769079383565039 3.999692873374817 0.0002003074409220185 -0.002716714146934354 -10.4883982533141 10.48839860706967
2115 2 -0.004154997409107965 -0.001590340619301376 0.08112769314875774 3.999750621502466 -0.0008875809401555652 -0.001927229132106084 -10.48873288263557 10.48873309724738
2116 2 -0.004271263757036631 -0.0009771250162527783 0.08175612084164509 3.999761182814177 0.0002051686095619784 -0.0003407867790820551 -10.48577460736695 10.48577461491192
2117 2 -0.004500129538774157 -0.001111059119903702 0.08374103204725197 3.999794530102416 -0.007625755366162457 -0.007245426162717143 -10.48813021235699 10.48813548728756
2118 2 -0.006450109218000365 -0.00103000550936902 0.0870447346459598 3.999850029192328 0.007654051689454685 -0.0104294675798633 -10.48069723520435 10.48070521932191
2119 2 -0.006163479790921841 -0.00134504097440851 0.08631512559309279 3.999837775016926 0.004162109713871729 -0.00656446027355826 -10.47177232568839 10.47177521036186
2120 2 -0.006773415359911494 0.0001219428670092191 0.08630775804722536 3.999837673833814 0.009412165803510468 -0.008565478934895303 -10.49260283107207 10.49261054871075
2121 2 -0.00341764756236639 -0.0008095003828972449 0.07055922922441787 3.999573010927463 -0.005168849728678114 -0.001696961820289202 -10.48697704189452 10.48697845301065
2122 2 -0.003417711488393533 0.0008014710497295534 0.07842118349167441 3.999705146480345 0.0003731331008440514 -0.002147109202241822 -10.48762705486496 10.48762728128921
2123 2 -0.006753025013942881 -0.000296593757756543 0.08704100989332163 3.999849986040695 0.009714966222907583 -0.01540531959067718 -10.48066891051997 10.48068473509151
2124 2 -0.004883804947846075 -0.001407326027278214 0.06576143018495341 3.999492938938712 -0.09228812266945294 -0.3665891411541897 -9.842141714942612 9.849398876734128
2125 2 -0.005067112277903485 -0.001780797863891935 0.08704970257072916 3.999850095073289 -0.0007133504663841034 -0.005514647812009949 -10.47875566555171 10.47875714092761
2126 2 -0.00341816267681814 0.0008032189954792629 0.08628859497295044 3.999837315976347 0.004630879246378088 0.003544301879341098 -10.4780607225529 10.47806234533009
2127 2 -0.00429085786248354 -0.001062172600704283 0.06996380079211399 3.999563013162192 0.01266387056377641 0.0006491155711336017 -10.46744055524023 10.46744823595783
2128 2 -0.005475902293437349 -0.001719894476654005 0.08631769297286607 3.999837810132505 0.003354288606150441 -0.006133740611182623 -10.47178001474395 10.4717823483501
2129 2 -0.003912235759037701 -0.001420743183715839 0.07058522992893977 3.999573444438316 -0.002778411096899107 0.001269756922349461 -10.48697885264042 10.48697929756602
2130 2 -0.004292571162296708 -0.001630439450557683 0.08704176160427769 3.999849964498457 -0.001545388826479078 -0.005667224609738261 -10.47874320489064 10.47874485135043
2131 2 -0.003796269665812229 -0.0004509297998856888 0.06993780008759208 3.99956257965134 -0.0007147136794602233 -0.01412925397676692 -10.46923617666603 10.46924573545995
2132 2 -0.00341607820378695 0.0007994499014197888 0.08235315581485927 3.999771214784047 0.0008591336442024058 -0.001609341571957176 -10.48552909317071 10.48552925186994
2133 2 -0.006543481091496189 0.0008820252748077318 0.08629579595094641 3.999837478931063 0.009760332043844364 -0.007426426673394685 -10.49260675721477 10.4926139249209
2134 2 -0.006279261719728092 -0.0001568751274822208 0.08569876478845478 3.99982743064772 0.005714806186900027 -0.003905006753876923 -10.48427245981307 10.48427474457257
2135 2 -0.005904826707241898 0.0009405419519595437 0.06590497129408253 3.999495200683266 -0.5040217434555296 -0.06932502394985492 -9.89855248666888 9.911618697678007
2136 2 -0.006771972234493691 8.63519971824931e-05 0.07428946753785103 3.999635701708846 -0.0003850960088524622 -0.0002147977503332927 -10.4924714491094 10.49247145837495
2137 2 -0.003270658490811454 0.0003999538871214207 0.08702506383532681 3.999849681444284 0.004692752206248526 0.003385314456148486 -10.47779760016956 10.47779919794211
2138 2 -0.006146100190603766 -0.001360843828740564 0.07847791593091953 3.999706097219686 0.003316682304439746 -0.004692652919445185 -10.48191563829683 10.48191721345597
2139 2 -0.005283755258667504 -0.001260909350365097 0.08765731186920109 3.999860304137293 0.001223517397546645 -0.007394388145285469 -10.48253831641302 10.48254099581957
2140 2 -0.006775961110315738 9.903445558740115e-05 0.07847993526654445 3.999706136839733 0.001727178114496562 0.001605844792382015 -10.48726100314811 10.48726126832133
2141 2 -0.003270658490811718 -0.0004014449757789011 0.08702506383532681 3.999849684962326 0.004694292246723989 0.002093641880570795 -10.47779760935888 10.47779887010639
2142 2 -0.004292227834961694 -0.001629818207908439 0.07566857327754452 3.999658878778472 -0.003085003127489226 -0.002765393568173053 -10.48928527951155 10.48928609771054
2143 2 -0.006438344554183262 -0.00104984100019342 0.07920072742521815 3.999718242469918 0.003974921496484056 -0.005385702207109802 -10.48359613567273 10.48359827262002
2144 2 -0.006746612701151931 -0.0003548385620265632 0.07139251627439978 3.99958699896096 -0.003270505052026876 5.121145291482716e-05 -10.49585497781574 10.49585548748482
2145 2 -0.003268333200191964 -0.0004023655515484335 0.09095355593662736 3.999915686714815 -0.004801174124367153 -0.02550753025450528 -10.52474252953132 10.52477453432129
2146 2 -0.005814445567459258 0.0007330967622482138 0.08178490380725668 3.999761671352994 0.0002751007627731424 -0.003547144027451977 -10.48601889686789 10.48601950042921
2147 2 -0.004890266658880333 -0.001403523789332054 0.094740864794334 3.999979071437924 -0.05466852424037865 0.03649017441882155 -10.37665911932941 10.37686728541586
2148 2 -0.006751122389950676 -0.0003094727156003355 0.08312843545641775 3.999784239170873 -0.0003661997911387533 -0.004518565211226456 -10.4888477214035 10.48884870108847
2149 2 -0.003771729713838809 0.00033393661775352 0.06789377791202234 3.999528143721061 0.07239274751901183 0.1496300212455826 -10.42986380154655 10.4311882722901
2150 2 -0.006749571746684033 -0.0003206403828793194 0.07920633076573849 3.999718341493983 0.001864677937296872 -0.0005304095288095813 -10.48362124300885 10.48362142225789
2151 2 -0.006282090497222407 -0.0001515587464752 0.08765118657156684 3.999860230220278 0.008967100996542679 -0.01657505774266232 -10.48263836852426 10.48265530801697
2152 2 -0.003920613136892964 -0.001415924566796742 0.09021751974339486 3.999903277508563 -0.009913038008781206 -0.01843203794143541 -10.48244476127692 10.48246565372704
2153 2 -0.004346230137931353 -0.001090418738678251 0.06759245859892396 3.999523177705771 0.09536415566675599 -0.05869682413792947 -10.43943448893086 10.44003506162834
2154 2 -0.006774533105185544 0.0001099257675475355 0.08239359574766925 3.999771894140788 -0.0002938899329784706 -0.00598597958448931 -10.48630090451627 10.48630261714688
2155 2 -0.003417239837797409 -0.0008030065931814792 0.08235805270291008 3.999771297452383 0.0002428688216869368 0.002125752866683913 -10.48833166132847 10.48833187956196
2156 2 -0.005896074512573298 0.000944696528704916 0.09441261867661069 3.999973477067818 -0.0379808292611817 0.02119082518869938 -10.40987877549198 10.40996963083476
2157 2 -0.006421794609600419 -0.001081047707908705 0.07139868677351237 3.999587102399066 -0.001950223569010909 -0.002989406452068962 -10.49584455472765 10.49584516163082
2158 2 -0.003761011323020536 -0.0003627489131198771 0.08175514078066096 3.999761165920793 0.0008455856358396885 0.000215355745175939 -10.48555057576869 10.48555061207547
2159 2 -0.00327379910141704 0.0003907981393758488 0.07129560718136117 3.99958535663469 -0.003572718677348959 0.03384953216911372 -10.47803995756002 10.47809524233156
2160 2 -0.005979174701279891 -0.0008849704980876766 0.087654911324205 3.999860273371912 0.006859200845135627 -0.01026171527161898 -10.4818723438586 10.48187961123311
2161 2 -0.003760288881608248 0.0004377835748805192 0.08175330342334751 3.999761135964842 0.0008117188587415068 -0.001762348150970974 -10.48572184624938 10.48572202576771
2162 2 -0.003272362880184406 0.0004007722322205938 0.07916030739741142 3.999717566527051 0.0001758815792916748 -0.001678942133704533 -10.48853832939264 10.4885384652448
2163 2 -0.003412914953950345 0.0008008770574850834 0.07421058122579753 3.99963437275027 0.001969011345873207 -0.001412063583861553 -10.49158603767517 10.49158631746743
2164 2 -0.003412802593827467 -0.0008020095635728457 0.09021751275068499 3.999903290274211 0.003393253098924573 -0.002486489954957447 -10.48238655362412 10.48238739774478
2165 2 -0.003417625598899111 -0.0008012217920646903 0.07844461677757236 3.999705533919903 -0.001308686447207271 -0.002400873971156242 -10.49511872281404 10.49511907902039
2166 2 -0.005972241946680955 -0.0008904472172874735 0.08570240758168404 3.999827488679199 0.003108016570714827 0.002754804040247824 -10.48502498662898 10.4850258091693
2167 2 -0.003273020882693174 -0.0004096673263371094 0.07129567311710443 3.99958538156133 -0.00308783800980889 0.00307342178268522 -10.47804002267566 10.47804092841109
2168 2 -0.005252934633388614 -0.001741516209035209 0.09286283085024977 3.999947685937934 -0.0122218820920458 0.09786123943101746 -10.61728582489395 10.61774385093551
2169 2 -0.005284664449196462 -0.001265300719532968 0.08570497496145732 3.999827523794778 0.01287437326577142 -0.001591579515441704 -10.48623774410903 10.48624576808065
2170 2 -0.003248536708023131 0.0003751320690048414 0.06728467236310487 3.999517757566487 0.1931937493748108 0.08783709131392009 -10.60179802174913 10.60392193829112
2171 2 -0.006270511268893404 0.001813140383582588 0.06963310394042833 3.999557367575214 -0.02652450933700529 0.04083752026753269 -10.46775312126575 10.46786638529677
2172 2 -0.003933132465019731 -0.001416556053773944 0.07847185534372841 3.999705987254409 -0.002582014767835134 -0.00393300919662424 -10.4951153900953 10.49511644465067
2173 2 -0.005052826356168744 -0.001787555600806782 0.07566664992040993 3.999658842186125 -0.002770456873219977 -0.002704863917765944 -10.48929098897925 10.48929170359951
2174 2 -0.003238115273403237 0.0003656863746352819 0.09319618431174131 3.999953424472265 -0.05185764688700255 -0.0794801124566317 -10.47633143610722 10.47676126782438
2175 2 -0.005283962266291384 -0.001260677133935186 0.08960543851850739 3.99989300052768 0.0055721559198963 -0.01676430720226025 -10.47614355813216 10.47615845343662
2176 2 -0.005463290200549717 -0.001727315111230344 0.07848782091454576 3.999706256597355 0.004194443593559758 -0.005143375620845237 -10.48190029699522 10.48190239812499
2177 2 -0.006156035908267426 -0.001353156193789829 0.08238169823563658 3.999771681722028 -0.001487334789718194 -0.005888777852696743 -10.4810371443835 10.48103890422204
2178 2 -0.003929831032618925 -0.001416600881790354 0.08631622705178657 3.999837776865987 0.003946116926103319 -0.002420373368279136 -10.4902820218635 10.49028304328718
2179 2 -0.003248536708023246 -0.0004262667938953542 0.06728467236310487 3.999517810222406 0.1972260163410104 -0.007292464075497718 -10.60179816092876 10.60363501477802
2180 2 -0.006440806293417463 -0.001042679779419308 0.08313207818183649 3.999784291966413 0.001649714079094093 -0.009281406585117689 -10.48882301345806 10.48882724968393
2181 2 -0.003271451524113736 0.0003996168448596543 0.08309327442217272 3.999783647110749 0.001215257162633542 -0.002481015392307758 -10.48393197267971 10.48393233667898
2182 2 -0.005088224854194163 0.001278789514550912 0.06596688032684586 3.999496290369976 0.1946204629765686 0.2920700347099817 -9.887856099784928 9.894083094447849
2183 2 -0.006130112808984383 -0.001385441266343765 0.07066880741320354 3.999574836018023 -0.006786698434750153 0.002364028538631816 -10.48355892034055 10.48356138362143
2184 2 -0.006279665213788186 -0.0001612451931112313 0.08374354255457167 3.999794576069732 0.0009827741392329156 -0.002406827339688275 -10.48538373641758 10.4853840587073
2185 2 -0.00590297665993264 0.0002635235389975364 0.09502120600654487 3.999983653511458 -0.0360619127512725 0.02642592739853268 -10.41136762999179 10.41146362035765
2186 2 -0.00341544219454914 -0.0008014666111986016 0.08630545415574714 3.999837596785758 0.00208859094006714 -0.004651040054125266 -10.49028696196361 10.49028820093754
2187 2 -0.003927492271813504 -0.001417382696314381 0.08235903276389422 3.999771314345767 -0.00163485848160882 -0.0001293388594992042 -10.48833576192266 10.48833589013608
2188 2 -0.003267565832857052 0.0004001776260354935 0.07347229997579753 3.999621958791057 0.002249722494247332 -0.002115126734859379 -10.49286353286478 10.49286398722179
2189 2 -0.003271949542899493 -0.0004001313325572145 0.07918006248562884 3.999717898388969 0.0001762452927700414 0.001453500275886581 -10.48853919715219 10.4885392993459
2190 2 -0.003771729713838923 -0.0004674622451466755 0.06789377791202234 3.999528196376981 0.08757338730635171 -0.06779907111393765 -10.43854254371323 10.43913005231371
2191 2 -0.005245312859185423 0.001116866749599929 0.07242000145925008 3.999604286438901 -0.01755842746272499 -0.009355382765530978 -10.49008915977506 10.49010802621174
2192 2 -0.005429680208450728 -0.001740361436960078 0.07065969956627607 3.999574689378316 -0.003052340158319934 0.0004993181923064622 -10.48357113228154 10.48357158852392
2193 2 -0.003761922679098997 0.0004398053371309116 0.07979092375589966 3.99972816401555 -0.0006523256868550403 -0.001071717375873154 -10.48708816550742 10.48708824055718
2194 2 -0.005066151625825226 -0.001783836187552114 0.07920075425354105 3.999718234161537 -0.000786638089100133 -0.004434262600225529 -10.49066728502435 10.49066825166846
2195 2 -0.005476609544879543 -0.001714444852809798 0.09021258927367744 3.999903146690378 -0.02291296096583949 -0.03098707189133922 -10.43150896673904 10.43158015477817
2196 2 -0.005339727464576445 0.001039054696384236 0.08789355617666592 3.999864322820428 0.07556632738478768 -0.01443807680278486 -10.4678023177954 10.46808502508166
2197 2 -0.004241898453179733 -0.001676989160220162 0.06805140993405079 3.999530835413201 0.07245535972473847 0.007834031107849446 -10.52918749421063 10.52943970206571
2198 2 -0.003271890716711907 -0.0004023071617412174 0.08309633395291008 3.999783699823134 0.001203136207930846 0.00452901863214286 -10.48393211045033 10.48393315774562
2199 2 -0.003412320006793557 -0.0008007019889951205 0.07423703249656192 3.999634807852261 0.004589939805430445 -0.007410201483509897 -10.5038188682307 10.50382248494483
2200 2 -0.005466178773661238 -0.001722840686770092 0.08237209368973192 3.999771522684671 -0.007358957972527516 -0.00282932009028078 -10.48099694983044 10.48099991516408
2201 2 -0.003761509341814083 -0.0003610982276468966 0.07981067884411708 3.999728495877467 -0.0005430826941964546 0.0009881853245547771 -10.48728352581062 10.48728358642923
2202 2 -0.004281729580330457 -0.001628971135373069 0.08311632040319339 3.999784034166201 -0.005273241814342924 -0.002431113165804663 -10.48104879142307 10.48105039991611
2203 2 -0.00590499320846914 0.0002626882572445348 0.06539484685866125 3.999487152182226 -0.4365439665972705 0.1387513127894792 -9.838680388237609 9.849337761670306
2204 2 -0.005723636523470866 -0.0008840590289291437 0.06798264222961709 3.999529779587569 -0.003362907755172291 -0.05718705994885569 -10.42454712052741 10.42470452037229
2205 2 -0.005049501307872713 -0.001782145426204747 0.08312922308707896 3.99978424245131 -0.007342698224601082 -0.002831932904409164 -10.48100443323868 10.48100738787212
2206 2 -0.004631941150988527 0.0009297072251459748 0.08947182716783939 3.999890763099621 0.03242381669911423 -0.005009189608763448 -10.48434521593129 10.48439654928653
2207 2 -0.004370049948523013 -0.001664693392069843 0.09293147189743661 3.999948870035048 -0.02816483014770357 0.09869297626557109 -10.62086297243633 10.62135885094231
2208 2 -0.006774255597997641 9.260435183715409e-05 0.07638999780825438 3.999671010397099 0.0007421532387146766 -0.002091132091338041 -10.48979383736318 10.48979407204962
2209 2 -0.006741439203289095 -0.0003393740366914934 0.07355746887954942 3.999623396453418 -0.000333329878356804 0.001161077260536764 -10.49008146508955 10.49008153464141
2210 2 -0.005267901266316413 -0.001264233410735379 0.08375393473113754 3.999794738387525 -0.004101693716835156 -0.005902456574597815 -10.48713067832674 10.4871331414828
2211 2 -0.004297292464111892 -0.001629763783904998 0.07920730403107024 3.999718348930721 -0.004782513613045242 -0.005167576619061872 -10.49061721520107 10.49061957808773
2212 2 -0.003415721137602051 0.0008011669470730702 0.07631955094015661 3.999669824304495 0.0009558805554022586 -0.002249004056047796 -10.4906549230964 10.49065520771766
2213 2 -0.005969349117254973 -0.0008944522569302039 0.08374718527999042 3.999794628865271 0.003444216721092926 -0.009628291251181203 -10.48627543528521 10.486280421164
2214 2 -0.004521091131904422 0.001546097901115484 0.08885994665621441 3.999880482337208 0.03225920845313988 -0.004326306930379228 -10.4863451650768 10.48639567699938
2215 2 -0.006128252906924694 -0.00137107760219753 0.07424879061818548 3.999635021366595 0.001801710786970189 0.004543030919929917 -10.47711330170225 10.47711444158161
2216 2 -0.005079472659525562 0.001282944091296285 0.09441261867661066 3.99997354703029 -0.07621230964600767 0.001883524326052412 -10.40961524012334 10.40989439481561
2217 2 -0.004390835588950009 -0.001722664976500253 0.08899764587419032 3.99988279321097 -0.002091751363755108 -0.01273436883135773 -10.4657318484623 10.46573980488199
2218 2 -0.005403120024306334 -0.0009489407905527005 0.06542218785203659 3.999487693448724 -0.2167406889729515 -0.2909793736615368 -9.884639147429638 9.891296001892343
2219 2 -0.003267054230578237 -0.0004001023452986858 0.07347039368089792 3.999621916836265 0.002254577892757488 -0.01333783311429125 -10.49286342311261 10.49287214241211
2220 2 -0.005103595402534567 -0.001249629764334347 0.06763969570030494 3.999524017419494 0.001950501096905466 -0.06052789593448019 -10.42543014588996 10.42560603310291
2221 2 -0.004920619964407624 -0.001823855540392491 0.06940242180006929 3.999553591458823 -0.01058170625161896 -0.003093612482214899 -10.471075838504 10.47108164224917
2222 2 -0.005408850083253013 -0.0009448355365235686 0.09506476014810317 3.999984423298665 0.0006693598934262193 0.002313850066747513 -10.3957118395575 10.39571211861221
2223 2 -0.004115446142704453 -0.001162454729922692 0.06576340197240799 3.999492974258708 0.315520159750652 -0.2031225187104942 -9.848244960652913 9.855391444982887
2224 2 -0.006756083874367312 -3.099654465608752e-05 0.093828376872755 3.999963744886081 -0.02740217193234646 0.0638567990971282 -10.44131299551229 10.44154421721573
2225 2 -0.005979454980535912 -0.0008838071529847267 0.08953095826106872 3.999891766549928 0.005412171667771607 -0.01669128860152724 -10.4761188938057 10.47613358868004
2226 2 -0.006279704213028064 -0.0001502285871546967 0.08952782245566523 3.999891737862141 0.006300177756976269 -0.01910209336594703 -10.4758528690612 10.47587217927121
2227 2 -0.00617210225912407 -0.001337574871859338 0.09013810901623877 3.999901912712625 0.00153947564843883 -0.04439837663435864 -10.43140481305593 10.43149941090347
2228 2 -0.006537268755145632 0.0008883211066599637 0.09023394949794165 3.999903660031626 0.0622067944054442 0.02650636709726584 -10.54387360225682 10.54409042132772
2229 2 -0.006770647351245907 0.0001300736495405857 0.09013345492328247 3.999901969900183 0.03984391973175175 -0.04536785094668849 -10.54365414446261 10.54382703281321
2230 2 -0.004073034414237988 -0.000471394632248026 0.06542415963949116 3.999487738121423 0.3753679978281233 -0.07863565441620973 -9.884661688861888 9.892098938202796
2231 2 -0.006707943007125996 0.0005401816792810042 0.09345131032484214 3.999957422117958 -0.04742500984737265 -0.01138734080023747 -10.39109316668721 10.39120762961953
2232 2 -0.005686545937404243 0.001558441534216372 0.08531609854281744 3.999821006658646 0.01525222151985558 -0.0007988593971532389 -10.48908211978984 10.48909323936691
2233 2 -0.004114161246255537 -0.001161922464252668 0.09475450570329397 3.999979309837206 0.01345860496616142 0.06350779812953279 -10.37545680493462 10.375659896389
2234 2 -0.006410919552492921 -0.0001433974119304138 0.09462708024243799 3.999977096321181 -0.01413831570869002 0.06560979241807391 -10.3931113710918 10.39332807664369
2235 2 -0.004402298220030708 0.001536590698717543 0.08506488262046732 3.999816772920499 0.004308420361923109 -0.00357265210112608 -10.477208112098 10.47720960707293
2236 2 -0.004071017865701493 -0.000470559350495031 0.09507840105706314 3.999984661697947 -0.01364401829483244 0.007521245339757392 -10.39208349600629 10.39209517452246
2237 2 -0.006418053269861146 -0.001067626511503169 0.07351499011836307 3.999622690607131 -0.004550615884220675 0.01071536229015508 -10.49012588034161 10.49013234008546
2238 2 -0.003246520159486587 -0.0004254315121421623 0.09321788833344943 3.999953737764419 -0.05513749354033981 0.0002441232267866899 -10.47633225430797 10.4764773519272
2239 2 -0.006135288476645391 -0.001367250439745058 0.07639538365467062 3.999671095305152 0.0006508236046972098 -0.002189007758714835 -10.49481073748109 10.49481098595276
2240 2 -0.005239594768546081 0.001128651713527908 0.07475146720174811 3.999643476343653 -0.000410521164799239 -0.00557518483097831 -10.48991157587296 10.48991306545707
2241 2 -0.005241095051131527 0.001131473221968484 0.07795630148936131 3.999697336802734 0.0009209878369622959 -0.002850305167924275 -10.48840756451169 10.48840799224383
2242 2 -0.003927640260925709 -0.001416003015604344 0.07426800894730064 3.999635328443418 0.00731734132296267 -0.004151089902019236 -10.50381211202928 10.50381548104519
2243 2 -0.006749904951548898 -0.0002947111807449184 0.09076357364110697 3.999912518775532 0.03678565760400066 -0.110024995379097 -10.45697826854329 10.45762177519345
2244 2 -0.006778572346541863 6.578496597529153e-05 0.07067975679837314 3.999575008476873 -0.003428738893878803 0.002154166442085633 -10.4995190963452 10.49951987717538
2245 2 -0.004999263717782946 -0.001836200185876258 0.06809864703543177 3.999531675126924 -0.01259071504254935 0.001821605168278978 -10.51039345467331 10.5104011539232
2246 2 -0.005444480731852859 -0.001730031687514319 0.07639930560996126 3.999671159238491 0.0006903425052971365 -0.002208939541414462 -10.49481079268461 10.4948110478577
2247 2 -0.005243743149195419 0.001766871304167136 0.09149985075609388 3.999924924460017 0.0386564740367941 -0.03497962781664281 -10.46199036341106 10.4621202564993
2248 2 -0.006451609091919214 -0.001028781136314812 0.09076509192865981 3.999912432900187 0.01525916045465196 -0.05740128192669305 -10.45643861387932 10.45660730040921
2249 2 -0.00437722928739402 0.0009586323303756506 0.0676878396808679 3.999524672320382 0.1174645348871818 0.1044260131225838 -10.43796811917855 10.43915136235512
2250 2 -0.004387411363869457 -0.001723907864173938 0.08510773631080168 3.999817475812226 0.007941888286726461 -0.001450378122885322 -10.48315271172978 10.48315582039272
2251 2 -0.004526664550494681 0.0008336106807850555 0.06545675589142458 3.999488251221639 0.1774808058933456 0.2998869573582338 -9.882432148413137 9.888574052493293
2252 2 -0.00522008723230597 0.00106656402971059 0.06795205675244124 3.999529200317282 0.07033016234281693 0.1020054068698109 -10.43095652818661 10.43169236162976
2253 2 -0.003789680758900597 -0.001376168649496278 0.08040818692599103 3.999738533072384 -0.002869329259400102 -0.002613899166669236 -10.48517007436213 10.48517079278246
2254 2 -0.006394593753840344 0.001130006431969441 0.08901678956552245 3.999883206558003 0.01163273582302601 -0.0309599198026425 -10.42601644895753 10.42606890592567
2255 2 -0.004421147847901541 0.001645063201553712 0.09141818244523058 3.999923514036684 0.01557430306924629 -0.03253624281982607 -10.46325106997811 10.46331324769602
2256 2 -0.004524648001958181 0.0008344459625380571 0.09502120600654487 3.99998372347393 -0.004557756638814165 -0.02955633055283906 -10.38716210433088 10.38720515497161
2257 2 -0.005328746153433303 -0.00177252319668016 0.06868537694692838 3.999541536509615 -0.02338818056590421 -0.0008426673019170778 -10.49306560065448 10.49309169962393
2258 2 -0.005447030236083684 -0.001733468200170203 0.07425297327737787 3.999635089767763 0.005520099939827607 0.002670018499488652 -10.47709213738782 10.47709393180265
2259 2 -0.003415965240514567 -0.0008019214050893901 0.07635158670350113 3.999670356938918 0.001067662341903277 -0.00202527101516163 -10.48179876823009 10.48179901826472
2260 2 -0.004269584932554439 -0.00162502541819287 0.07345849014695445 3.99962171874207 0.01515066498055042 0.001069819683240814 -10.48933187399204 10.48934287026165
2261 2 -0.005803984233082819 0.001571241392286776 0.08913237650574637 3.999885137019372 0.03029535147997536 -0.02368916683970801 -10.42608189219975 10.42615281912759
2262 2 -0.003922583636829161 -0.001415607640806691 0.07637871361874933 3.999670811718707 0.001363530326470948 -0.001671092077166529 -10.4817993240206 10.48179954591779
2263 2 -0.00534619363188715 0.001664763513312077 0.08861599937081838 3.999876457324457 0.07570623243945179 -0.01513129995343001 -10.47154539207857 10.47182998755377
2264 2 -0.005740602887686358 0.00149362956988793 0.09325255001433647 3.99995417130271 -0.05393767792073187 0.0194924685120626 -10.31936211262765 10.3195214831388
2265 2 -0.006050399437205559 0.0006066840473409003 0.08764984696547684 3.999860251004868 -0.003079109040307367 -0.0499480295310411 -10.49171357156331 10.49183291681164
2266 2 -0.004374259335662782 0.0009736169893753125 0.06969361599985455 3.999558509084227 -0.08339161550878767 0.0176502524390679 -10.48764849907797 10.48799488620969
2267 2 -0.005028376386505364 -0.001784753209860386 0.07344537783416626 3.999621516658762 0.01453346656092267 0.0009538408480157253 -10.48936315922019 10.48937327095706
2268 2 -0.003542081006641888 -0.0002443460733715536 0.06591634713949117 3.999495323411855 0.2885220022092344 -0.1773904364860596 -9.94847252550192 9.954236178802574
2269 2 -0.006080418597384732 -0.0009567292927020216 0.09467063438399628 3.999977866108388 0.010023820632614 -0.0006587621066692883 -10.39118132084359 10.39118617644763
2270 2 -0.006223164369478579 0.001209526240986622 0.06731390409462842 3.999518479299438 -0.03131558238888901 0.109857725438688 -10.53107515819005 10.53169470564859
2271 2 -0.006395732892562871 0.001123966132027958 0.08507298037348984 3.999816930318961 0.003723084705053475 -0.005346465207635371 -10.48908109554466 10.489083118889
2272 2 -0.004161263784338054 -0.00166440909261715 0.06936494230898452 3.999552963541815 0.01136399719880125 -0.002132812921458248 -10.47127369491365 10.47128007853452
2273 2 -0.00605034574421507 0.0006012748309656283 0.08374018338306044 3.999794525456843 -0.0004694826046167953 -0.006486121965989998 -10.48648283748614 10.48648485390044
2274 2 -0.003540064458105392 -0.0002435107916185585 0.09458621355706312 3.999976525785629 -0.06841959490867976 -0.05466168158850689 -10.35195770611471 10.35232811929709
2275 2 -0.006555391407716448 0.0008536814270664231 0.07430537932397259 3.999635973307727 -0.00194040522124791 -0.005764888666955889 -10.49244586180067 10.49244762493156
2276 2 -0.006727288172995913 -0.0003546213264564177 0.06723880963075213 3.999517262833922 -0.07246880562922209 -0.0432641345409748 -10.50702375567357 10.50736273835712
2277 2 -0.004927351964342406 -0.001803233961933317 0.06644448587185503 3.999503867095549 -0.1112541130798018 -0.0860451233189693 -10.53132749318545 10.53226661311078
2278 2 -0.003797743480070087 0.0003505003969617484 0.06993498035968793 3.99956258168478 0.0007398133502572496 -0.06020912809618646 -10.46620560531597 10.46637881309373
2279 2 -0.003930314199826248 0.001416281467275257 0.07842118148975682 3.999705149279943 0.0007843068388743795 -0.002641454672237895 -10.48762706114148 10.48762742311182
2280 2 -0.003419899595348114 0.0007923952796631505 0.07055634356077045 3.999572988034264 0.01722906671384036 -0.009985000977597913 -10.3943486744962 10.3943677493143
2281 2 -0.005168502020608399 -0.001872871218023948 0.08899765120479147 3.999882789072892 0.0002372575043284955 -0.01173097732467973 -10.46573035138308 10.46573692866303
2282 2 -0.006876896432763947 2.04526663348546e-05 0.0843541343642181 3.999804840335587 0.00327773973649133 -0.005399056281424371 -10.49074765156896 10.49074955292929
2283 2 -0.006024431796284183 -0.001417771170819433 0.06868259921491043 3.999541474497156 -0.01087420231922803 -0.01002584294935425 -10.49302069493669 10.49303111927972
2284 2 -0.00643738201129252 0.0009400722554298382 0.06663642401861146 3.999506953594142 -0.1054576428754388 0.0497229830541874 -10.7454325925735 10.74606510733233
2285 2 -0.006402868225474745 -0.001082040722905999 0.06729287525760416 3.999518153091706 -0.06849620204163398 -0.05413205730162227 -10.50739909887652 10.50776178985767
2286 2 -0.003928369668554118 0.001414203336616103 0.08233877148249236 3.999770976276599 0.001734351615744227 -0.002657438267755776 -10.48552535176655 10.4855258319501
2287 2 -0.00392790386141311 0.0009981854553751141 0.0658110869178105 3.9994936554634 0.09856160161169622 0.3188125996262258 -9.913842364766305 9.919456955722318
2288 2 -0.006879166185290637 3.291511013530525e-05 0.08825804282549535 3.999870434262939 0.007711614934504796 -0.01493086090323282 -10.47974748987815 10.47976096345806
2289 2 -0.006162950253823546 0.001252252589849431 0.08117205491465272 3.999751376895594 0.0002566681024060248 -0.003085820824447254 -10.48661730491451 10.48661776207664
2290 2 -0.003268333200191957 0.0003990333113518883 0.09095355593662736 3.999915696128556 -0.004898301640940049 0.01080971326908204 -10.5247425542303 10.52474924528305
2291 2 -0.004296781915162433 0.001630306701451785 0.07557734428175865 3.999657357722431 0.004404697153619372 -0.004176330588494246 -10.48715134679304 10.48715310337545
2292 2 -0.006581892972506978 -0.0007476959382996145 0.09343298065247271 3.999957178552501 -0.02015210027567979 0.02457453759161522 -10.46471498474011 10.46476324275363
2293 2 -0.006305057441128217 0.001205278133454136 0.07713229346304711 3.999683490263761 0.001126712707306883 -0.002284663298531002 -10.48880917402821 10.48880948336589
2294 2 -0.003925096665095857 0.00141561036038964 0.07420874946577281 3.999634349128033 0.006148520403922745 -0.006389014387617774 -10.49158163147318 10.49158537846752
2295 2 -0.003334898258033833 0.0006997698741892702 0.09382452369760513 3.999963907200721 -0.07756643312216142 0.02833814779943991 -10.30602516563316 10.30635601543203
2296 2 -0.003932309343655717 0.00141830967052383 0.08629417312409712 3.999837411855532 0.006543888526056033 0.001262999318389306 -10.47808131609059 10.47808343564085
2297 2 -0.005012907796551992 -0.001790703978909561 0.07131578398319567 3.999585713409821 -0.003505551244875239 0.00055012955292735 -10.48432927203244 10.48432987252539
2298 2 -0.004290978283736006 0.001611777611458883 0.07017991895055045 3.99956666560077 -0.07863399830870055 0.02651001345140666 -10.47274919707149 10.4730779540336
2299 2 -0.003542081006641292 0.0004207607475555604 0.06591634713949079 3.99949539411866 0.2856744967723756 0.06824616708295955 -9.889706192134899 9.894066708092231
2300 2 -0.004272580346375415 0.001052537010076834 0.08173891909098059 3.999760897457394 0.001700419941197315 -0.002662977097806212 -10.48554731278154 10.48554778881176
2301 2 -0.006554099426449483 0.0008647187403445448 0.0784811729319885 3.999706158062814 0.000409618444532649 -0.002914731673876855 -10.48724078207833 10.48724119512538
2302 2 -0.00392685195742124 0.001000550826219021 0.09466517039240868 3.99997780860413 -0.001291318371483999 -0.0303929065019289 -10.38842867893743 10.38847321860332
2303 2 -0.005123041831351276 0.001725835549454199 0.07055893456714911 3.99957294940427 -0.03894764563237547 0.01309973012639398 -10.4891448933369 10.48922538205015
2304 2 -0.004208523940207998 -0.00162650868556393 0.06683040788292331 3.999510372335525 0.09026754557499742 -0.05457735889837037 -10.41637654016988 10.4169106334119
2305 2 -0.004296939217663115 0.001629769118037229 0.08703247366147587 3.999849807471747 0.004649228051342822 0.002400152137231265 -10.47419482928689 10.47419613612004
2306 2 -0.004254819527208535 -0.001630532173440664 0.07127879383694416 3.99958509638683 -0.003971941131729008 0.0004445337058885135 -10.48431912627052 10.48431988807134
2307 2 -0.006291399685510726 0.00122173144385807 0.08702770819095268 3.999849811922533 -0.002472110568817751 -0.02455945211265286 -10.52746878441326 10.52749772190972
2308 2 -0.003344355048109098 0.0007076854794679248 0.06665462838949079 3.999507218838042 0.2443393165378502 -0.09971560537162409 -10.26618178353742 10.26957318081898
2309 2 -0.003730177902880914 0.001285110187287479 0.0665493681678105 3.999505480182783 -0.02735875223060128 0.2290137800900026 -10.35957227563872 10.3621394290454
2310 2 -0.005158941509081102 -0.001876843045703337 0.08510126126542972 3.999817378503912 0.01118796309897053 -3.275707007467701e-05 -10.48304483388027 10.48305080407107
2311 2 -0.004225295832387966 0.001602386761770488 0.07140664085281104 3.999587232282718 0.04112581742666679 -0.01275041229115834 -10.50393394452085 10.50402219231899
2312 2 -0.003541029102649423 0.0004231261183994668 0.09458450896931325 3.999976499932116 -0.06971992154560941 0.06053965661307542 -10.37949411160721 10.37990481316528
2313 2 -0.006548761906311601 0.0008728718551739067 0.08239707568797265 3.999771958374153 0.0004554150363291716 -0.003488811929000032 -10.48631173489198 10.48631232514771
2314 2 -0.006412838887121158 -0.0001444675238566671 0.06580637293556579 3.999493493273527 -0.3451952628098923 0.2794895956094916 -9.910099448423781 9.920047645105827
2315 2 -0.00620385051879137 -0.001315351379705876 0.09386371208680944 3.999964402572032 0.001728205269323855 -0.01220238551451974 -10.43424004219687 10.43424732039117
2316 2 -0.004274055186162534 0.001054529607872061 0.07978817702733051 3.999728119557064 0.0004613125727160273 -0.002355308528523024 -10.48729845438758 10.4872987290192
2317 2 -0.004297202402565471 0.001630383202152301 0.07705489388412877 3.999682189747586 0.0003733074747895469 -0.003454987322890631 -10.48747287467223 10.48747345042083
2318 2 -0.006561715590883241 0.0008377626744601915 0.07077658774293172 3.999576607320916 0.009063322080963174 0.04466761130504313 -10.49957584350295 10.49967476795246
2319 2 -0.003720721112805651 0.001277194582008824 0.09390518512070056 3.999965215872734 -0.02249461374105327 -0.0402242715581634 -10.32106558853521 10.32116848435852
2320 2 -0.004972616057837561 -0.001801365761401179 0.09408805146903471 3.999968260761126 -0.05915532626518255 0.05722235444040077 -10.32557177238815 10.32589977567147
2321 2 -0.006735171335786737 0.0001419415768981395 0.06653782566009472 3.999505329457472 -0.07600347852603562 0.1313580396725478 -10.72924250888732 10.73031575853429
2322 2 -0.003729841856202129 -0.001336105602496386 0.06650168322240799 3.999504781571485 0.1701030572295176 0.008709542961677636 -10.49241252482359 10.49379490448009
2323 2 -0.003859811549237016 0.001389360450495399 0.07066737706038383 3.999574847530956 0.003483883311483024 0.006175532964667067 -10.39430313490764 10.39430555328258
2324 2 -0.003929948812226049 0.001416272216056188 0.07631661463604637 3.999669779298419 0.002301329577864922 -0.003858703961172092 -10.49065480880416 10.49065577088487
2325 2 -0.005338464581174787 0.001037165636108286 0.08397216427051049 3.999798425444152 0.00322253222798259 -0.004807997140592568 -10.48539244993464 10.48539404746892
2326 2 -0.003279844703808819 -0.0007618704598577482 0.08040818394670569 3.999738535865137 -4.771089999545798e-05 -0.0004040413180803214 -10.48516529617677 10.48516530407009
2327 2 -0.005233521908245688 -0.0002035374468601228 0.06506982861310487 3.999482395233764 -0.1526150154016562 -0.06930970036259246 -9.954875544239027 9.956286570744068
2328 2 -0.006554799960383219 0.0008592969158900362 0.07640007333208185 3.999671182394674 0.0005973905562460884 -0.002596764959021849 -10.48979198366641 10.4897923220937
2329 2 -0.005231505359709188 -0.0002027021651071212 0.09543273208344943 3.999990550714234 0 0 -10.39647010128177 10.39647010128177
2330 2 -0.005226508844991921 0.001653338897742786 0.08482587424948451 3.999812766049692 0.003082731498343353 -0.003200300912246392 -10.47720321760941 10.47720415990089
2331 2 -0.00607459132452979 -0.0009610693769044051 0.06583371392894113 3.999494038397866 -0.1283885248468969 -0.3159469995615233 -9.927330991066199 9.933187138377475
2332 2 -0.003167819685488893 -0.0004410285078114576 0.06929453665623092 3.999551724521638 0.0558264117287765 0.01556628464421522 -10.55129616648511 10.55145533518233
2333 2 -0.003344355048109807 -0.0007588202043593848 0.06665462838949117 3.999507200787157 0.2102000680019353 0.06440872759825542 -10.47736036846771 10.47966663799553
2334 2 -0.005122842312580218 0.001749391128493718 0.08728075213330125 3.999854029555378 0.07471156015632378 -0.01030708902121626 -10.47450406849359 10.47477558395376
2335 2 -0.004671795103318964 2.913741408902944e-05 0.06506982861310487 3.999482404586467 0.1391869547622694 0.05155863319228218 -9.96062224381053 9.961728102338759
2336 2 -0.006309153701551669 0.001200815363440312 0.07568273077435513 3.999659127944039 -0.0005121135229858396 -0.003466784672603534 -10.48750122155878 10.4875018070584
2337 2 -0.005058110752840605 0.001717342408603026 0.07129248659881898 3.999585301947688 -0.03988999844196434 0.01134030992543522 -10.52027931118302 10.52036104893318
2338 2 -0.005444579541947074 -0.001785859020902578 0.06689076189031919 3.99951134804729 -0.05347335790169232 -0.09304645704253166 -10.58292487636912 10.58346899565761
2339 2 -0.006361845212421917 0.001411370347638697 0.09497988659316126 3.999982926353584 -0.01560670546574115 -0.02121218177448379 -10.44485049156167 10.44488369092673
2340 2 -0.005582740319705105 0.001654468212074731 0.08678297637828605 3.999845686413139 0.01812629881975773 -0.01085138288886831 -10.52750450981552 10.52752570737329
2341 2 -0.006647576963190831 0.0007829726904117142 0.08435077519270687 3.999804789722698 0.002943770890156747 -0.005996433034540334 -10.49074493805385 10.49074706483283
2342 2 -0.003812024708760519 -0.001453865723248722 0.06860066035446262 3.999540068878883 0.05129039209527679 0.01000254037137885 -10.55338917788804 10.55351855520706
2343 2 -0.004669778554782464 2.997269584203107e-05 0.09543273208344943 3.999990550714234 0 0 -10.39647010128177 10.39647010128177
2344 2 -0.006072503825674199 -0.00140207967259918 0.06661923228032213 3.999506764839595 -0.03121809695817121 -0.1045347956106199 -10.58046826505873 10.58103070598446
2345 2 -0.005102292036450541 0.001170958430990433 0.08200091474548624 3.999765301918513 0.001486975424652837 -0.002637572667144888 -10.48561622459056 10.48561666175539
2346 2 -0.006355876537892263 0.001108953801714058 0.09364142636459094 3.999960597109418 -0.02598611617109634 0.02951997561935156 -10.37765339615708 10.37772791693658
2347 2 -0.006854986630551293 -0.0003986362998474139 0.08508830164128003 3.999817175834601 0.003112306269124176 -0.006618384409345364 -10.48866667754513 10.48866922741433
2348 2 -0.005580581714243582 -0.001810014059584622 0.0882673039285331 3.999870536867742 -0.00458890476691526 -0.0119074250331878 -10.4739062523222 10.47391402615336
2349 2 -0.005592051795533463 0.001647187997302736 0.0773566183257349 3.999687261025604 0.000827297900609949 -0.00248952877146689 -10.4888176404809 10.48881796855292
2350 2 -0.004286370725740559 -0.001630651903754413 0.0908277723186237 3.999913480984276 -0.03908903909891544 -0.03536097238882097 -10.42483050050398 10.42496375608011
2351 2 -0.005131394892265058 0.001744026271249575 0.07537395610942653 3.999653942959119 -0.0006410652871412614 -0.003268184320157269 -10.48716412848698 10.48716465732361
2352 2 -0.003313168806582668 -0.0008417279392616237 0.06855625540623092 3.999539263369559 0.05544200414493418 0.01437983531866073 -10.55340080616377 10.55355623337582
2353 2 -0.006647475125273789 0.0007911579039514055 0.08825670321940535 3.999870455047529 -0.01294018204395623 -0.05135605018465327 -10.47962691306724 10.4797607381698
2354 2 -0.005601529609815631 0.001666713014265433 0.06736088813894506 3.999519197958089 0.008065504692691889 0.1310714715278883 -10.52222468716909 10.52304410093795
2355 2 -0.005103313154453625 0.001171903417433341 0.08004985255689923 3.999732518399038 0.00119677560744383 -0.002376666929162255 -10.48751463459728 10.48751497218048
2356 2 -0.005110037267264691 0.0019293568769961 0.06539705171374099 3.999486395228788 0.0001664798351640413 1.098321310921536 -10.58583882154427 10.64266382469416
2357 2 -0.003728556959753053 -0.001335573336826171 0.09401622445329397 3.999967030397964 0.01838345167620236 0.05462407481091065 -10.39995505952002 10.40011475806304
2358 2 -0.003920142194395623 0.001385796833108139 0.06834749744717232 3.999535741346401 0.03310204881476353 -0.02491202282219748 -10.68325042810418 10.68333075703008
2359 2 -0.006282828119747234 0.001227100328441621 0.09080869771954965 3.999913341669954 0.05458392040385136 0.01710259478523417 -10.56769123380919 10.56784603957886
2360 2 -0.005129824297849046 0.001745471960748184 0.07684292327365078 3.99967862830663 -0.0003086996334659324 -0.003332143394342391 -10.48746125154095 10.48746178543921
2361 2 -0.004246041426219815 -0.001627910457307732 0.09371774215438097 3.999962108737454 0.03069130107201353 0.06439472664713511 -10.38861729679263 10.38886220796101
2362 2 -0.005193415500969195 0.001715247984569341 0.06861742627950301 3.999540301551644 0.0203035306853213 0.03842409074628167 -10.54936899640048 10.54945851057407
2363 2 -0.005614631403616879 -0.001701299595596549 0.09360502452561703 3.999960149085511 -0.1132712031001872 0.06553062508495355 -10.37616524616761 10.3769904039684
2364 2 -0.004211089185788703 0.001566963995856893 0.09346081830767772 3.99995780773305 -0.0817370369371424 -0.002915091232192718 -10.38338157126373 10.38370368873377
2365 2 -0.003134908920000091 -0.0003616663265299446 0.08112671010848828 3.999750607401835 0.0001473448461500256 -0.0001032282045085931 -10.48459184827108 10.48459184981461
2366 2 -0.003279535599681445 0.0008395655929204562 0.08038659150117483 3.999738174047269 -0.0003667885392385606 -0.0004547899207517497 -10.48627847292714 10.48627848920402
2367 2 -0.005064700702068749 -0.001778965948243774 0.09082283651830513 3.999913354304169 -0.01904375169760262 -0.03161730622068073 -10.42469330445207 10.42475864518787
2368 2 -0.00510330162113259 0.001932676171988471 0.09497988659316126 3.999982996316056 -0.07948264709683148 0.01210080283933328 -10.4019276340094 10.40223833719394
2369 2 -0.004291332321084587 0.001629534380502441 0.0734704683876093 3.999621951320156 0.01110082338930886 -0.009439142567591163 -10.48142883994144 10.48143896859818
2370 2 -0.006368580858554018 0.001408051052646326 0.06533514268097766 3.999485361225166 -0.8188231833546744 0.5924864402728223 -10.53538831660052 10.58375729923306
2371 2 -0.00423985913635016 0.001577252489446526 0.06697347391027014 3.999512547510548 0.1226325681316925 0.1284674346927375 -10.51282100543048 10.5143210965218
2372 2 -0.005558112712245037 -0.001816107641094546 0.08436816933401323 3.999805060684858 0.002833710546833583 -0.00054112346931171 -10.49743597025142 10.49743636666869
2373 2 -0.006276001156855968 -0.001434075207307202 0.08826490338353699 3.99987050610236 0.006690890941391065 -0.01663202005891771 -10.473842377947 10.47385772054363
2374 2 -0.006316941836009527 0.001184438971209073 0.07148559532809239 3.999588532086012 -0.001811834555863725 0.03598934794073913 -10.53920595749142 10.53926756137884
2375 2 -0.003342338499573153 -0.0007579849226061994 0.09384793230706312 3.999964246346387 -0.06606302330899781 -0.06214048303513114 -10.36832984561218 10.36872651534859
2376 2 -0.006547966857504156 -0.001132208389652667 0.08509194443450929 3.99981723386608 0.0001676093024866301 0.002947261600437479 -10.48871607222132 10.48871648764126
2377 2 -0.005597183684612247 0.00164508054444986 0.07590125585323625 3.999662803094152 -0.0003158220833321941 -0.003332469345009663 -10.48751202117308 10.4875125553844
2378 2 -0.005601049349826744 0.001632791116621097 0.07170080366704669 3.999592164187717 -0.02666181042589596 0.01943780122838033 -10.53965458653294 10.53970623327219
2379 2 -0.004351308928894657 0.001608213994071674 0.06884441433733894 3.999544182553846 -0.07814889204992274 0.02926868729859149 -10.54316357252927 10.54349382427348
2380 2 -0.003134186478587805 0.0004388661614704516 0.08112487275117483 3.999750577445884 4.752915194064346e-05 -0.001355133496928362 -10.48459176997176 10.48459185765499
2381 2 -0.006259560563183597 -0.001446326487289371 0.08436141988286608 3.999804951162605 0.003586299782078363 -0.0008490999779556935 -10.49743053111298 10.49743117805779
2382 2 -0.006303098158806746 0.001209891427658726 0.07921326907616261 3.999718461885324 0.0003603256613456145 -0.002981873414018327 -10.48741586942692 10.48741629953304
2383 2 -0.005129044590007598 0.001741501344578717 0.0732514687678642 3.999618268522331 -0.0181807605276286 -0.004182228375548532 -10.48145603995761 10.48147264217445
2384 2 -0.003314642620840412 0.000761101120486009 0.06855343567832677 3.99953921274708 0.02925529764555198 -0.0216325981472614 -10.68327155176233 10.68333351021287
2385 2 -0.004295737963607553 0.001629069283034638 0.08307709671646005 3.999783384653671 0.002832144176857971 -0.003384770417333273 -10.48770196504861 10.48770289364625
2386 2 -0.00631204426702807 0.001195255217943173 0.07356962877480501 3.999623602333306 -0.0001780479767399113 -0.002490130827527953 -10.49841184819054 10.49841214501889
2387 2 -0.004297098098680658 0.001630306920507447 0.07915755866692467 3.999717524868164 0.0005128869443358575 -0.002462540253888528 -10.48709870123722 10.48709900290108
2388 2 -0.005450796722814829 0.00169011425859165 0.08138806585288226 3.999755007461113 0.001296756361848525 -0.002032938710648254 -10.48662775488571 10.48662803211577
2389 2 -0.004999145398581838 0.001735506591300018 0.06674531709569143 3.999508761939503 0.04007789958146554 0.1436209690520766 -10.56096225793917 10.56201481888764
2390 2 -0.006296031721503615 0.001215993396102895 0.08312855622520993 3.999784252791351 -0.0004496295506596614 -0.004713322975386684 -10.48896920242994 10.48897027105635
2391 2 -0.00341448291621997 0.0008006891410617878 0.09021531294384878 3.999903244220023 -0.003538962031531183 0.007054637106054674 -10.51779292631792 10.51779588759262
2392 2 -0.004988590860130026 0.001786584051859066 0.08087906707712091 3.999746454220322 0.001184392799251965 -0.002113559380743116 -10.48647614640163 10.48647642628209
2393 2 -0.003169293499746751 0.0003604016890359796 0.06929171692832677 3.999551726555078 0.064101238558507 -0.08952618005793612 -10.55129617183423 10.55187067829512
2394 2 -0.005590208527847451 0.001649691618060693 0.07943780744638489 3.999722236090457 0.001206214086446302 -0.002410961623621275 -10.48743039388064 10.48743074037582
2395 2 -0.006107376271681034 0.002040869184643696 0.09267101749175036 3.99994447536208 -0.090099411683429 0.08610556529438013 -10.35653553731099 10.35728537831925
2396 2 -0.004914095620487366 -0.002003791708639868 0.09530813271088456 3.99998852072369 -0.05699781447901159 0.01347011135601661 -10.35281051645516 10.35297618003537
2397 2 -0.006859663409957466 -0.0003864838189660374 0.08891763459695326 3.999881495641971 0.007213867664012327 -0.01829222986926722 -10.47395198124659 10.47397043871233
2398 2 -0.004905617360916608 -0.002006758664833027 0.06519160157184854 3.999483039650176 -0.1163018565496187 -1.234347437513853 -10.72770268660049 10.79910851183695
2399 2 -0.002938893419712418 -0.0002187787109263662 0.0653465185263863 3.999485113085814 1.843559721122616 -0.1762236281155951 -11.03210381383834 11.18646869086748
2400 2 -0.005128204149895434 0.001746428794595112 0.07893003616489858 3.99971370302979 0.0009091794626990086 -0.002536383599068488 -10.48708910289866 10.48708944903136
2401 2 -0.002938893419712423 -0.0002187787109263727 0.0951534814736137 3.999985975071396 -0.01811509661459909 -0.0546240793316828 -10.31692638106508 10.31708689015872
2402 2 -0.005124727212262602 0.001746624329058784 0.08284506751365225 3.99977948892698 0.001464750933420354 -0.003131860389832848 -10.48769094897037 10.48769151887868
2403 2 -0.005597421911121492 0.001641296894263706 0.07378636167369559 3.999627251566897 -0.001663027463550371 -0.003525978528734696 -10.49840886076313 10.49840958459588
2404 2 -0.005584150558463332 0.001651884201245553 0.08336053711265996 3.999788152778659 0.002686483765873725 -0.002616195944848579 -10.4890038681455 10.48900453845109
2405 2 -0.005784420504602362 0.001797193202410512 0.09539141267006582 3.99998982355636 0 -2.16538597732863e-15 -10.43633938238346 10.43633938238346
2406 2 -0.003791668106744982 0.001454289863661605 0.08038384477260568 3.999738129588783 0.001320547084711507 -0.002066357538238524 -10.48628369008021 10.4862839768204
2407 2 -0.005290347867432396 0.001766676564146698 0.09039055071179923 3.999906242141085 -0.01218978172595572 -0.01724531038887718 -10.51315037620575 10.51317158731008
2408 2 -0.005791156150734464 0.001793873907418141 0.06501012443542128 3.999479803765457 -0.401649925808666 1.15949387895861 -10.79816517076857 10.86766395199281
2409 2 -0.00636874735978126 0.0007301973579313171 0.09558847392309544 3.999993102797224 -2.16538774746109e-15 0 -10.46046661660055 10.46046661660055
2410 2 -0.004972044687971674 0.001738818368825317 0.09361221624945165 3.999960224020807 -0.08736284836220139 -0.001694167413200278 -10.38032950144184 10.38069726444139
2411 2 -0.005432679044860046 -0.001545103455831383 0.09563202806465373 3.999993872584431 0 0 -10.39293343444582 10.39293343444582
2412 2 -0.005626516752791522 0.00166422082561102 0.0908497119931833 3.999913993318045 0.0192103537032899 -0.00630804293170352 -10.56735954731224 10.56737889125142
2413 2 -0.006559414177465313 -0.001120062384796067 0.08892077040235671 3.999881524329758 0.006724041447452603 -0.01666876939715795 -10.4739559167366 10.47397133881644
2414 2 -0.003652905089066931 -0.000887769008044438 0.09564566897361371 3.999994110983713 0 0 -10.37311292818356 10.37311292818356
2415 2 -0.003652905089066927 -0.0008877690080444315 0.0648543310263863 3.99947790709153 1.044523092363161 -0.4475067463281115 -10.81622666199825 10.87575514537776
2416 2 -0.007059748514099951 -0.0001186653312382233 0.09519434815898856 3.999986545606947 0.02225535562887435 0.06461308992770239 -10.42032379948906 10.42054788571322
2417 2 -0.005424932437376866 -0.001548373428107513 0.06485235923893172 3.999477794160188 -0.4657509228814768 -1.151761606137086 -10.97604097773746 11.04612847401787
2418 2 -0.004548476963565209 0.001484178043230243 0.06488692727831971 3.999478356080451 0.2937117642503497 1.053628428699505 -10.77276615891994 10.82815266705238
2419 2 -0.006924168330613722 0.0005622187220582969 0.09558847392309544 3.999993102797224 0 0 -10.46046661660055 10.46046661660055
2420 2 -0.004036956196156079 0.00175814114559881 0.06488692727831971 3.999477274187413 0.9865772878789459 1.435722066176154 -11.15407363163869 11.28928656631061
2421 2 -0.004158610450418509 0.001668343867407916 0.08110774169023875 3.999750294479951 0.001412876542865382 -0.002104584257366807 -10.48648611091258 10.48648641728284
2422 2 -0.004548476963565209 0.001484178043230243 0.09558847392309544 3.999993172759696 0 0 -10.35435999914369 10.35435999914369
2423 2 -0.003121951681470827 -0.0006607204491679591 0.0648543310263863 3.99947679139543 1.828448607929963 -0.2217776269676217 -11.07892078191745 11.23097926806326
2424 2 -0.005960920768022362 -0.00176326660747263 0.06485235923893172 3.999476738070341 -0.9409288595142085 -1.41446780136334 -11.26311270388447 11.39051245818924
2425 2 -0.00636874735978126 0.0007301973579313171 0.06482501824555638 3.999477312724125 -0.9018072089507908 0.4796935355017816 -10.6403253180193 10.68924155417026
2426 2 -0.003121951681470831 -0.0006607204491679655 0.09564566897361371 3.999994110983713 0 0 -10.37311292818356 10.37311292818356
2427 2 -0.002938893419711823 0.0004463281100007478 0.06534651852638593 3.999485183792619 1.924139782731428 0.06675657453024858 -11.03210400831706 11.19884320785224
2428 2 -0.002939858064256453 0.0004478581990916525 0.09515177688586382 3.999985949217883 0.02026227835898936 0.06109866947273649 -10.31692631457338 10.31712712859895
2429 2 -0.003508739180786677 0.001467224645152798 0.09523243830895928 3.999987257889896 0.01381069453050144 -0.006734202801226699 -10.36336649210199 10.36337788244707
2430 2 -0.00596866737550554 -0.0017599966351965 0.09563202806465373 3.999993872584431 0 0 -10.39293343444582 10.39293343444582
2431 2 -0.003695316817533392 -0.001578829105719097 0.06519357335930312 3.999483143228815 0.8418089820862278 -0.7756877295150885 -10.66501499858417 10.72627049519387
2432 2 -0.006546189297233357 -0.001373938950251425 0.09523790230054685 3.999987315394154 0.006917784703251333 -0.003472149345741932 -10.38800260469638 10.38800548838636
2433 2 -0.006924168330613722 0.0005622187220582969 0.06482501824555638 3.999475901822353 -2.382288241555059 0.05168499292627716 -11.52447179543579 11.76823770868605
2434 2 -0.003507774536242047 0.001465694556061893 0.06524125830470563 3.999483482798262 0.9233416120689727 1.46655924390907 -11.19802648406556 11.33133500018012
2435 2 -0.004036956196156079 0.00175814114559881 0.09558847392309544 3.999993172759696 0 0 -10.35435999914369 10.35435999914369
2436 2 -0.003696048469620975 -0.001579132121802075 0.09532177361984454 3.999988759122973 0.02941440460631196 0.0476196062177249 -10.35115593734336 10.35130726397847
2437 2 -0.006538345475841915 -0.001377443752700807 0.06526388531583627 3.999483887678079 -1.258498555417171 -1.255077737407161 -11.01910191289661 11.16152524110051
2438 2 -0.007059651300191688 -0.000118900161411475 0.06523654432246093 3.999482991599655 -2.401639039357977 -0.004483092793177302 -11.48032675712804 11.72884447095788
2439 2 -0.00312195168147023 0.0008882698482423396 0.06485433102638592 3.99947652046699 2.184428255645009 0.8516401940224583 -11.6983355942039 11.93097118841349
2440 2 -0.004224498477446833 -0.001871275695255067 0.06483924233291682 3.999477001177422 0.4725385037664336 -1.373504298508742 -11.12384903220125 11.21828079461236
2441 2 -0.00692416833061373 -0.0008000190448812496 0.06491152607690456 3.999477178561346 -2.600401261128357 -0.5815516544607877 -11.79272112644293 12.09001904927107
2442 2 -0.00312291632601486 0.0008897999373332442 0.09564396438586384 3.9999940851302 -2.1653882777239e-15 1.08269413886195e-15 -10.36877084944661 10.36877084944661
2443 2 -0.006924265544521994 -0.0007997842147079979 0.09560587423589312 3.999993442809723 0 0 -10.38385035755525 10.38385035755525
2444 2 -0.004225230129534412 -0.001871578711338038 0.09567610464623083 3.99999464813926 0 -1.082694290817943e-15 -10.31277819041629 10.31277819041629
2445 2 -0.003980146506315905 0.001422866117861554 0.09049596687961102 3.999907987539379 0.01829597151042138 -0.01883831882388168 -10.51789120089385 10.51792398425991
2446 2 -0.004466572922250657 0.001647129959010656 0.09011847390909025 3.999901646785754 0.0181448530602084 -0.01878838029365248 -10.51801581089512 10.51804824276664
2447 3 -0.005231762745781208 -0.002764877161664096 0.064375 3.14548818628127 -0.2150010461549164 -3.732542483627344 -2.130350783042539 4.303079513643763
2448 3 -0.005231762745781211 0.002764877161664095 0.064125 2.268466463373096 0.2603725082114188 -3.595630766504397 -2.929547958184113 4.645277784090636
2449 3 -0.003277591031954394 0.002038014802923904 0.064125 2.515432602994303 -3.014413114038001 -3.282416647097808 -8.047410737547326 9.19900891650949
2450 3 -0.006722408968045608 -0.002038014802923901 0.06425 2.670578474330077 2.191322737307805 0.2991924672355389 -8.04743012297144 8.345809910104638
2451 3 -0.003487770024414778 0.002309365451903678 0.06425 2.908036184076105 1.046695896660824 2.30722037229064 -2.741876076491633 3.733192007550203
2452 3 -0.003112770024414777 0.002036912003901668 0.064375 3.217645087699531 1.691863843793386 2.806945541940641 -1.895586999290207 3.786105731914235
2453 3 -0.006887229975585222 -0.002036912003901669 0.064375 3.100390258812381 -2.139253522788704 -3.055124754934757 -2.366863685664451 4.417265739062588
2454 3 -0.006512229975585222 -0.002309365451903678 0.064125 2.247983353692817 2.209655459091548 3.039145635875606 -2.130350783042539 4.319418699635958
2455 3 -0.00311277002441477 -0.002036912003901662 0.064125 2.251713725866672 -2.104035241359175 2.953978335282259 -2.455461361490247 4.379753737365817
2456 3 -0.00348777002441477 -0.002309365451903674 0.06425 2.502170848853214 -1.73853898067654 2.670877350976013 -2.934895429082145 4.332402888806135
2457 3 -0.004088040156576465 -0.0007822641564568732 0.064375 3.341090932745873 2.557347630590302e-06 -1.095648650922983e-06 -8.047464342680151 8.047464342680632
2458 3 -0.005091708699744782 -0.001197997279164433 0.06425 2.68270858228569 -3.572867562823978e-06 -2.245027059721267e-06 -8.047464342680151 8.047464342681257
2459 3 -0.006887229975585224 0.002036912003901666 0.064125 2.260611527231466 2.090074793097889 -3.011242429706763 -2.454357713474716 4.411333743540871
2460 3 -0.006512229975585225 0.002309365451903678 0.06425 2.524268924989416 1.727813808127608 -2.730647380035685 -2.929547958184114 4.361654148250739
2461 3 -0.005860901681129245 0.0006589988485761569 0.06425 2.682708165019235 -2.592571807710975e-06 6.516603296447233e-07 -8.047470268592535 8.04747026859298
2462 3 -0.00485723313796093 0.001074731971283714 0.06425 2.682709346023102 -3.851739700108068e-06 3.275526845066493e-06 -8.047470268592535 8.047470268594124
2463 3 -0.003277591031954392 -0.002038014802923903 0.064375 2.925361630903581 2.174832856135581 -2.715416893293211 -8.047422541037907 8.767234250920527
2464 3 -0.003834191603142668 0.001622658176020848 0.064125 2.024332821820637 -9.365292709939033e-06 -8.405223629163644e-06 -8.047410737547326 8.047410737557165
2465 3 -0.006163685361035773 -0.001627783637894666 0.06425 2.682709269699369 3.268331430734962e-06 9.989009563207326e-06 -8.04743012297144 8.047430122978302
2466 3 -0.006722408968045603 0.002038014802923908 0.064375 2.935371181690552 -2.1896692160369 2.661305428177058 -8.047446028402433 8.754346659674519
2467 3 -0.003740145010738774 -0.0009971573358219937 0.06425 2.68271197928192 -1.571149429747754e-05 -6.356104798563254e-06 -8.047422541037909 8.047422541055756
2468 3 -0.005185755292148685 -0.00159594872028796 0.064125 2.024328456968282 -1.164850487806184e-06 6.07903078196678e-06 -8.047436030387235 8.047436030389616
2469 3 -0.003900161828606221 -0.0004414408980427359 0.064125 2.024331600104762 -9.868748259083522e-06 3.102841227820322e-06 -8.047457113471207 8.047457113477856
2470 3 -0.005465557176701262 -0.001089848881699447 0.064375 3.34109013982332 -1.140316629689433e-06 -2.819904048263482e-06 -8.047472115300044 8.047472115300618
2471 3 -0.003026133341384265 -0.0003281670387039285 0.064375 3.341093808640086 4.476665043459727e-06 -5.42987178180199e-07 -8.047401915809511 8.047401915810774
2472 3 -0.006071124536514287 0.0003721200512916447 0.064375 3.341090203511598 -2.207930956288901e-06 1.174453027078669e-06 -8.047472115300042 8.047472115300431
2473 3 -0.00478765410879339 0.00153175333541069 0.064125 2.024329310865379 -5.307942967111103e-06 -6.167720903570189e-06 -8.047434931895115 8.047434931899229
2474 3 -0.004505729188419248 0.001020528034948354 0.064375 3.341091393868168 7.191061697016022e-07 2.579640300022193e-06 -8.047457113471207 8.047457113471653
2475 3 -0.006626545507346749 0.0002041414154186246 0.064375 3.341088792609825 -5.832654422689378e-06 1.26542496965581e-07 -8.047472115300044 8.047472115302158
2476 3 -0.004276133341384259 0.001805716437779257 0.06425 2.682710350737772 -4.961569909454037e-07 -3.514169960419437e-06 -8.047434931895115 8.047434931895898
2477 3 -0.003994208421010118 0.001294491137316921 0.064375 3.34109031197513 2.415476981800837e-06 3.515136265866913e-06 -8.047457113471207 8.047457113472337
2478 3 -0.00572174362279418 -0.001810841899653077 0.064125 2.024330200471808 4.651615415789789e-06 9.294716694788016e-06 -8.047436030387235 8.047436030393948
2479 3 -0.006001545507346757 -0.001304742061064564 0.064375 3.341089083733474 -2.3037144011376e-06 -3.463099054987247e-06 -8.047472115300042 8.047472115301117
2480 3 -0.006233264390203296 0.000932961950944727 0.064125 2.024327277713716 2.694311074444671e-06 -3.222531929081124e-06 -8.047446028402431 8.047446028403527
2481 3 -0.005581099796576663 0.001402899009987644 0.064375 3.341089716772053 -9.833750996210555e-07 2.838833859269713e-06 -8.047470268592535 8.047470268593097
2482 3 -0.006971743622794169 0.0003230415768301164 0.06425 2.682709247430371 9.875465075895619e-06 -6.379973638765449e-06 -8.047422546987509 8.047422546996097
2483 3 -0.003209191603142674 -0.0007701087769455214 0.06425 2.682715970872232 -3.831543653934665e-06 -2.935310002506531e-06 -8.047422541037907 8.047422541039355
2484 3 -0.003369208421010122 -0.0002143923391662634 0.064125 2.024335591695074 -1.490671246189317e-05 1.652175123177548e-06 -8.047457113471207 8.047457113485184
2485 3 -0.004369965076950611 -0.001521038855994538 0.064375 3.341090198149803 1.156935164425832e-06 -3.362806223765921e-06 -8.047464342680151 8.047464342680936
2486 3 -0.006115646222264402 -0.002222175863704545 0.064375 3.092784361110696 -0.852703845938103 -2.058607090991939 -8.04743012297144 8.350215481535075
2487 3 -0.005905467229804015 -0.002493526512684321 0.06425 2.670189240473436 -1.654511068472262 0.04609354436194229 -2.130350783042539 2.697763138108872
2488 3 -0.003884353777735602 0.002222175863704549 0.064125 2.192619977099091 -0.5779101035623865 -1.395184205259697 -8.047410737547327 8.187877541414359
2489 3 -0.002884353777735604 0.001324722415702538 0.064125 2.347148917930413 -3.000767310795499 -1.242956152694903 -8.047410737547327 8.678154413805563
2490 3 -0.002719532770195987 0.001323619616680302 0.06425 2.825042190683565 1.666058171217052 -1.049892257611351 -1.895586999290207 2.733363066690815
2491 3 -0.002701295515977197 0.0008827806774609466 0.064375 3.160608480392135 1.677732646270054 0.6949394859193339 -8.047401915809509 8.249751833602312
2492 3 -0.006788685361035759 0.0007649833150717067 0.064125 2.024329771026625 1.187745436453474e-05 -5.676776637677979e-07 -8.047446028402431 8.047446028411217
2493 3 -0.004599560923985594 -0.0001723437823422556 0.064375 3.341091673003667 3.407766018150513e-07 1.262329206448206e-07 -8.047464342680151 8.047464342680158
2494 3 -0.005161287728912316 -0.0004050186432914078 0.06425 2.682709390802127 -3.326309903418439e-06 -1.392724044507289e-06 -8.047464342680152 8.047464342680961
2495 3 -0.005953462505650715 0.001676862112356214 0.06425 2.682708829466535 1.947672614610169e-06 -4.237341284852125e-06 -8.047446028402435 8.047446028403787
2496 3 -0.005511520767409123 0.00185992037411462 0.064125 2.024329542994812 -6.038381083111517e-08 -6.966633383932383e-06 -8.047434931895117 8.047434931898133
2497 3 -0.00226823725421879 0.000440838939219355 0.06425 2.347398037241458 -1.702636647398568 -0.9471036456809895 -2.749578730808798 3.369890215666228
2498 3 -0.00241147450843758 0.0008816778784387108 0.064125 2.305962258335383 -1.702636647398568 -1.189253231261739 -1.895586999290207 2.811857904128367
2499 3 -0.002411474508437575 -0.0008816778784387048 0.06425 2.380774925919804 -1.99675401671712 0.8618677756011389 -2.455461361490247 3.2801117608501
2500 3 -0.002268237254218788 -0.0004408389392193527 0.064125 2.094345023288649 -1.702636647398567 0.8497003086257354 -2.749578730808798 3.343821969611933
2501 3 -0.005324913350483755 -9.991448541910448e-06 0.064125 2.024327272894535 -2.710007485410112e-06 7.377164051180538e-07 -8.047470268592537 8.047470268593027
2502 3 -0.004763186545557032 0.0002226834124072418 0.064125 2.02432850958149 -4.347690253319655e-06 5.936599173478154e-08 -8.047470268592535 8.04747026859371
2503 3 -0.00567370448402281 -0.002405234125462955 0.064125 2.260116376008767 0.8097005612507602 1.954788141156332 -8.047436030387235 8.320939750945797
2504 3 -0.00239323725421879 0.000440838939219355 0.064375 2.866477931928737 3.595186537602147 0.7742634542850942 -8.047401915809509 8.847910924696956
2505 3 -0.002393237254218788 -0.0004408389392193527 0.064375 2.814311880851744 3.595186537602147 -0.9550638506607332 -8.047401915809511 8.865562068677271
2506 3 -0.00320919160314267 0.0009976581760208479 0.064125 2.024335207757972 -1.70064452215133e-05 -4.679337828532953e-06 -8.047410737547326 8.047410737566656
2507 3 -0.007115646222264399 -0.001324722415702531 0.064125 2.260506110588134 2.195405338761584 0.9093657367330888 -8.04743012297144 8.390940485351752
2508 3 -0.007298704484022804 -0.0008827806774609372 0.064375 3.112523179465721 -2.124700530726885 -0.8800785624847671 -8.047422546987507 8.369581845658674
2509 3 -0.007280467229804013 -0.001323619616680298 0.06425 2.690317895070438 -2.113920371763494 0.7310914022707484 -2.366863685664451 3.256562249235846
2510 3 -0.002719532770195984 -0.001323619616680298 0.064125 2.016527598954445 -2.090062990146905 0.8657279143455668 -2.455461361490247 3.33873308640126
2511 3 -0.00402206993111292 -0.001735932035359659 0.06425 2.68271124468585 -4.871963455780987e-06 1.119224259085491e-05 -8.047422541037909 8.047422541047165
2512 3 -0.004464011669354514 -0.001918990297118066 0.064125 2.024331855768395 -7.155820601986338e-06 7.494857604559871e-06 -8.047436030387235 8.047436030393907
2513 3 -0.003026133341384264 0.0005557164377792561 0.064375 3.341093467004841 5.348224844889005e-06 2.085105442491217e-06 -8.047401915809509 8.047401915811557
2514 3 -0.002701295515977196 -0.0008827806774609455 0.064375 3.108442770950387 2.162658008433761 -0.8958009665598573 -8.047401915809511 8.380944256329762
2515 3 -0.005905467229804012 0.002493526512684324 0.064125 2.100179540224076 0.8491668887066369 -2.050077331846553 -2.929547958184113 3.675071796676563
2516 3 -0.006626545507346754 -0.0006797420610645598 0.064375 3.341088481348138 -6.366667485295753e-06 -1.423836414779222e-06 -8.047472115300042 8.047472115302686
2517 3 -0.007606762745781212 0.0004408389392193609 0.064375 2.812405117405433 -3.598421536594903 0.9608790880628733 -8.047422546987507 8.867521402662046
2518 3 -0.007606762745781209 -0.0004408389392193493 0.064375 2.818127654972946 -3.59842153659481 -0.9410455557344516 -8.047422546987507 8.865394178645404
2519 3 -0.007588525491562423 0.0008816778784387099 0.06425 2.377319207031134 1.994643296917976 -0.8564178386530715 -2.454357713474716 3.276572169508227
2520 3 -0.007731762745781212 0.0004408389392193548 0.064125 2.093489050190681 1.714397545678546 -0.8448242325661421 -2.734603464714147 3.336306796112464
2521 3 -0.007731762745781209 -0.0004408389392193554 0.06425 2.300008258641882 1.714397545678466 0.7851940066181825 -2.734603464714147 3.321708097031417
2522 3 -0.007588525491562418 -0.0008816778784387105 0.064125 2.172198147785289 1.714397545678461 0.8894667200554557 -2.366863685664451 3.054890128504077
2523 3 -0.003884353777735607 -0.00222217586370455 0.064375 3.158011933997209 0.6287111503759133 -1.517843555770392 -8.047422541037909 8.213411978246661
2524 3 -0.006971743622794175 -0.0005608418996530678 0.06425 2.682708936168685 1.456957095545217e-05 7.248237492015388e-06 -8.047422546987507 8.04742254700396
2525 3 -0.00678868536103577 -0.001002783637894662 0.064125 2.024330449763282 1.370867435833611e-05 4.748830601029002e-06 -8.047430122971438 8.047430122984515
2526 3 -0.00336920842101012 0.0006694911373169211 0.06425 2.68271346712383 -1.196369132425019e-05 1.052653133179509e-05 -8.047457113471207 8.047457113486985
2527 3 -0.005535136205868797 -0.0002968702458264226 0.064375 3.341090948339757 -3.736530232595684e-07 -1.696935194572711e-07 -8.047472115300044 8.047472115300055
2528 3 -0.004411682596015351 0.0001684794760718819 0.06425 2.682710557426556 -3.604879180529057e-08 -2.317420124043534e-06 -8.047457113471207 8.047457113471541
2529 3 -0.002884353777735605 -0.001324722415702538 0.06425 2.450064933182533 2.162658047574848 -0.8958068164681722 -8.047422541037907 8.380964696094125
2530 3 -0.007298704484022801 0.0008827806774609572 0.064375 3.106800953159895 -2.177898654375579 0.902112870694426 -8.047422546987505 8.385586433277423
2531 3 -0.005673704484022797 0.002405234125462959 0.06425 2.511281741242124 -0.5887021647352489 1.421245637889457 -8.047434931895115 8.193150699521492
2532 3 -0.006115646222264388 0.002222175863704554 0.064375 3.169661027713847 -0.5887006610779203 1.421249584908698 -8.047446028402433 8.193162175314658
2533 3 -0.007280467229804012 0.001323619616680306 0.064125 2.013334904166079 2.075679532207513 -0.8597702612555891 -2.454357713474717 3.327389698886733
2534 3 -0.007115646222264391 0.001324722415702547 0.06425 2.448421476756149 -2.177898698936933 0.9021195306994326 -8.047446028402431 8.385609695815242
2535 3 -0.004094532770195985 -0.002493526512684321 0.064125 2.07644183128803 -0.8076576689928229 1.949848317415587 -2.934895429082145 3.614945442307337
2536 3 -0.004326295515977201 -0.002405234125462957 0.06425 2.499632545079755 0.628709322471115 -1.517848353921722 -8.047436030387233 8.213425941763862
2537 3 -0.004768237254218785 -0.002764877161664094 0.064125 2.312224608024876 0.001962384304864006 4.075057211375622 -2.934895429082146 5.021922570747572
2538 3 -0.005000000000000001 -0.00267658477444273 0.06425 2.735415321816602 1.380673127934116 0.4560160047942173 -8.047436030387235 8.177740246914334
2539 3 -0.004999999999999998 0.002676584774442731 0.06425 2.679568664391144 -1.119780004129378 0.0271950050422084 -8.047434931895117 8.125014203620385
2540 3 -0.00476823725421879 0.002764877161664096 0.064375 3.072173947344445 0.3109824220965868 3.782869065947905 -2.741876076491634 4.682381109627429
2541 3 -0.004326295515977192 0.002405234125462957 0.06425 2.850997506016226 -0.5779068250525529 -1.395192811170864 -8.047434931895115 8.187902555714187
2542 3 -0.004094532770195986 0.002493526512684323 0.064375 3.243602788969528 0.9126885961800041 2.203422870779987 -2.741876076491635 3.63400017059858
2543 4 -0.003886393277136203 0.000407151614803805 0.05974297508004143 1.365742114907018 -3.229494448380777 -1.448545393909811 -12.03662361021692 12.54624350490501
2544 4 -0.003877147436567878 -0.0003941844167017668 0.06021944451469528 1.365764667341987 -3.229173910802245 -0.9262239708551545 -12.03200716739276 12.49218361482825
2545 4 -0.004373705724401463 -0.001005844229486422 0.06021939495175209 1.365757487076785 -2.199764307960654 0.3227982155582894 -12.02043573765471 12.22432153625025
2546 4 -0.004407629424970488 0.001023477878225811 0.05962098458673128 1.365727315714713 -4.684818685976845 0.2403738209674883 -12.02091600435102 12.90378732302834
2547 4 -0.003417114150376572 0.0008081662729500727 0.06036755782580153 1.365781049364499 -1.659666518029256 0.7552295742096126 -9.3981411388623 9.573396551214421
2548 4 -0.005899112477241756 0.0007587755273251191 0.06001334117068938 1.365722773764909 -4.330828564539702 -0.9624742929239192 -12.03196636018624 12.82383122598803
2549 4 -0.005213182141819457 0.001147709649782088 0.06000138948695693 1.365734478174101 -2.884086509481472 -0.04364416593714181 -12.02360736353261 12.36474802977355
2550 4 -0.003938350298210857 0.001424492536372079 0.06024556733249138 1.365766250172194 -2.765803248901572 2.029498967658714 -9.392390100635465 9.999276247502983
2551 4 -0.005177526749522638 -0.001147829007675642 0.05995514408876453 1.365732882492203 -3.003894540634085 0.1629860904982732 -12.02168784078305 12.39237367973457
2552 4 -0.005908596801810743 -0.0007018921072542915 0.06004377520627274 1.365727946070345 -2.70824838894099 -0.01639213592652079 -12.02329962814872 12.32455321650902
2553 4 -0.006171188100514561 6.261892317383839e-05 0.05997151782502875 1.365717117341008 -3.230063869928265 1.906961863417394 -12.00547110016281 12.57780396131172
2554 4 -0.003408952897057754 -0.0007974155552196871 0.05959918017210615 1.365742373451572 -5.210770033455373 1.656066643459697 -8.757992306002784 10.32458765768107
2555 4 -0.00390551118489134 -0.001409075368004343 0.05959913060916296 1.365735193186369 -5.136669026652605 1.739572696703933 -8.761323601737416 10.3039930663239
2556 4 -0.005874759705531829 -0.001602040320093203 0.06090055296370827 1.365780297275557 -1.534258286638434 0.3115641261808342 -13.39218314537776 13.48338199763627
2557 4 -0.005312918664264085 -0.001763378002026489 0.06060166152416889 1.365768599030609 -2.913050639986916 0.4695317482618266 -12.49600255903094 12.83964189722835
2558 4 -0.006215685958815331 0.001304580328891021 0.05939923981070153 1.365678550924543 -4.693512024863642 1.817842135780212 -15.15601086855958 15.96991767687153
2559 4 -0.006348797393277937 -0.001156134714382324 0.06071990634541663 1.365763093739113 -2.165817591160294 0.9952921612504821 -13.78187046381784 13.98646938315316
2560 4 -0.005529755623393032 0.00169351445134799 0.05938728812696908 1.365690255333735 -5.048199314706597 1.616063702582367 -15.18252353820197 16.08120017908692
2561 4 -0.005193243620146567 0.00176821689866628 0.06067838537567619 1.365772495910069 -2.754310893758936 0.1719589981297571 -11.72711657493898 12.04745041735909
2562 4 -0.004926575765958194 -0.001393204598860698 0.06247036058878588 1.365871826025486 -0.588899498430417 0.3541531566398349 -10.45342185116596 10.47598470197639
2563 4 -0.00506149012954947 0.001319323979305726 0.0626269885871369 1.365878896273405 -0.9452006356745384 -0.2825995830197105 -10.53612122826111 10.58220758172021
2564 4 -0.005421044874138204 -0.0009251269215933383 0.06296914647402299 1.365894626825099 -0.3457596616643281 0.2154667782912116 -10.53663199779192 10.54450518199284
2565 4 -0.004362333455837146 0.0009990403277029024 0.05744713678377013 1.365636230152316 -19.51205619460283 2.917556148155387 -11.95356616543551 23.0677310303901
2566 4 -0.005880483895438638 0.000978915876106199 0.06239239657706106 1.365863405167573 -0.8665967608093026 -0.2494926233605028 -10.53545511195886 10.57397990025783
2567 4 -0.0058445598409568 0.0007543811813335908 0.05745245307079389 1.36552254059578 -11.32735672840265 7.785253658166574 -11.60365953512729 17.98788757974753
2568 4 -0.005797279563466436 -0.001641128850230932 0.06153721652347583 1.365818958275601 -1.523663707771602 0.09715150179752183 -12.11510953976138 12.21093234233565
2569 4 -0.004092535045055776 -0.0004558437015438478 0.06298881037484344 1.365899665458017 -1.114265305375183 0.2879645745442344 -10.40440876841637 10.46786666839308
2570 4 -0.006246113618910409 -0.001268677477384925 0.06185646227371462 1.365834804961514 -1.139398838965692 -0.2205883484531293 -12.49357870772873 12.54736617222604
2571 4 -0.003827529913196967 -0.0003916181815785913 0.05745145025707982 1.365676075075219 -12.21596057950283 7.845577438113382 -11.66341232893004 18.62304930380731
2572 4 -0.006606646916544728 -0.0008581929701474083 0.06134616169684577 1.36579970214657 -2.126892469704416 0.9678943193558556 -13.85073628382034 14.04647238971636
2573 4 -0.00589284445914081 -0.0007181923932789115 0.05744085708575195 1.365521053583427 -19.66646366684981 3.665770114797239 -11.98874082222806 23.32246921311339
2574 4 -0.004386610514172187 0.001642718341301236 0.06079527395866295 1.365787260941688 -1.702335714457557 0.160170488796352 -11.53486541394118 11.66090569329567
2575 4 -0.003840219970791344 0.0003825669989687392 0.05743751716716283 1.36567100464063 -12.20757340851615 -5.325129599976693 -11.20055515329456 17.40213462546626
2576 4 -0.004371786678529451 0.001620114225086056 0.05697454481731247 1.365599109281057 -19.63775261510819 3.448536855725109 -12.65501951915938 23.61531819069538
2577 4 -0.00415979274180249 -0.00115659623976036 0.06249002448960633 1.365875627971449 -1.189053559153043 0.1422844139213806 -10.44569741004645 10.51411848911884
2578 4 -0.005921108634763039 0.0002825910068751562 0.06280392265396562 1.365883709357783 -0.6534285588332077 0.3045942684243112 -10.66016832607086 10.68451848657768
2579 4 -0.006129204180574433 2.744354703229643e-05 0.05748102296148351 1.365507666616414 -16.74722798388839 -6.562497535263351 -11.44420543943588 21.31914297491074
2580 4 -0.004540388063947148 0.0008556739710238353 0.06303851466404146 1.365900437150569 -0.6743547410381527 -0.4290619695143654 -10.4636752291506 10.49415779334312
2581 4 -0.00477867625608389 -0.001813236951242243 0.06114065706726549 1.365803752136866 -1.439891453879312 -0.09162174854085461 -11.09001993482111 11.18347996370048
2582 4 -0.006511423141764845 -0.0008870279741621481 0.05932612311801055 1.365666182221719 -7.436920469965719 -1.350382499337552 -18.69449846819156 20.16471155132968
2583 4 -0.006092516174361661 -0.0009372555079450429 0.06255762039711843 1.365872566015479 -0.6691985057837898 0.3036706444676429 -10.66743063137244 10.6927133495478
2584 4 -0.005184015749693929 -0.001147581712550586 0.0574177673709589 1.365583058278663 -15.69204733102607 0.8877440818370455 -11.63926777801863 19.55763261242071
2585 4 -0.005023172553592456 0.001305225777195944 0.05520633734369009 1.365355507627312 -81.7382185586732 -4.72918542047464 -30.1423672186385 87.24714247142946
2586 4 -0.003258948698933742 -0.0003981048929784302 0.06109673377724299 1.365816638564685 -1.479828458555046 0.129514210494111 -9.103076142729833 9.223484236328828
2587 4 -0.006428785811142217 0.0009896378502851123 0.05674126841024615 1.365302405573773 -51.3869515943292 3.096620760385686 -62.05150951654382 80.62628409875599
2588 4 -0.005146098357724243 -0.001768687667836881 0.059254334542022 1.365694454002919 -3.001967259566129 0.2249065687305436 -11.92089438302671 12.29512559038918
2589 4 -0.00584244795594078 0.0009680929003388352 0.05530088897762524 1.36510691346875 -56.14917060552929 7.014170612348865 -31.48880569336243 64.75702921739313
2590 4 -0.003561581637459676 -0.0002287951426673754 0.06248881037484344 1.365878012646776 -1.221411421397782 0.1733030878244581 -10.3361700109708 10.40952882297093
2591 4 -0.00648444692114839 0.0009913383651666311 0.06082428874461356 1.36576595306923 -1.55670170694687 -0.6758335943562052 -15.29679571850499 15.39064750117241
2592 4 -0.006774014440468663 -0.0001225169437340181 0.05925386573676655 1.365655353492382 -7.467483253279669 -1.255076440440354 -18.69970703666058 20.17467636088108
2593 4 -0.003268198737634051 0.0004101223965083612 0.0588727107374523 1.365728815015451 -10.08316934584874 2.960343834514272 -0.7607084296997962 10.53625251171528
2594 4 -0.003209331175562831 -0.0003955386578552547 0.05682873951962752 1.365766891068804 -41.96051772427858 -3.465520414205835 26.43182558044314 49.71253647668506
2595 4 -0.00524852886081837 -0.0001809408661194916 0.06337026434258913 1.365914154087401 -0.3783055251073353 0.1029820742270928 -10.57230087114776 10.5795683318371
2596 4 -0.004686802055891647 5.173399482966067e-05 0.06337026434258913 1.365915390774356 -0.6069196273489041 0.008287247630373796 -10.57433431412151 10.59174047545267
2597 4 -0.003941018776717845 0.001019278329984453 0.06268311778400665 1.365885563139717 -0.8816690235666956 -0.3881672075144183 -10.38056697395018 10.42517072995794
2598 4 -0.006756522544421196 0.0002951817610153503 0.06078246539895293 1.365760296645329 -1.227860350790183 0.1321552183712637 -15.31244019009523 15.36215904806446
2599 4 -0.003222021233157209 0.0003786465226920758 0.05681480642971053 1.365761820634215 -42.21621018355162 5.55437741561469 26.43172745672221 50.11682079984066
2600 4 -0.006428954313415058 -0.0001245647742260457 0.06239239657706106 1.365862129502895 -0.6619355685376893 0.2857152216909952 -10.66735094686666 10.69168686917169
2601 4 -0.003556479361066243 0.0004423869126667511 0.06251486746255433 1.365878863952263 -1.224216624624131 0.09860261560174315 -10.32110264901536 10.39392075741015
2602 4 -0.00671343015075985 0.0002627002159838179 0.05676983830093578 1.365287531594406 -44.23987319618777 20.69429917222591 -61.58840655024058 78.60376721278746
2603 4 -0.004965171316343178 0.001775773068593557 0.06192669521330847 1.365843770930166 -0.7882006021442488 0.1377113479205305 -11.47682204818663 11.50468030543698
2604 4 -0.004888456786993083 -0.001388252769628915 0.05540031341720623 1.365564529403967 -56.53413431026641 -2.037968763064004 15.99788507369291 58.78940368571153
2605 4 -0.003267114150376657 0.0004019643527183743 0.06111755782580153 1.365816013620723 -1.482281703180045 0.6401544969876781 -9.103071977728984 9.245154204193165
2606 4 -0.005512274617450982 0.00170467004065608 0.05816056781402017 1.365588673372533 -12.0018520869819 -0.3994542802402455 -23.53874022381128 26.4249183265316
2607 4 -0.004340539917063038 -0.001006502919367652 0.05722900491033569 1.365638705948904 -17.97197013462647 0.5749606306701933 -11.77353809771605 21.49275435082944
2608 4 -0.004165839763139898 -0.001596742544441933 0.06109789832906268 1.365807594999904 -2.466658565520374 -0.4139098183732827 -10.89756188624178 11.1809025074486
2609 4 -0.005149213010737677 -0.00177778455805841 0.06173958876164254 1.365833918529952 -0.9048961526436787 -0.07900514095327912 -11.88325828319024 11.9179237405001
2610 4 -0.00562108000435887 -0.001677157717508484 0.05873061022085201 1.365639188032821 -9.84261433116888 -0.719363565824681 -20.00136874704679 22.30357129625897
2611 4 -0.005536184617540461 0.00172931534306383 0.06138884979208179 1.365809269945876 -2.208958265925073 0.03381024083586599 -12.80179411115994 12.99101890605634
2612 4 -0.005405791421789713 -0.0009290498324831491 0.05502087005903266 1.365274867928608 -146.6923770030234 51.64587777664704 -13.27048728373071 156.0834904622048
2613 4 -0.006163414777422197 -0.001288726393168835 0.05679774054296841 1.365409961143372 -25.22345510657568 -13.59765065306575 -36.96488784735349 46.77094957731433
2614 4 -0.00608506330046856 0.001341556480249719 0.05607296345498453 1.365196071065627 -53.72771509449516 -0.2859750940845019 -57.48620571936519 78.68553233624878
2615 4 -0.004094253485424507 -0.001152191074082717 0.05527505458694684 1.365817232555505 -73.52704591170733 -8.126104967865336 16.79045224434178 75.85630724613877
2616 4 -0.004049861315294414 -0.000460313275987799 0.05489561122877325 1.365915164982029 -80.14988135748162 -20.99545744807003 21.18259043626591 85.51909057434301
2617 4 -0.003931066382111549 0.00142172983651653 0.05815586091940622 1.365682171527487 -11.23906997222756 3.914678484976427 0.4758762690449211 11.91082951371586
2618 4 -0.006255334736111366 -0.001241434924255102 0.05871376767933236 1.365615852673479 -7.154302172544968 -2.473007317393346 -20.21147889976102 21.58248558631391
2619 4 -0.003408952897065748 0.0008052565077823669 0.05814624130279893 1.365716946015801 -9.829013980460349 2.2524615893263 0.5418695351697378 10.09835242168842
2620 4 -0.006707955202677571 -0.0002019830070993079 0.05606174873439259 1.365095632575066 -46.43122806768989 8.598888602251098 -74.88680285727683 88.53153713368137
2621 4 -0.005510290552975448 0.001727373708681351 0.0563115561490746 1.365379085216376 -36.40722482505307 9.200587779473478 -53.70471548605228 65.53116281882674
2622 4 -0.003746863307966494 0.00131043876486972 0.06193041126721906 1.365850352187511 -0.8940724534196873 -0.4073534301457475 -10.33320119034666 10.37980487336814
2623 4 -0.005883072695265182 0.0002717680311077927 0.05495280194126847 1.364998011643149 -70.76361321166874 -34.05393233983936 -42.42170855373394 89.25671189997399
2624 4 -0.004249913781989504 0.001603283495196932 0.06158551477342543 1.365830100855124 -1.610199255300668 0.2186096311838897 -10.98958566227438 11.10907398665991
2625 4 -0.00639429955077354 -0.001007773675940752 0.05612981685215678 1.365204675157018 -44.08851251383545 1.102629337392754 -73.98284266460357 86.13056214767084
2626 4 -0.004956245484751359 0.001762241514982736 0.05585645611468473 1.365463198049178 -80.9086722238292 -0.1800280919693246 -17.38256161846195 82.75505482782641
2627 4 -0.005454586067975315 -0.001718115712440509 0.05677465082817535 1.365471965838609 -29.55138888521219 -11.07237617330083 -37.92410608173639 49.33680088196758
2628 4 -0.006751780768984169 -0.0001713875251778635 0.06148097813162608 1.365807733782124 -1.503538162174505 -0.8496910019281515 -14.14932370973332 14.25433138546646
2629 4 -0.0063909183739172 -0.0001353877499934092 0.05526110436634367 1.364905720403642 -50.17560307372034 5.878896313090862 -62.27706565957207 80.19093136283091
2630 4 -0.00335926071726541 -0.0007377039534789138 0.06171527980949729 1.365843426638532 -1.369161940337855 0.4604692546324176 -9.638300844598353 9.745946825440654
2631 4 -0.003268198737626165 -0.0004022814439458138 0.0588727107374523 1.365731660196067 -10.11119956925942 -1.456272444897839 -0.7607100143807719 10.24381598278394
2632 4 -0.003701188747930092 0.001287827788818623 0.05598859240200836 1.365778360369318 -54.14123458806692 11.81036891798257 37.96175122446546 67.1703256857308
2633 4 -0.004502070487990134 0.0008415757689140534 0.05485825030733332 1.365634199703594 -159.9933059336126 32.40346680543649 -1.114812622930856 163.2454759304583
2634 4 -0.006141457583119986 0.00134137093202115 0.06152280147728671 1.365814431514229 -0.7210998011835599 0.8057562264366855 -13.17783211447914 13.22212113305222
2635 4 -0.003518907907698314 -0.0002332647171113264 0.05539561122877325 1.365982978565234 -41.11887793014271 22.97247137031394 48.94272031497683 67.92559484409331
2636 4 -0.006329231094178074 0.00142382839605235 0.06302213223447192 1.365895636669189 0.1195779568289054 -0.7985155926385196 -11.48837658704063 11.51671492419212
2637 4 -0.004351523173163507 -0.001637770698596264 0.05904211597035569 1.365699351333147 -5.89492025609414 0.1390851712425653 -11.12815647086024 12.59385945413546
2638 4 -0.006198060788307015 0.001313702789776866 0.05816734018903127 1.365549398201617 -12.32302667312465 -0.5888442476043648 -23.53590719635792 26.57334475541329
2639 4 -0.00607726272201317 -0.0009411784188348537 0.05532917248410786 1.365014762985595 -48.93268515341633 2.51505734086797 -62.39081438533104 79.33061772995377
2640 4 -0.005189514823672175 -0.001754923565834452 0.05804594630244158 1.365615710235582 -14.98209029756846 -0.1936018600805029 -9.484362882619966 17.73284102037631
2641 4 -0.003362323892314892 0.0007335473475520173 0.06176216094576673 1.365843653000057 -1.248713305510789 0.04000159221274913 -10.20261692722656 10.2788266456084
2642 4 -0.004232822498954878 0.001579950918437186 0.05628189964367458 1.365633496759987 -30.83481853378625 -2.861881342639367 19.76499645125409 36.73733092576218
2643 4 -0.00509631639158995 0.001779554088294178 0.05876650284335073 1.365660157565497 -5.638264629283236 0.625378828255155 -12.58168919454515 13.80145027512654
2644 4 -0.003691364179665727 -0.001304193584479569 0.05606251824221045 1.365818061269085 -64.72885668342046 -15.03551687029502 51.30470447701527 83.95275073857665
2645 4 -0.006369855833502476 0.0007275035268213073 0.06343365831137648 1.365915940859399 0.3761148648357459 -0.4498523472034639 -11.67691198578088 11.69162533822856
2646 4 -0.004311548370514138 0.001642921988664531 0.05876033986074945 1.365679241334832 -4.740958343270151 0.4842184604484898 -12.58405852204665 13.45621352447846
2647 4 -0.003520360362653022 0.0004301583549969889 0.05539808739369232 1.365949110591822 -40.80009871993894 -4.328277812314127 42.51133651269007 59.08126417463077
2648 4 -0.003769593493637979 -0.001324681792157761 0.06171649392426019 1.365841563338953 -1.563990991985768 0.2025045934792148 -9.581652270387529 9.710568271940387
2649 4 -0.003396262839463485 -0.0007813325132191386 0.05816017439271592 1.365724861631006 -9.683513860946087 -0.3107841897430407 1.357061336041944 9.783079422017853
2650 4 -0.003903509668124251 0.001006468377082282 0.05521506183666174 1.365886753734791 -53.72302644493993 12.79701752857947 40.94304651697901 68.74780204575265
2651 4 -0.006532598264871554 -0.0008898114533093948 0.05805219347571498 1.365530370181003 -9.025056259649237 1.751110089907857 -30.80788817690184 32.15033438328907
2652 4 -0.003303896929909778 -0.0007260904859223164 0.05618307488403688 1.36587965563435 -40.43529589885196 19.21442939556406 57.02130931744461 72.49577344715019
2653 4 -0.003318039442458863 0.0007115177667333294 0.05617161795903895 1.365840717226349 -40.83538052782158 -4.62310390393529 41.8476105047217 58.65256940248625
2654 4 -0.005211601395041728 -0.0001944576729968646 0.05454127586436391 1.365241149075537 -153.8675728526073 26.82878938622206 -4.283893422122468 156.2477700907593
2655 4 -0.00646803289786828 0.000999652714957994 0.05878522690209428 1.36560917798539 -10.70733100078634 1.501558553263756 -28.14465224892363 30.15000937747983
2656 4 -0.004933381226456045 -0.002015233817156142 0.06310009624619675 1.365904815657371 -0.673721771859754 0.9693911600525589 -10.91813953301673 10.98177540789688
2657 4 -0.004649874590115005 3.821718795228763e-05 0.05454127586436391 1.36562874297742 -161.3246433646831 23.7656792722593 -3.779673503649926 163.1095766649165
2658 4 -0.004932189713267574 -0.001996765181046986 0.05485903755284233 1.365481763504511 -67.01867200431555 -56.33429010784374 -30.27121758750609 92.63585295881325
2659 4 -0.006754285756248807 0.0002687120464842356 0.05868167617381993 1.365591636977129 -9.681577464533563 4.223429311336817 -28.16004582696566 30.07587867920785
2660 4 -0.00410980842918485 -0.001588526494201569 0.05648573753105697 1.365667927577224 -24.28654978718074 9.820966687495766 13.46658297697885 29.45567422956003
2661 4 -0.006768957986305177 -0.0001441755129981871 0.05809235935144654 1.36551698321399 -9.533764883174056 3.35036847340744 -30.7945389883347 32.4102032276768
2662 4 -0.005449524348064205 -0.00153756224390122 0.05447959419466875 1.365192102029152 -170.8187383833346 -31.78824281550624 -90.34778972056263 195.8373224683249
2663 4 -0.005068295590047316 0.001947294761010282 0.06325672424454777 1.365911979922815 -0.845978055308838 -0.8449985948785169 -11.13682708739602 11.20083117763894
2664 4 -0.005427850334636055 -0.001547156139888782 0.06359888213143386 1.365927616456984 -0.1626097790605036 0.8486152194684871 -11.2415039939424 11.27466193625258
2665 4 -0.006328122620456859 0.00142652222716236 0.05475961311326133 1.36461416008242 -155.877287255125 81.2639243560274 -167.4188557182467 242.7563126548227
2666 4 -0.007060759773912904 -0.0001215939925214849 0.06302213223447192 1.365895619857506 1.616699400888909 -0.1992077307531623 -12.17384192789307 12.28233804933546
2667 4 -0.006925276804334938 0.0005595248909482871 0.06343365831137648 1.365918434172308 1.658047335127963 -0.07924563704764322 -12.12056186674261 12.23370020893316
2668 4 -0.004870513383263053 -0.001776088948541503 0.0561778680704621 1.365533004013208 -59.33422661867879 1.14107755520062 1.610507413064309 59.36704675618662
2669 4 -0.002943387097957524 -0.0002258243609628192 0.06311854603225431 1.365913482233521 -2.085101592121581 0.2180052767801535 -10.93920872888331 11.13828813437005
2670 4 -0.005066905479866943 0.001946713365777873 0.05466506147932618 1.365127218898953 -87.08785559509856 65.68974160716569 -115.5815766560732 158.9293478463706
2671 4 -0.003657398767312032 -0.0008948146580808845 0.06361854603225431 1.365933826943357 -1.377655147020424 0.4331496838324475 -10.74482643307658 10.84144120629989
2672 4 -0.003724656464058746 -0.001595567196297397 0.0631197601470172 1.365909789456788 -1.350249451065816 0.477470479939091 -10.72680453290891 10.82199090401354
2673 4 -0.006541263373101102 -0.001376226464482076 0.0631873560545293 1.365905787515438 0.4602583391162259 1.392399056789696 -11.80274587708472 11.89350339938217
2674 4 -0.005963838665281549 -0.001762049319253899 0.06359888213143386 1.36592935996051 0.6493529671251754 1.29751738361826 -11.67697429509052 11.76677268093978
2675 4 -0.0059855126787097 -0.001752455423266336 0.05447959419466875 1.364690016458134 -196.1139700455165 -45.79598120099936 -102.5543370445676 225.9985689950863
2676 4 -0.00636874735978126 0.0007301973579313169 0.05441152607690456 1.364505258256819 -181.1610483406106 46.87557739373913 -192.673951713203 268.588713204124
2677 4 -0.004249344445727081 -0.001880968135796913 0.06350121411476289 1.365927507363311 -0.9989319027088283 1.046260489730066 -11.05242138832865 11.14668311668562
2678 4 -0.003651652503327311 -0.0008857674256474625 0.05435433536440935 1.366347215991955 -203.9428225212758 47.22460688793483 193.5467275079084 285.1020415266876
2679 4 -0.002937640833972803 -0.0002167771285293972 0.05485433536440935 1.366395790361333 -152.5850423575511 21.33010281996002 125.0562113002347 198.4344335601427
2680 4 -0.003126445359715932 -0.000667766099204412 0.06361854603225431 1.365937818533668 -2.080949743366252 0.2306406196108907 -10.95175069010931 11.15008475789042
2681 4 -0.006562937386529253 -0.001366632568494514 0.05478789661974395 1.364564614233655 -101.130184218226 -93.4566450172363 -150.215986749549 203.7800317328239
2682 4 -0.002938284821564091 0.0004453576943713073 0.0631446031199652 1.365914333539008 -2.120708703011451 0.1106400085950381 -10.93921554640276 11.14343229822797
2683 4 -0.004547193524444994 0.001483644752728392 0.06366825032145233 1.365933520799979 -0.7409767802164031 -0.8609998269985524 -11.05856697034143 11.116756304266
2684 4 -0.006924168330613722 0.0005622187220582967 0.05441152607690456 1.363997427314459 -230.7986545596407 32.48836865795866 -216.0463603586627 317.8042524398012
2685 4 -0.004035672757035863 0.001757607855096959 0.06366825032145233 1.365937309279188 -1.307377213159785 -1.17335337875972 -11.42384204278846 11.55812096958314
2686 4 -0.005750697912637303 0.001812345081934175 0.06358847392309544 1.365927687051784 -0.008429406819427493 -0.9725220410352592 -11.60899891176064 11.64966634322453
2687 4 -0.004545803414264621 0.001483063357495983 0.05431697444296942 1.365405910975235 -153.2772132536256 75.77741639924467 -63.56893157386845 182.4202017332102
2688 4 -0.003696044673457404 -0.00157764522374238 0.05473377872258293 1.36624928356543 -163.3461934372155 112.9203064492836 162.744455314193 256.7464357192553
2689 4 -0.007059651300191688 -0.0001189001614114753 0.05471982850197976 1.364282012576854 -228.2301990499795 40.09183811046847 -220.8090958474625 320.0828581015284
2690 4 -0.002939093288927511 0.0004466459435789181 0.05485681152932842 1.366361922387922 -160.7950950765249 -3.438339593943011 125.0531117679097 203.7281658059809
2691 4 -0.0035058824989741 0.001464190849930601 0.06331285344141753 1.365920348660628 -1.527243613565756 -1.066122316417616 -11.24654543176728 11.39973131251551
2692 4 -0.005750697912637304 0.001812345081934175 0.05434808703635677 1.364577071967372 -159.2612184478592 76.65661678221886 -163.6482565817186 240.8757448981294
2693 4 -0.003120699095731212 -0.00065871886677099 0.05435433536440935 1.366708090968976 -137.699023322514 66.32728416283493 171.039264297453 229.3790739797458
2694 4 -0.00403428264685549 0.00175702645986455 0.05431697444296942 1.366186020320656 -472.267208445361 -100.0441028112148 152.702156795156 506.3231057042206
2695 4 -0.00422647891911046 -0.001872093395675319 0.05437944335817357 1.365995972545794 -242.2828249291696 -14.94185009374486 74.29902641291534 253.8593537094698
2696 4 -0.003121343083322498 0.000887299432612899 0.0636446031199652 1.365939293874726 -2.37407115297067 -0.653227691561986 -11.5842363084602 11.84303386411769
2697 4 -0.00692416833061373 -0.0008000190448812496 0.06358847392309544 1.36592780809065 1.913691795370291 0.6629231916408002 -12.64086823188117 12.80207924914798
2698 4 -0.003505300856157147 0.001464897703905803 0.05467378597229783 1.366550986195783 -271.4103010289282 -198.0717431099579 321.1575535601545 464.7990330583467
2699 4 -0.00692416833061373 -0.0008000190448812496 0.0543083024250752 1.364023064438224 -248.6591845109181 -19.35219415232005 -263.71805981386 362.9781157757731
2700 4 -0.003122151550685918 0.0008885876818205097 0.05435681152932842 1.366906404446631 -231.8336816352671 -217.4555436465874 305.6600869355116 440.9782966866054
2701 4 -0.005158773670100767 0.001145348432212805 0.0574456806957828 1.365561815766696 -19.23496102879067 2.877593631664075 -11.93398471674067 22.81850700873063
2702 4 -0.005168226892793072 0.001766422329595959 0.05697308872932513 1.365524694895437 -18.80514544440399 3.549489587708289 -12.89604659357578 23.07683663897882
2703 4 -0.004367974889195992 -0.001640995623600669 0.05831972018655475 1.365667378928951 -6.593781456967765 0.3449142651163744 -7.893632589375022 10.2910813430162
2704 4 -0.003909272843329555 -0.001396217251008199 0.05793772904597178 1.365687492504691 -14.37124070386442 -5.832218748475783 0.8105867399783393 15.5307561233029
2705 5 -0.005144666132627614 9.954299123541888e-05 0.03543916603811866 1.149263157020882 1.877512748915874 -2.7748378933938 265.6075051038127 265.6286346517048
2706 5 -0.006017043582786792 -0.002014465471890338 0.04235608081283902 1.000000002354838 3.450126098717964e-06 2.81982204947706e-06 -8.050504014118318e-06 9.201379318836226e-06
2707 5 -0.005042572119921806 -0.0005091222805139982 0.03472672443417054 1.171647853599972 -0.7182107532755044 -0.9679100402050892 286.1106115392456 286.1131501904328
2708 5 -0.00510731268964217 0.002898202972858011 0.04192881513575058 1.000000001369147 -7.980587412328187e-06 -2.091245296708316e-06 -1.249651949516979e-05 1.497418050612368e-05
2709 5 -0.005375106150080237 0.002999321105613003 0.04274585085116316 1.000000002301858 -1.346274134699438e-05 -6.775623647930092e-07 -2.403787412550396e-06 1.369243182414986e-05
2710 5 -0.004868674806880113 0.002355259863968665 0.04253021244389207 1.000000002301858 -5.396930730137883e-07 -6.452400527018863e-06 -4.629595824060464e-06 7.959767500894134e-06
2711 5 -0.003156815045982007 -0.001500778752210432 0.03833174636700534 1.041925441148555 79.06526201524126 18.21039472574407 187.5053414304429 204.3066009666676
2712 5 -0.005510523768732835 -0.0002073299500879823 0.0362823793285442 1.118200252478787 -49.7138587226268 -17.83180218242264 270.8997170799827 276.0001768698365
2713 5 -0.0036422886629061 0.002515545199137922 0.05154831842523205 1.296994240037737 -47.64902190455917 61.85449727306833 -645.018259959595 649.7268378346924
2714 5 -0.002327110896957646 -0.001592579163674633 0.03885141434912519 1.017892039774887 28.63390869504683 -2.642364154059682 121.4230618509504 124.7815802301713
2715 5 -0.004221620012273244 0.002305210344849649 0.0427391256041043 1.000000002301858 2.096397819968329e-06 -6.734411766562323e-06 -3.730682424848008e-06 7.979046121952851e-06
2716 5 -0.00549314923159064 -0.0004258461489096166 0.0432510450008173 1.000000001118692 8.911616361767734e-06 6.207476333742073e-06 -8.8511370635012e-07 1.089647167143857e-05
2717 5 -0.004480845314995083 -0.000276447419564846 0.03472672443417054 1.171710277927259 -0.5141075301475432 -0.8834868350355076 286.1402026501377 286.1420284198078
2718 5 -0.005499932554103715 -0.002268582030711632 0.04314732895361416 1.000000002354838 9.852402248127551e-06 1.049708923376434e-06 1.47579875670203e-06 1.001746978298453e-05
2719 5 -0.007308628449732641 -0.0009048552496614964 0.04710644208170998 1.022048713009382 12.15874139440859 -58.43666363876873 -130.9545646694218 143.9158665932442
2720 5 -0.004673470865996246 5.980531075458489e-05 0.04314104216683567 1 0 0 0 0
2721 5 -0.003508199327170666 0.001959345033490654 0.04781807387525727 1.056073746038793 69.68735442229648 -37.87393893777801 -261.3801087088354 273.1489041634322
2722 5 -0.002130483478509449 0.001257835279046582 0.0485058841020049 1.09270972951807 -4.979579681014116 32.72936628471762 -459.6206273637435 460.8113808592838
2723 5 -0.0069134890288213 -0.002502998816376695 0.04234888403027121 1.000000003581913 6.998375293753517e-06 3.059000793478751e-06 -8.00596490670039e-06 1.106481887307883e-05
2724 5 -0.00373118348028846 0.00196560108143978 0.05235307713737017 1.325822790071697 -71.42849928546782 -34.59508106003799 -324.8166522225149 334.3721096394956
2725 5 -0.008234658601206845 -0.0006495646301524523 0.04714406409631021 1.021476523609347 -63.38327401997321 -4.08315123246736 -116.7318117055501 132.8925408498845
2726 5 -0.002599139710787126 -0.0008737047603252188 0.03934731184632836 1.012589901307678 17.58358091677726 -31.77482164993015 70.15424643159095 78.99645499087991
2727 5 -0.005958244721422899 -0.002787042787024938 0.0416970448617916 1.000000001236146 4.519797802932207e-06 7.061645064988541e-07 -1.182230754089299e-05 1.26765214503461e-05
2728 5 -0.00458293932770089 0.0003322178521845711 0.03543916603811866 1.149325581348169 -0.9135904872018067 -3.630166883370945 266.1553270113741 266.1816501108049
2729 5 -0.006283320809339759 0.0003557962718143435 0.03602261479895227 1.126523960465781 -4.722523046457336 -54.47745348307667 286.1727939912925 291.350241432383
2730 5 -0.005634390669839461 0.002240175345876663 0.04123053522234103 1.000352983929924 1.620844068570254 0.424728451674996 2.53802238544863 3.0412312278615
2731 5 -0.005141545155032262 -0.001203564531532147 0.04372928442212339 1.000000001118692 9.965254155247343e-06 1.360516901258748e-06 1.576605116437465e-06 1.018051964835106e-05
2732 5 -0.005917463173234537 0.0006626692131377447 0.03517940150852673 1.157586865007876 -2.205461517241538 0.1817379441327452 271.7774918823793 271.7865011052997
2733 5 -0.004147836615513577 0.002100500945912539 0.05081210179860006 1.24842358268983 -72.02197680704467 9.363170552949617 -810.5665070490087 813.8137971647008
2734 5 -0.007079039906044683 -0.001367315275851498 0.04628357455849566 1.00451333557412 -17.02854665749187 -3.504188338142291 -37.59451137427535 41.41977815785677
2735 5 -0.006173588380857157 0.002812976232744803 0.04276190750356448 1.000000002275423 9.243395520351421e-06 -1.664424128469043e-06 -1.230465351305346e-05 1.547950795411086e-05
2736 5 -0.005721698942213972 -0.001162215486287648 0.03606711728360246 1.124697664663769 -35.70298697816073 30.2878087529716 280.7448791224971 284.6221034841195
2737 5 -0.003634084777060429 0.002729727735002842 0.04259047798073893 1.000000001369147 1.849127142501072e-05 -2.799683561516959e-06 -6.64407230361814e-06 1.984714195378649e-05
2738 5 -0.003423932403463381 0.002883074754822786 0.04778841612156673 1.05404037994371 35.87636208649432 59.53467019680284 -268.4580097417665 277.3106440555676
2739 5 -0.003901878237498497 0.002830845867757833 0.04340751369615151 1.000000002301858 1.116630755275056e-05 -3.176660377078559e-06 6.199749361974392e-06 1.31610975099046e-05
2740 5 -0.005282097377150394 -0.002267508973245399 0.04095844562958359 1.000068523217563 -0.2203280614465843 -0.03442363210990085 0.5763058915202885 0.6179465362872764
2741 5 -0.002904208945122084 0.001326069990531205 0.03985649325192538 1.010985082835088 30.95691761943532 3.403789081718497 81.52610628785834 87.2721177413984
2742 5 -0.006518760510250181 0.002714139478915858 0.04121400450852188 1.000352983929924 -2.249993094285528 0.4560286105823364 3.328564354545842 4.043485090903069
2743 5 -0.005589035948088515 -0.002420062033970288 0.04012981770870413 1.005495034256202 19.71202619259481 -0.4760183104627665 51.3544278960734 55.00970673056203
2744 5 -0.007147771834633924 -0.00135419038736621 0.03951410181048326 1.007392502640573 -23.47929205827227 4.555690793663461 30.02402152055979 38.38584820519347
2745 5 -0.004321866789437867 -0.0007179130718679453 0.04361928158814178 1 0 0 0 0
2746 5 -0.002104127268109321 0.001301668800335405 0.03937564244070128 1.013467293875413 37.44803335602037 1.35413750651096 81.54268192639367 89.74072579586797
2747 5 -0.006790164760829809 0.003185822233029006 0.04192834107433275 1.000000001342711 8.81478546233556e-06 -1.786580757594159e-06 -1.304029810465528e-05 1.58411391070429e-05
2748 5 -0.006182882933043249 0.003666709001492249 0.04310788709523906 1.000000002275423 1.087083449727784e-05 1.23477141353324e-05 -3.00234434977141e-07 1.645391223238533e-05
2749 5 -0.005192215684537312 -0.001250369739713745 0.03522390399317691 1.15573112428056 -0.745807135864178 -1.131931642521407 273.1288384521064 273.1322022239855
2750 5 -0.00782685735704081 0.001196741543730543 0.04760126063598706 1.02645251943107 -6.528762379927526 49.56405155662792 -137.6162583430276 146.4153492816124
2751 5 -0.005757216778871959 0.003756829937454647 0.04059618204505319 1.000352983929924 -0.1448395267323737 2.576496677927729 -0.004839193066617848 2.580569130572986
2752 5 -0.007902417591570106 -0.002324269096984013 0.04754092447274275 1.0218930751452 17.53157344988251 -54.17811035591338 -156.2901377069956 166.3407071460194
2753 5 -0.006186643563178371 0.002476612875482778 0.0356731572702022 1.138138257713891 -10.29151368951617 26.0588278422426 258.793122388328 260.305316807078
2754 5 -0.003478909028790111 0.003515088187108718 0.04223148508239942 1.000000003448162 -3.63230333830826e-06 -2.339187181385688e-05 2.013350933193787e-05 3.107622069230148e-05
2755 5 -0.003961002072117768 0.003482106532568379 0.05178986524497262 1.304529612154636 -27.13506911856556 36.14548484716302 -659.7792764205129 661.3255640339949
2756 5 -0.004710233230968039 -0.002568540752543418 0.04979343719512425 1.169052477365437 -42.25119831305698 3.693434691444602 -671.9287938759531 673.2660018583312
2757 5 -0.006290533062610433 0.001845546839364902 0.03517940150852673 1.155855139210674 -13.57261366287221 31.7829610611894 276.7032787936437 278.8531458503052
2758 5 -0.005246047462630226 0.003113927240278525 0.04085556915731092 1.000352983929924 1.572932230299219 0.3492971167758883 2.650796092651216 3.102070953688355
2759 5 -0.003265995501418081 0.001956251459560304 0.03943777622174054 1.014831378377816 -7.233733713391305 47.42465451202411 51.05033066841708 70.05398647026327
2760 5 -0.007722366317972913 -0.001536075125723071 0.0478232500773091 1.036378239033579 14.73021926095359 -33.82069546655615 -167.7789535252373 171.7864838901508
2761 5 -0.004491838627741719 0.003115220676628646 0.05259462395711073 1.332465640999244 -52.71551251491189 -53.3252552696301 -351.4708710422494 359.3804130729422
2762 5 -0.005031689087503647 -0.00309885462916939 0.04273078170979679 1.000000001236146 1.39853875400228e-05 -2.331281765366469e-06 1.021806061086411e-06 1.421513372925588e-05
2763 5 -0.00483028160534734 0.0003196385605231372 0.04114456597919672 1.001797359493258 7.892201516107973 3.36229275732528 13.13421803305677 15.68756006193101
2764 5 -0.002810856362866208 -0.001092990202985326 0.0523816005865686 1.329608632005961 -96.86215859032953 3.057747071370069 -336.1974593463949 349.8862090093027
2765 5 -0.007482106927395168 0.0006505079224035213 0.04712550445505644 1.023618446715986 -19.7451072125004 83.61430525705488 -100.6571483730196 132.337004730503
2766 5 -0.002777459923514164 0.001003597295921962 0.04138175456826582 1.000402189700018 0.06612414912085346 3.319250726340391 1.52098671994906 3.651739091127619
2767 5 -0.004182305206220857 0.00243998157111074 0.05299074250403563 1.341205858838009 -51.57541759157676 -57.36392558527405 -357.9387754670387 366.1568115454655
2768 5 -0.002931801100553183 -0.00152274703822616 0.04198506583663376 1.000402189700018 -1.467002743294751 -2.220304312213135 1.720115558477615 3.168697811749067
2769 5 -0.001472753044263454 -0.001718320088489454 0.03770000682398142 1.059171577927152 10.64469123163729 -23.09366673486302 247.3758019653485 248.6793403012746
2770 5 -0.006524885710344114 -0.001125993101071805 0.03576943477552149 1.133049410646503 3.483468638767463 44.94487688834924 296.1894127986536 299.6003083547769
2771 5 -0.007455667704281984 0.002724956477046022 0.04193892553474858 1.000000002503734 9.163144105456299e-06 -1.586211543654126e-06 -1.304586400589085e-05 1.60210438055321e-05
2772 5 -0.00549711787368566 -0.003629414540464678 0.04191242233163711 1.000000001236146 6.83160649594438e-06 -1.089499900175852e-06 -1.179446029859322e-05 1.367359320306861e-05
2773 5 -0.003238199530762836 0.00259374404764626 0.0423417219781291 1.000000002079015 -5.787029883121617e-05 8.761892063229834e-06 2.079329435111386e-05 6.21136323951032e-05
2774 5 -0.00206521098907756 -0.00157291892750202 0.04175329420767954 1.000402189700018 2.816769993497538 -0.378950140824018 2.208613779336063 3.599412623161145
2775 5 -0.002554087608746727 -0.00279556653998192 0.03611882792691036 1.123494814827886 27.12935128251912 -31.48596267114409 322.6232516775239 325.2893021132387
2776 5 -0.001894044913168069 0.000554277812926766 0.04165090375704172 1.000402189700018 1.400320967827075 1.693863037338904 2.409003197771848 3.260884421299554
2777 5 -0.004140615557357888 -0.002427521907118681 0.03817823044014533 1.045908551955994 -64.84599186632929 -88.56328484110986 179.6662852409742 210.5431835402579
2778 5 -0.007184263453702357 0.002253273722932874 0.04122458896893771 1.000352985090947 0.6463017785334669 2.158378848829122 3.350875217616654 4.037904155381343
2779 5 -0.006854690167457407 -0.003275576131511295 0.04168984807922378 1.000000002463221 8.362905395335695e-06 9.580506351368862e-07 -1.178648105892604e-05 1.448368680354707e-05
2780 5 -0.002204964976987127 -0.001060524647195792 0.05160329856008732 1.304895231683587 9.096651210905579 -36.21706475056757 -598.1756495115552 599.3400808480696
2781 5 -0.00717250323661726 -0.00121158694145527 0.03859392439960348 1.025048018520311 -5.27657285825786 -25.44263294023233 180.0881709469988 181.9530684190167
2782 5 -0.006927587854879193 0.002623383355920109 0.04382400298797946 1.00000000341081 -2.785549077770237e-06 2.725133430616251e-06 1.293510234627856e-05 1.350934893279576e-05
2783 5 -0.005032776556146886 3.542033851154674e-05 0.04690261048897704 1.018086622311013 -14.78310618798623 -9.935353121074456 -53.38389215799268 56.27691722315564
2784 5 -0.005044000816790228 -6.380578171932317e-06 0.04804180082490456 1.060586441368941 -14.70837809431043 0.03865653111661348 -394.8599314509548 395.1337790495078
2785 5 -0.00396793763058137 -0.0007164514466128199 0.03856735577636568 1.038018472474587 26.2260992749029 41.27614026291668 197.7108673446304 203.6691314469306
2786 5 -0.001739327262777382 0.001955848406785993 0.04901146633179215 1.127214648265872 17.48497017247268 -8.903181956240287 -605.2074711793415 605.5254528111693
2787 5 -0.004905725729644603 -0.003224327877661312 0.04883899982733329 1.10083167182913 -10.96087634027097 14.68220559785524 -475.6671381002325 476.0198884918886
2788 5 -0.007246320591049621 -0.002219997004533867 0.03967171485604783 1.00598780774943 -22.61767602531408 -3.749351687279074 33.44314711987628 40.54702203790876
2789 5 -0.006539815226550162 0.001935448294905747 0.0432314621697554 1.00000000341081 5.823404549779083e-06 -4.162058269561315e-06 -9.082831292749095e-06 1.156428094963771e-05
2790 5 -0.006043527768302002 -0.002956765068855929 0.04386001217802817 1.000000002354838 5.403121465324302e-06 -1.701399185770586e-06 1.193640700490947e-05 1.321235380033553e-05
2791 5 -0.003082330545588974 0.001460587612429 0.04997603769351099 1.194398193388373 -64.1128687038092 11.12964071817676 -704.9574720734037 707.9543532376019
2792 5 -0.00444997291649284 0.003064972617124961 0.05061055671571093 1.231292084960549 -57.54883550097934 -4.632930607098544 -776.9379635590337 779.0801831216011
2793 5 -0.007876034193289813 -0.001506772695719574 0.04561606948506635 1 0 0 0 0
2794 5 -0.002352069555475874 -0.001905192256151217 0.05263611444919385 1.340058064621427 -103.4690562223261 29.3538587338621 -343.7703192927914 360.2020641872755
2795 5 -0.006929703367217608 0.002932530005235038 0.03533433821622668 1.146297048237179 -15.32211161933262 28.02724874501686 264.1362352375008 266.0606031379519
2796 5 -0.004820970529413154 -0.003109880726685138 0.0411738230994291 1.000068523217563 -0.3043394412036939 0.04853584453493361 0.525428310120606 0.6091413077054384
2797 5 -0.006865697955773582 -0.0003207502519418203 0.03573921512109372 1.134141124159771 53.43905556100024 -24.58841006698739 304.7891090534803 310.4137940982783
2798 5 -0.002385503428464326 -0.0001705650687467781 0.04229923503116641 1.000402189700018 1.313705303327498 1.004250271998855 2.653674200905199 3.126711850706811
2799 5 -0.00511424818596784 -0.002500941622562382 0.04830329795740518 1.067743936318028 11.8313791719197 -13.43263541861215 -372.5229167305137 372.9527325503975
2800 5 -0.001746178169596793 -0.001872726700361684 0.05185781242271256 1.315344664299052 4.63385984458688 8.882209259599485 -621.0686364832047 621.1494325212716
2801 5 -0.007195465650409804 -0.002316405534946233 0.04826736565418937 1.057763894377246 -53.71226559324313 7.076997336798359 -363.9134851693965 367.9240628915167
2802 5 -0.00174569324523967 -0.0007875379148667525 0.04176392245017981 1.000402189700018 2.089872363683102 -1.513575861197497 1.87596016262111 3.190251544287309
2803 5 -0.00703359286664967 0.002301463969117161 0.0348405824545512 1.164013929733961 -11.95230660589597 31.65122746868892 283.5178851015283 285.5294188099003
2804 5 -0.008667180124747022 -0.001127890134675053 0.04567632876038732 1.000023650878226 0.2868900007477198 -0.1845601234123439 0.002593860552422671 0.3411378603960159
2805 5 -0.004008009552263896 -0.003082462168452977 0.05004072228361362 1.1917179404726 -57.23077717178702 8.956560487588861 -717.3091415687823 719.6443471671253
2806 5 -0.006874964672366565 -0.003281357040885653 0.04375598915931391 1.000000004483244 1.875537540103218e-05 -7.935554743981471e-07 1.207054047134398e-05 2.231796997925535e-05
2807 5 -0.004426680282877498 0.0005087317052328074 0.04207433444193929 1 0 0 0 0
2808 5 -0.004443960392388637 -0.002503699598683279 0.03562828521764177 1.141956535413339 2.909291977364743 -6.798523162234335 261.1173063817038 261.2219967556974
2809 5 -0.004718969482432933 0.003771954867259873 0.04155384907072047 1.000000001369147 -7.72139153502641e-06 -1.714670059351135e-06 -1.301253424439309e-05 1.522780444158368e-05
2810 5 -0.002609200455477557 -0.0008176096034989149 0.0481506549661747 1.071737056332649 -64.02551606208607 -42.98745478461431 -419.2055962033184 426.2399791948842
2811 5 -0.006003982185606016 -0.002419242015366091 0.0445023946528183 1.000000001118692 5.856936230136691e-06 -3.048686831294416e-06 8.396630398311057e-06 1.068183483513189e-05
2812 5 -0.008663798325894652 0.001103591962477197 0.04784380059479233 1.033697186681508 6.633279304506649 53.10776501454302 -155.0169166702577 163.9959741979209
2813 5 -0.004343067711456531 -0.002999166317035205 0.03610903945415207 1.12444229034509 -8.001574335916576 -40.35192941940996 302.9156477950014 305.6962431545203
2814 5 -0.00404773436244043 1.504299444625293e-05 0.04068399876450921 1.002199549193276 5.731567081870614 3.814478785840417 14.04658022310192 15.64313030009171
2815 5 -0.005232466723207953 -8.546838006526168e-05 0.03763792344678824 1.071326850919131 -40.13912006247403 -14.31138771081434 236.8433627658281 240.6465110152744
2816 5 -0.005482571858290668 -0.0004111786738333753 0.04117710586927796 1.001797359493258 -5.167108282075885 -5.299549521082919 11.59726842046535 13.75793836086753
2817 5 -0.003155297038142401 0.003366936956741644 0.04844885224885375 1.082718451257118 23.11215360113058 -21.00981633221088 -392.694391003664 393.934599587462
2818 5 -0.007850374662169873 0.001359911682109656 0.04683472311286526 1.008917141995809 -21.78723897148693 6.222012478613953 -51.69354954799607 56.44129947260101
2819 5 -0.001570868251777426 0.00156955361582025 0.04011731802212169 1.002884400740343 -11.03554083952902 8.900510211078469 23.21956621582583 27.20570710144371
2820 5 -0.005384400702266329 0.003853053874360449 0.04309183044283774 1.000000002301858 -1.503280870119963e-05 1.647780892728555e-06 3.185504238700405e-07 1.512620222295908e-05
2821 5 -0.005205684195423372 0.003109435880274342 0.04746683371545373 1.028043373617 -78.83669219471204 20.63323265170095 -218.4518671704482 233.1569698639055
2822 5 -0.008340211471649076 0.0001501805955739688 0.04713606943877469 1.021476523609347 -60.1543620694875 -16.51157132724989 -119.4764683868116 134.780583771798
2823 5 -0.004904428375859592 0.002570516907853591 0.04794270518320767 1.060082504332777 -145.6309921517779 67.28237767048321 -310.7078996792155 349.6779992266802
2824 5 -0.003199375796039279 -0.002681588339856959 0.03814502144095428 1.046186369084582 36.81240702990095 -51.91253553341461 176.8375521566451 187.9403748788358
2825 5 -0.008095924186137336 -0.0008891769094358471 0.04443673547423396 1.000000001118692 -6.564759437893746e-06 1.862303947052277e-06 6.492780067311926e-06 9.419152587738696e-06
2826 5 -0.00701541437681261 -0.001528211563685291 0.04854969125875572 1.072249058265624 -60.83929544716688 52.60866510651857 -375.9850159210825 384.4916432277484
2827 5 -0.002370949928790189 0.00159395480601605 0.04059816883334578 1.000402189700018 -0.009295892775148687 2.730561830628226 3.946602205465157 4.799137765545879
2828 5 -0.002482851415665912 -0.001910371251861474 0.03629812640125282 1.118676606362913 37.20486141612719 -20.91779642437888 327.6902080683986 330.458209739379
2829 5 -0.008234321474836293 -0.0002089684532569377 0.05050217874714877 1.202150983772055 -26.9831476499006 -0.2963086204133449 -740.9085679253466 741.3998139203185
2830 5 -0.005355744302776749 0.00313303035493938 0.04824629313520208 1.063680276392765 12.94821422808575 23.31284288274372 -401.2589106385209 402.1440764971982
2831 5 -0.00723360896163461 0.001419802008824427 0.04145716740769814 1.000352985090947 -0.6718320539988245 -0.3460107290185332 2.725525786910171 2.828351560271198
2832 5 -0.001241398092013119 -0.001150020067765246 0.04240482511410384 1.000000002441187 -2.468639057840008e-05 1.787895066170916e-05 -2.215957590939557e-05 3.768450027580856e-05
2833 5 -0.006835419089670578 -0.002743833987395815 0.04439837163410405 1.000000003247098 2.218209692155482e-05 -3.347719371579356e-06 4.936911253980581e-06 2.297010538847786e-05
2834 5 -0.004374516647164635 0.003622919134852349 0.05135503601988289 1.278963345451819 -62.14459046717906 63.21992116054962 -664.0082534816953 669.8997456692239
2835 5 -0.001814914570349752 -0.0003722483917973265 0.04799700175108709 1.065536585890556 12.38535600425031 51.40733212589971 -414.9358592020593 418.2916184809418
2836 5 -0.007183572740763419 0.00133438320315237 0.04837753703639273 1.064651551197932 -63.64255075178253 -60.32498742716618 -382.8137903247666 392.7287568247267
2837 5 -0.001389727178243586 0.001041687599363125 0.04228507155095486 1.000000002453027 -1.310957911446843e-05 -1.585767263881343e-05 -2.255269951231452e-05 3.052787417051883e-05
2838 5 -0.002713529520512245 -0.001074234175038587 0.04719838445482774 1.030743693074146 71.38658288417524 61.31604537987109 -126.7861896947846 157.8937602764198
2839 5 -0.005089207209995497 -0.003247143946644662 0.05039703539960152 1.212110261753327 -65.46871161901335 -4.909215787572708 -734.8919098098653 737.8186577369087
2840 5 -0.00307775813045702 -0.001763224688802306 0.04974327675062377 1.174655310309625 -64.06167200722764 -26.62372005185555 -686.9683993022272 690.4623827042466
2841 5 -0.003169537905168317 -0.001767709506678416 0.04106397942794406 1.000470712917581 -1.754334967227404 -2.6738075901938 1.050617771123201 3.366115848810708
2842 5 -0.005161531056023605 -0.003848198449858045 0.04321024019666811 1.000000003671493 3.675973391578447e-06 2.233227151790406e-05 -2.316990908045967e-05 3.238962516488496e-05
2843 5 -0.002654227180819264 -0.002152572637624538 0.05037728972686908 1.223548610429449 -47.24556494906733 -25.4450253538 -757.7648136287104 759.6624944647236
2844 5 -0.002445281417316396 0.00177991442279829 0.04176610829494903 1.000000002493625 -5.706614373831635e-07 -2.86456372703805e-05 -1.312634611389055e-05 3.15150622941472e-05
2845 5 -0.004288539402619489 0.0002102558631430972 0.03780279354491053 1.064254228174463 55.72483723125139 15.77087675843964 246.7164649101477 253.4225564071587
2846 5 -0.007305451570761922 -0.001263078679816829 0.04485152704896467 1.000000001118692 -2.751723029203118e-06 -2.070784978160236e-06 1.063497874443075e-05 1.117868073386635e-05
2847 5 -0.003889230154889097 -0.00312115847063208 0.03870300847051224 1.023294836847956 -43.8040395430029 -49.94492810906014 143.335408494521 157.9820529439827
2848 5 -0.003644133039970588 0.0002041361391559232 0.04161376722725177 1.000402189700018 -4.213560353471041 0.8278906987572188 1.602095767201344 4.583252634179812
2849 5 -0.005827625409804619 -0.003113500041568892 0.04829187852835574 1.064464644002102 -38.32814891648575 -29.18236127540222 -379.9987399149263 383.0400756394874
2850 5 -0.008796215988976097 -0.0007331420952979333 0.04638145584841687 1.003964797052313 9.714297004722461 -21.35306182963141 -39.02252653604553 45.5310706337156
2851 5 -0.007443956052764393 0.002017525647812109 0.04264064932202974 1.000000003639121 7.019602347094369e-06 -3.710715789024261e-06 -7.688929565504155e-06 1.105277642230814e-05
2852 5 -0.006079685359485227 0.002940226968459918 0.04826018152106936 1.061149262239604 -50.1012849575717 23.89736547803737 -356.3203451977278 360.6180960975456
2853 5 -0.006670415392550518 0.002260119842765212 0.0445411022547134 1.000000002068099 -2.700983748081053e-06 4.08260276975082e-06 9.102205558803549e-06 1.033504255519489e-05
2854 5 -0.00237728896206413 -0.001742691727667275 0.05074928662448558 1.252570049758855 -40.95247102430775 -16.73966762820602 -796.3131914730651 797.5412342125754
2855 5 -0.005730498223397918 0.002238572813561639 0.03471244160394812 1.170608885952126 -21.22822206521352 36.45426490217228 293.4460710938167 296.4627252826317
2856 5 -0.003643350900233596 -0.0004477907441507211 0.039456463548282 1.012850965545909 -27.01372374428989 -13.54037205329841 78.9642134898963 84.54838826348185
2857 5 -0.003766370039621681 -0.001018434288815635 0.04321981329611423 1 0 0 0 0
2858 5 -0.007235573874512814 -0.002318679385491553 0.04676778647705111 1.007563549121003 -17.95872295324477 1.997364341671321 -39.45593018071781 43.39672361884546
2859 5 -0.004627965308852838 0.001433915724506206 0.04264044933962174 1.000000000932712 6.587609449233375e-07 -8.243147279199772e-06 -4.015161057405174e-06 9.192658014200132e-06
2860 5 -0.007575062088073996 0.0003746367250749597 0.0501804392152421 1.181224077646511 -42.88757491930745 -27.12207251042259 -703.2246125143513 705.0530522915842
2861 5 -0.008880039202915781 -0.0001558342110755117 0.04998275998102929 1.160787066292619 -28.81405129413276 -0.8252307380253955 -665.411981218445 666.036061566345
2862 5 -0.003518018224268729 0.001949096175977702 0.04403121477114497 1.000000000932712 7.702103352142303e-06 -1.270641355327516e-06 -2.049314758128334e-06 8.070725895409461e-06
2863 5 -0.002407273857089481 -0.0006240760812799127 0.05301523313150704 1.347048546539831 -89.02841114669485 37.48407787161639 -317.4323900333885 331.804816612869
2864 5 -0.008793295645282601 -0.0007437987992207019 0.04495966487698811 1.000023650878226 0.2305611473320454 -0.06540604248723718 -0.2280331573237919 0.3308103896372795
2865 5 -0.005619102953481381 -0.003836886296667822 0.04882758039828385 1.097552379513204 -62.15190025598871 -11.39438126441734 -470.8524180774835 475.0733524827956
2866 5 -0.006691817711789306 0.001904587015382134 0.03690805850186477 1.08740132163229 -55.94259902823205 27.19475102849916 320.5964591734793 326.5749814424062
2867 5 -0.001786694062523336 -0.0003286141634422465 0.03937030801092511 1.012521378090115 20.43534931295526 -28.73832115666266 71.08524549725814 79.35116087273988
2868 5 -0.008648396469447119 -0.001280784506214027 0.04786087209190933 1.035806049633544 -49.96952067606561 26.77435079142622 -168.2663910014391 177.5595595780393
2869 5 -0.003709208047494267 0.002290568266494156 0.04532700426041355 1.00000215745481 -0.009215115697384377 -0.01363857204342017 0.003668080904670802 0.01686368353068074
2870 5 -0.001199042994265521 -0.0002661226698052826 0.03875447580483825 1.021407988182367 2.123565950742801 -39.06099537993497 95.63830931736167 103.3293622427904
2871 5 -0.006029153925076275 5.163623459356501e-05 0.04644176235455731 1.010596404854845 -11.9120954571158 -9.383409188179547 -50.46590145673533 52.6949105323576
2872 5 -0.004197243492020072 -0.003735703408222498 0.04860806927586671 1.084248533498192 52.62336932399409 -14.74170004547325 -446.6503134056086 449.9811542548961
2873 5 -0.002302947793692695 -0.001817881395954275 0.04083220779898984 1.000470712917581 2.07894519210402 -3.312331321080358 -2.936676906536924 4.890564706224595
2874 5 -0.008396225798083638 -0.0009889799677392488 0.05257822430193743 1.316200733377405 19.63983784479385 4.702877866620469 -378.5409762522165 379.0792938064268
2875 5 -0.002680412300641682 -0.0007573630568144143 0.05082395506648722 1.258225999648033 -41.45156846887584 -15.59462167446774 -807.3155414888746 808.5294108955929
2876 5 -0.003991187387986022 0.002942784327728736 0.03647548837391577 1.108159874688077 28.83766813640296 50.9537782867103 330.9616573458275 336.1004570933123
2877 5 -0.006067170300845799 0.003684093515879565 0.0487471922679911 1.089158231852097 -64.14718601805392 -11.28130772477902 -435.54352482003 440.3865249876205
2878 5 -0.004555829912850945 -0.003293014120936142 0.03538231501998153 1.1473205494627 -18.25813533048967 -47.07213396542429 260.2957694123235 265.1471909633569
2879 5 -0.007829446237762517 0.002708804934586214 0.043710499045577 1.000000002478098 -1.301252023963058e-05 2.664746595313594e-06 1.302889290877746e-05 1.86058756265977e-05
2880 5 -0.0047976140365308 0.0009543055516893996 0.04854978735127724 1.091710008570585 -6.741938699613451 24.45346583228292 -432.971935536695 433.7143330477239
2881 5 -0.001986757899098193 -0.0013248408076501 0.04852549128926105 1.096776904758512 -52.0839118600936 -75.34287320244538 -430.2414817381522 439.8829560522782
2882 5 -0.003777530092746732 -0.0005335093465749193 0.03531040413297786 1.15331084097637 -4.494293698796677 1.371684106974864 272.1287153875839 272.1692817561104
2883 5 -0.004296140067319088 -0.001405414487964764 0.04743092752414346 1.033250697044838 -60.51859883022826 51.91042906212867 -189.694917279149 205.770151118503
2884 5 -0.004478011912970484 0.003673676716858571 0.03671823500154101 1.093297544200627 13.40954799288371 55.22335548814098 324.7016681921172 329.6370857404955
2885 5 -0.005128358703466706 -0.003262453868414319 0.03981679763592996 1.005558923301992 26.34128193348031 -13.89992850170111 41.54706741578234 51.11976092572286
2886 5 -0.006577584285139699 -1.33981849060799e-05 0.04732505688405254 1.028131782290106 78.45090195533867 0.440860108294608 -124.0177659808771 146.7485763274344
2887 5 -0.003946652188277701 -0.0006432947967754509 0.0440356002032805 1 0 0 0 0
2888 5 -0.002872366264629913 -0.002408237542964655 0.03546440020413918 1.147461966604938 -7.288823686334374 -12.22556272704573 265.0635331227271 265.445414212087
2889 5 -0.004143577001793046 0.003222393397990771 0.04790973845301833 1.059456286413138 23.29946102811644 70.99447955786191 -277.5651372092067 287.4464931180377
2890 5 -0.007740568365264527 -0.0001324148989380719 0.04416886880981891 1.000000002254079 -7.411263863175616e-06 -3.676923881176448e-06 1.04180179909352e-05 1.330344692690687e-05
2891 5 -0.005626608723965856 0.002869638849679516 0.03520619736562359 1.152892004455344 -29.19036653333465 19.25050309344746 273.2551657058277 275.4832934183498
2892 5 -0.004399646736832464 0.002519554410038948 0.03565169043519575 1.141743543388016 -4.229536556434138 19.23376482676448 264.5809490900601 265.3128442241168
2893 5 -0.004212335704755282 -0.003062776506582307 0.04274159733874662 1.000000002207793 -2.491970158738177e-05 4.153967542392626e-06 -1.820693352227967e-06 2.532907218652621e-05
2894 5 -0.003354893437811514 0.002729883421030464 0.04464630043453006 1.00000215745481 0.002739218089415335 -0.01073495882581268 -0.01985958482113905 0.02274083916660267
2895 5 -0.007227814904202786 -0.003081707347227712 0.04303610915233209 1.000000005710319 7.556914594497277e-06 3.253632240928685e-06 -8.672459048393931e-06 1.195427232807611e-05
2896 5 -0.003150709345046996 0.002482065731354716 0.05029772397680046 1.21662466120171 -66.93690112268251 8.746688511031488 -750.0883505219583 753.1199020611319
2897 5 -0.007225586967542853 -0.001558671210638964 0.03655529824718538 1.09917428751355 -52.4485897333885 -23.09752312441111 308.6962158740633 313.9708646267521
2898 5 -0.007136580070080875 0.001661247685389543 0.04659109152372309 1.008917141995809 -20.96094271669485 8.17731616903259 -53.33974282545454 57.89091279282539
2899 5 -0.004455926361830832 -0.0008059079323828949 0.04831698138657971 1.075726913229349 19.83465438665037 -45.44490001004112 -402.2462275526226 405.2908585594755
2900 5 -0.007993487158235954 -0.0005314012442784229 0.05298260552640259 1.328988901147343 -7.062760661166379 -53.39548315859432 -417.2339742150438 420.696029752096
2901 5 -0.006286054346158951 0.002242169632909264 0.0488047904338602 1.095750521946477 -38.21888246618727 49.87817646603984 -429.5975739089934 434.1688507631964
2902 5 -0.007534292353352124 -0.001982974158693095 0.0423429277804876 1.000000004827756 1.398655798980413e-05 -6.699420359265801e-07 -7.998661600150116e-06 1.612610350107462e-05
2903 5 -0.004574172027676714 0.001531353231222977 0.04769298120838403 1.049210189512657 -57.60370048962057 -109.6767259800449 -275.6791281185177 302.2352597100243
2904 5 -0.002701064114986092 0.002291251002921909 0.03871640461601643 1.022401467000295 -14.32653902627529 31.46677159102093 79.73668509843674 86.9099901353126
2905 5 -0.006023579408264269 0.0004189387954918505 0.04067213001217111 1.002150343423182 -15.06844086909033 1.08115884734147 6.159045602620029 16.31443095586265
2906 5 -0.003611819044404898 -0.001290179518661196 0.04700079639483844 1.028737361470718 -134.7632332412607 72.20307415934251 -169.1437726647077 228.0000631204918
2907 5 -0.006299298986021042 0.0001647530414140721 0.04368531725654917 1.000000002254079 1.128717015157042e-05 4.663209093694415e-06 -2.193260471764203e-06 1.240790556778298e-05
2908 5 -0.003941038341361624 0.0005705471461940433 0.0490448697024372 1.126620302548363 -33.56674331640983 28.19405452494337 -508.6714889324134 510.5568671755807
2909 5 -0.001688032166924716 0.001712345834831863 0.04788232909743249 1.054528838101469 -45.43558409362723 40.67437345493749 -338.7025437673605 344.1485291445563
2910 5 -0.00460829030164402 -0.001400580848618903 0.03871241609589259 1.032862090378156 -73.4022480756838 -17.19537982224843 189.8025899770937 204.2268206475544
2911 5 -0.00468943918204444 -0.002612428646102494 0.04746769393450043 1.0318967199594 -86.12302338783527 -26.46761762091509 -155.100331446262 179.3706295766644
2912 5 -0.005907685574652953 0.001008787563507558 0.04383788836821764 1.000000002068099 8.65118212335475e-06 -1.035157562742062e-05 -6.348543811943474e-06 1.490979807488442e-05
2913 5 -0.001560915835851009 -0.001935401080400513 0.04239419687160356 1.000000002441187 -2.826352409292312e-05 3.80239297490429e-06 -2.216127298584182e-05 3.611657523686111e-05
2914 5 -0.007505053821197863 -0.001029882508757583 0.04231525147026656 1.000000003600682 8.924502641857604e-06 1.063835890633001e-05 -7.839154937296695e-06 1.59459643093592e-05
2915 5 -0.007271204770890689 -0.002077265966591695 0.03828868936539034 1.029450707338366 -7.574956017233625 -43.18928648905401 164.5464758437456 170.288687641584
2916 5 -0.006551007518990786 0.003503367410306997 0.04383033811574231 1.000000002275423 3.054827420766705e-06 1.209618830966342e-05 1.282320640376898e-05 1.789090172873262e-05
2917 5 -0.003657915212415054 -0.003449877143597028 0.03643321835764248 1.106484420313765 10.92390879650925 -61.37783127083265 351.7545422123659 357.2363754182045
2918 5 -0.004874755891971586 0.0009849893300279838 0.04370715706451814 1.000000000932712 3.196176385508054e-07 -9.242428775039583e-06 -3.204150664648e-06 9.787299248429913e-06
2919 5 -0.006016860880590556 -0.0001533348204690268 0.04834749021360663 1.070631601348035 -119.1186243882595 -10.62372651155648 -374.1299404264528 392.7789741885948
2920 5 -0.007804296589701609 0.001947282920286457 0.04612509336777757 1.002843813664088 -0.1720476949472187 -0.2884469020832512 -27.62930730016694 27.63134857207871
2921 5 -0.008020513709617261 0.001241233621899024 0.04862007699519802 1.07189621844837 -38.31456670358302 -56.75692040033751 -415.5629145773643 421.1672945600683
2922 5 -0.001919243635384441 -0.0006288729633369988 0.04654473123974014 1.009520151933013 15.66805325824479 -17.0316246216943 -63.49342950370895 67.57943267222622
2923 5 -0.005898648901415221 -0.0007077369887879064 0.04221687716600214 1.000000001118692 3.578959176144075e-06 3.670693616718581e-06 -8.03276184004321e-06 9.529333827250402e-06
2924 5 -0.001192472013970388 -0.0008794795959485122 0.04837183807417346 1.090576434316419 41.25146077845955 29.50549496012198 -420.6063770525742 423.653138388577
2925 5 -0.002801130071549098 -0.001523042254844208 0.03564369867848165 1.142643758139965 -2.798363896557264 -2.724725545947163 261.1210150189498 261.1502239216442
2926 5 -0.005674814740545931 0.00255174959908957 0.04675017766810864 1.009680841340713 18.40272689203804 16.28094951486854 -60.25995047804937 65.07681081449522
2927 5 -0.002724011148582626 0.00214717705005294 0.04705603775203835 1.021093036405934 3.501033745617221 -13.75809670779693 -154.0522728404486 154.7050265169721
2928 5 -0.001797852360206511 -0.0001080735751098141 0.04318340282507955 1.000000002293649 -1.044636214283524e-05 -7.985628128902779e-06 -2.110156794034339e-05 2.486308323948002e-05
2929 5 -0.006622645384383454 -0.002738513309281134 0.04014106061804272 1.005426511038639 -23.69288312277358 -2.679731328444789 32.39323886651601 40.22257568735773
2930 5 -0.002947990393570488 -0.003375224903370359 0.03866979947132119 1.023572653976544 31.91130326992002 -26.23555117986689 143.8902895829933 149.7032092454062
2931 5 -0.005231757766327854 -0.001350926403881157 0.03974908236302738 1.00729239374946 22.15631239413886 8.522761433681278 49.25584162870393 54.67794414491167
2932 5 -0.008208868583124163 -0.0009015843441879582 0.04299505473663191 1.000000003600682 -2.134174831644603e-06 2.286405892018497e-05 9.379041807327504e-06 2.48049655863763e-05
2933 5 -0.003782796060364003 -0.002372372513598151 0.0351311056586354 1.157762573647497 0.6817049960311587 -9.185673925716689 275.4731468769906 275.6270958695521
2934 5 -0.007626685205855823 0.0006691125044178418 0.05106290216813548 1.24293141698959 -20.74768968765339 72.76639374920826 -684.6466917819694 688.8152925528258
2935 5 -0.005667459288699496 0.003294452890859282 0.04627523448623137 1.003603248788474 10.16618407356324 -2.841156742601357 -35.2295657334865 36.776973394009
2936 5 -0.005231651013012298 0.001167358233056465 0.05294566143591024 1.337476342643024 -166.4693557745549 28.70378090382717 -351.4040903013593 389.8984330959745
2937 5 -0.004924819195389733 -0.001198373343156268 0.04057771028390684 1.001865882710821 -4.377071788282811 -16.09242556051234 4.869528166565859 17.37346316729599
2938 5 -0.00777520195236531 -0.002774019515579736 0.04634253466098042 1.003050213546883 -13.99693054139788 10.90075460955731 -30.43633317425202 35.22940380892892
2939 5 -0.003653058370510978 0.0001182111633948154 0.03703092912547383 1.092775852152149 28.10027940773661 8.088686772950252 327.9678593040315 329.2688404525591
2940 5 -0.004946075103271946 -0.003859023908967274 0.04064242209900604 1.000132412263353 -0.3182575114607829 0.0819018971015633 0.5568678881750082 0.6466046777054268
2941 5 -0.005580685291014684 0.002413876895135804 0.03800041655557509 1.044331848583578 -44.35072359677696 11.7151691268185 273.2788070801843 277.1020358467189
2942 5 -0.004076106818611898 0.001176800804756546 0.03929159349391801 1.016628737871074 -56.01011014376815 9.531562270942679 49.04634776475404 75.0568274489609
2943 5 -0.001289129925431727 -0.0003426561288113445 0.0471234467465147 1.024543222632053 -35.00706812124813 -59.938003273022 -157.0904363528897 171.7424357820273
2944 5 -0.003909140725701287 0.0006388537452086615 0.05003204065885811 1.194902876242331 -49.52164159926849 24.64890909524 -706.4403686214292 708.6028197264336
2945 5 -0.003714320262315902 0.0005466193357274471 0.03971031052410284 1.012782442328346 -26.22988915085207 -27.85537927439524 73.73167855045898 83.06798216674466
2946 5 -0.003429967315926417 0.003540772135745399 0.03611728645915809 1.118677395931511 15.75261462752852 47.12763428541402 351.9021650198996 355.3931520536599
2947 5 -0.001834959823765614 0.002148479320329169 0.0387692894401144 1.020635192797874 39.27511942332875 5.793797529308986 78.74039841878307 88.1825007508636
2948 5 -0.004636329668534081 0.0009725119937078407 0.04663113759560137 1.013573286736892 4.041355873875331 36.54701470184179 -72.31041700619222 81.12221180740427
2949 5 -0.002929998857251534 0.002332614674982243 0.04194266900762786 1.00000000457264 -1.408222678426001e-05 -9.562094801814239e-06 -3.661426904807362e-07 1.702576954713077e-05
2950 5 -0.006407968687863926 0.002763184580733795 0.03756649986997804 1.05661198454748 -55.28389840568185 18.1219513495305 272.84235126067 278.9760978741643
2951 5 -0.004342177673275241 -0.003812120327270962 0.04322105582561794 1.00000000464314 -1.652063109928327e-05 2.44659890411933e-05 -2.338606882412997e-05 3.766197136010461e-05
2952 5 -0.00659359483439477 0.0008785649894741564 0.0450361495676927 1.000000001135387 1.944937895490678e-06 -6.912982580950525e-07 1.010854745636143e-05 1.031714148281742e-05
2953 5 -0.004269008519670772 0.0009669408457540718 0.05230799606924478 1.322873383222132 -28.70263230948781 81.1222820339427 -374.7794027932599 384.5312295535445
2954 5 -0.007744386635544208 -0.002763750428621643 0.04878853701521611 1.085999442139011 -53.11359990338921 27.82615507389334 -426.8628260662029 431.0536181011813
2955 5 -0.004420044058700407 0.003122529559961398 0.03751096895297828 1.062995085923821 16.08553629342643 51.82543663822226 256.7267484873483 262.3990162890778
2956 5 -0.006042650046521604 0.001330473797827903 0.04466972055183546 1.000000002068099 1.562904095770578e-07 -2.281661663360293e-06 1.214463525616968e-05 1.235809743219292e-05
2957 5 -0.008518091181790605 0.00164594691700657 0.04636872495691974 1.002843813664088 -15.90372628530021 -10.39243313185145 -27.42829249702508 33.36528743260149
2958 5 -0.005104689222833983 0.003164871233426535 0.03781257228695015 1.051035670797497 2.256615218128463 49.04172293038462 249.1019787533271 253.893636625746
2959 5 -0.001301382471210399 -0.0005916105254903791 0.05173693110502575 1.313956256602849 -47.77554046955548 -101.5821109979402 -596.1406048496492 606.6177118189523
2960 5 -0.002367999294391109 -0.001981638478241083 0.04727340064212314 1.03231086894548 62.68167853684784 -22.8306215860889 -148.1853205857602 162.5088285088181
2961 5 -0.005332705475632043 -0.002715073131820794 0.05105733780325052 1.254703765752544 -155.5222819245153 14.60483777294671 -732.2458257687051 748.7218647916429
2962 5 -0.004386983531291353 -0.003761065362554222 0.05064432048809089 1.234775724860489 -74.81006947302863 -2.737386159801667 -778.4217092300419 782.0130415652716
2963 5 -0.004072974775072845 -0.003251779733042721 0.0477716467930199 1.046671065286387 -81.26955953027135 -32.46917895948867 -167.9602919233534 189.3928418698175
2964 5 -0.007498751166091411 0.00118028372982289 0.04239641552053686 1.00000000229641 5.348756091365619e-06 -7.308137763129925e-06 -9.865248049210971e-06 1.339183289778764e-05
2965 5 -0.003838426664772859 0.003117542218055611 0.03529348852043808 1.15226106463145 -6.576116397131146 19.02571850229183 274.9030637539583 275.6391077708494
2966 5 -0.008000425279444601 -0.001371275261543653 0.04009031383043641 1.001965992942588 4.617165893733902 -10.82105712141324 5.739394465246142 13.09023097362479
2967 5 -0.001645199740303632 0.001755513232602489 0.04228525748372493 1.000000004946652 -9.491265116618748e-06 -2.579855172170584e-05 -2.254805466418752e-05 3.555367988817281e-05
2968 5 -0.006543146525673284 0.003564257586647257 0.04060906878671387 1.000352983929924 -1.237504471015734 2.741889474874407 0.005655826536719756 3.008223262423319
2969 5 -0.003335426873273149 -0.0005453114722699893 0.04228100666012063 1.000402189700018 -2.551952218429638 -0.2330430949180224 2.341761747208947 3.47139990348678
2970 5 -0.002613022585488965 0.002101053116987652 0.04403049134849459 1 0 0 0 0
2971 5 -0.00792206983216898 0.001805316875255045 0.04086240043822202 1.000352985090947 -3.305811474554452 -1.451803904909928 0.03795333206591562 3.610756782036489
2972 5 -0.00203157274734788 -0.002537432437776309 0.04071280350750093 1.00032826838923 -0.8366764172241732 2.166852928171071 2.437462880678283 3.366972576981745
2973 5 -0.004780723788073923 0.00386771533978499 0.04722692503320982 1.023244640080901 -87.88043633553205 2.417417043617392 -196.6887075927607 215.4420170027119
2974 5 -0.005580471299478531 -0.003787258386724498 0.0439259268788855 1.000000003671493 -1.770927542981125e-05 1.90321996165151e-05 1.162527373082193e-05 2.847788699690222e-05
2975 5 -0.005119696438403872 0.003843108186119039 0.0465055668530077 1.004887584533099 5.704445224752998 -6.53231873387369 -35.41276364427673 36.45923356693791
2976 5 -0.001869102224416595 0.0007388802051169524 0.04642394043716401 1.01030268929807 22.00393355758675 5.626601246643973 -56.9453653669314 61.30747401719253
2977 5 -0.00801853004296333 0.001337164447764382 0.04001240983152989 1.001757678821067 -0.5297262246048361 7.457449812089651 11.23472609050383 13.49493378648141
2978 5 -0.003266288818283761 -0.002197583821863693 0.04707581258213384 1.030304537342051 9.537360716645843 -70.76310309447209 -169.0258033989524 183.4886923591196
2979 5 -0.006557855519727001 0.002603596174025805 0.03643635576050717 1.107354555467507 -57.60413374002886 33.00868531349771 336.5800541606703 343.0655074309634
2980 5 -0.002415882601036016 2.774507779199883e-05 0.04609522493038946 1.007490217456168 15.35557530731234 -16.43113031864091 -63.17551168299904 67.05908598374607
2981 5 -0.00188935663666182 0.002036455491485168 0.04722609502288355 1.023905508247836 21.71287034243976 -24.49035508793769 -153.845226637048 157.2882067729349
2982 5 -0.008153757375128003 -0.0008473746536821326 0.03847393860321986 1.024846547386742 -54.09052181320205 9.913854347922872 150.9422568302154 160.6475457486202
2983 5 -0.008088154073509369 0.001424711604716488 0.04062867466851797 1.000352983929924 -1.475632097544837 4.416659645894365 5.871303346443682 7.493769111797953
2984 5 -0.003013389642083299 -0.002488801832664624 0.04259565232710798 1.000000002207793 1.019972549256752e-05 1.543725435964489e-05 -1.195955944333299e-05 2.203121159552334e-05
2985 5 -0.003973190428287475 -0.003845791445036217 0.04730023869509313 1.026898889345473 -36.72577189760813 -73.50120833873105 -199.8672036901944 216.0974526912947
2986 5 -0.00671396492792564 0.0005057892888065611 0.04126348443009245 1.000352983929924 -0.2213194743108564 -1.301887937157429 2.294826837852759 2.64766401311695
2987 5 -0.007777001219953307 0.0007993574108197883 0.040477675916397 1.001757678821067 -1.576634348424554 8.715869323302984 9.171351998936276 12.75013142747629
2988 5 -0.003118655737328145 0.002794339484315419 0.03756525992690492 1.059123226116312 27.56682968816225 49.84718503736677 258.4715145197912 264.6737534652053
2989 5 -0.008904929971375505 -0.0007657501074309563 0.04256993919726541 1.00000000248199 -1.441403301880264e-05 2.453076603910216e-05 -2.56058423073825e-07 2.845326688182445e-05
2990 5 -0.005917243355474199 0.0006196824317496017 0.03787665751565076 1.056432171182949 -71.722373009167 19.36618211814443 242.4515898455374 253.5782349069571
2991 5 -0.001787493746275441 0.0005192567369204136 0.03937391559463471 1.013467293875413 18.51164948751716 29.15148553714853 92.47322653223604 98.71062709279846
2992 5 -0.003933219533715946 0.002391637170831564 0.03726822232535305 1.077857416411272 17.13771146845819 54.95908147753496 272.4392113048579 278.4552489137949
2993 5 -0.002751709753650711 -0.002965768478232846 0.0373224453283222 1.070758423426546 -15.51684377844358 -68.12168434186793 269.4573754373627 278.3677666253935
2994 5 -0.004001927747158304 -0.003070354847659666 0.04117151971948515 1.000068523217563 0.4903733177114222 -0.08475344181937297 0.7868562709282355 0.9310166097995385
2995 5 -0.001306476849891187 0.0006169728461202972 0.0430353125809866 1.000000004746676 -1.274478959236777e-05 -1.663990264350207e-05 -2.110156822841416e-05 2.974209480580295e-05
2996 5 -0.005371289155320941 0.001149756029848363 0.04063959012208988 1.002150343423182 -0.2256855492585479 12.72087764865286 7.310409760471924 14.67357328618845
2997 5 -0.003802397372382477 -0.003654350937517013 0.049329723309602 1.136648575466671 -8.095608583354016 -29.55321532754001 -664.9072973867953 665.6129847987817
2998 5 -0.005921895753101506 -0.003644476989770016 0.0475746337232498 1.029070159689037 45.05177873245278 8.951149016786667 -196.6727592853413 201.9652447343067
2999 5 -0.003375014409612061 0.0008434639243705747 0.03683907229808618 1.099447325117336 33.24875311891844 15.08601650627939 333.3749954092549 335.3683870643017
3000 5 -0.003860844080985047 -0.0007846180060461819 0.05227923979580585 1.323204189986012 23.42697109875746 -41.3221875333911 -370.8080966270079 373.8381878320501
3001 5 -0.002097615926314816 0.00132627157919625 0.05036663554460784 1.228488622498793 -38.78929914506597 3.907319534497109 -756.7205157497126 757.7241027119443
3002 5 -0.003712466132851755 -0.002239035130211967 0.04316091941168873 1.000000002207793 -6.312968815870547e-06 1.401258300766817e-05 3.178150711132475e-06 1.569416132705462e-05
3003 5 -0.001724215595331072 -0.00018213434303832 0.05251523313150704 1.338650417711397 -81.92133187408722 43.98717370608458 -311.4186609044482 325.0039360164632
3004 5 -0.002987616510356837 0.00159666810627912 0.04635124919200304 1.008146410599073 -15.23561656702306 35.43874034279221 -56.63065383746154 68.52050264935009
3005 5 -0.001710106711308077 -5.456783352242398e-05 0.04522006125347582 1.000000002293649 -5.128992341782762e-06 5.488243838771179e-06 2.110156794034331e-05 2.239873997386462e-05
3006 5 -0.002284815554956733 -0.0003546959619531407 0.04461815149756877 1.000000002293649 -1.869712524365648e-05 1.332795883031755e-06 -2.015413283666067e-06 1.885260533578265e-05
3007 5 -0.001827811550921864 -0.002093134698371183 0.05023262024532624 1.216294363854771 -31.46158031788178 -21.76146154093197 -743.4517578473536 744.4352950329639
3008 5 -0.006273539287519524 0.00298603618032891 0.04929180118078195 1.12375949155897 -39.16679729391325 6.692759032536572 -563.3058329150584 564.7054917652721
3009 5 -0.006095840994829383 -0.0008296312650884828 0.04592127524354626 1.00451333557412 -8.303381037665853 0.3278533639288481 -40.95063475643038 41.78526189267541
3010 5 -0.006079603026923548 0.001223511112790827 0.03517940150852673 1.157261236179474 -3.231694666156521 7.360770306363455 269.4511041995103 269.5709968528768
3011 5 -0.007264910081854447 0.002327697735600617 0.04833546000838159 1.062947691885797 -12.96297935943691 54.65306737015528 -372.0492193126755 376.2653560959489
3012 5 -0.00650463220742604 0.003140901821832509 0.05261230895747317 1.32597348207607 -39.57503959962668 -52.60238671564731 -347.5112204007007 353.6908864416483
3013 5 -0.004695103025245715 0.001067207261806299 0.05055360938278618 1.227703570675919 -60.4453088186987 28.44861523546968 -761.8029123172211 764.7265107749326
3014 5 -0.00530624431475525 0.001326266712592113 0.03823055940112724 1.043025140545956 -53.85105968928832 63.79979138224309 255.3595193683685 268.6611883806837
3015 5 -0.004403752547318712 -0.003006345419211639 0.03756205782692103 1.057923543335595 -1.539087212368429 -59.38563420852727 258.7807346442833 265.511752965535
3016 5 -0.003018624430858883 0.001902939504383614 0.03774954537673275 1.054642636594179 48.53083858646126 5.140537196099529 275.3209938925937 279.6127985171195
3017 5 -0.002152961998436031 0.001485946547711348 0.04652130646284824 1.010958882440975 16.39638751949161 16.5509116707268 -55.55699986131294 60.24412365045628
3018 5 -0.001289109223061231 0.0005072312041137211 0.04712516367691365 1.02532575999711 -21.85480110376636 53.75397429267445 -157.6923493978756 168.0297567163756
3019 5 -0.001371644527343563 0.000930187890054812 0.04787876377714681 1.056605282993649 -7.430371550263459 -28.86610210248548 -342.0384507074348 343.3347696262474
3020 5 -0.003668401308961988 -0.003166451409914498 0.04754196182291012 1.041986190115877 55.65954750848604 -10.0616728614989 -213.5588253846526 220.9221455384086
3021 5 -0.004811252814971008 0.003892070084944584 0.039598394409215 1.006407808425495 -13.09797950150535 16.03806157658749 21.85887843741349 30.10958406716849
3022 5 -0.008857359521932789 0.0003126683494335554 0.0478427665084985 1.03480426014051 -46.65840720775633 -35.20709728189755 -156.1317539770152 166.71434030137
3023 5 -0.007855545465296267 -0.0001411318044085689 0.04320145180349035 1.000000002254079 -8.700092290660245e-06 -3.423056603346091e-06 -9.080621896675151e-06 1.303328877935624e-05
3024 5 -0.002610257082476786 0.002858250197890429 0.04261105709967508 1.00000000457264 -1.143652870766577e-05 -6.278121780756491e-07 2.032279141854378e-05 2.33281844140053e-05
3025 5 -0.001814095838928296 0.0004756773342695308 0.04850231878171922 1.094786174410249 10.39691126456687 15.35679980122661 -472.647820709779 473.0115109441646
3026 5 -0.008271546858942786 -6.615347497471467e-05 0.03800093983815753 1.037515495446949 -54.79666095902735 -9.663480514425295 167.1540717345675 176.1719064021168
3027 5 -0.002569089817765873 0.002809480147179462 0.05164806150023334 1.306226577639763 -97.78494779153334 68.71837887864132 -655.4637772248881 666.270871991429
3028 5 -0.005356281318652989 -0.0009943845571863069 0.03807862555091487 1.050449083040331 -41.78317023160518 -36.37682057858825 227.801151487463 234.4407622599453
3029 5 -0.005546802248280296 -0.001234467869096278 0.05056962436424407 1.223497276811719 -76.936865430775 -21.49245134537925 -744.1583608946188 748.4336128318345
3030 5 -0.007630445135556933 0.0004709323172160493 0.03793324042949944 1.042965472434392 -30.58989849669564 35.33753110981175 168.0636680228309 174.4416220523742
3031 5 -0.00284840774611762 0.003141220363148923 0.04898409223233154 1.119256736100003 -50.67093241354966 9.459112145209 -589.1091560635424 591.3599715504367
3032 5 -0.004912413799984735 -0.001756469578302257 0.03522390399317691 1.155508318973952 2.501108081698768 -5.788179300194487 271.7499664939369 271.8231094861204
3033 5 -0.005941737157690701 -0.003302274648380772 0.05072651566624318 1.227736821709187 -59.53475711943475 44.63573406219816 -689.853202054344 693.8545787448354
3034 5 -0.006587237632476785 -0.002841634096989198 0.04827847590213449 1.061378617178256 -21.75796807585872 -32.7383504082642 -373.3674156780181 375.4310001216286
3035 5 -0.007300915323766238 0.003059513303778065 0.03609753670653165 1.115513345990794 -50.87207975154458 31.47311310978484 354.4576567852704 359.4701041822162
3036 5 -0.00851175418873629 -0.001401217669634617 0.03792916837570647 1.038237490415558 -56.64005190955093 13.259040523301 164.7064463857501 174.6771625511965
3037 5 -0.006507729137219208 -0.002102876873187786 0.03751893522247082 1.061691101729997 -43.58594129937001 -17.24997023436449 264.8923727125158 269.0079271569984
3038 5 -0.002998587499222379 -0.003158681160503962 0.03660689184390336 1.100191287195236 -2.258193522108916 -65.25165465411793 340.399300139201 346.6043297599461
3039 5 -0.003865082889930742 -0.0009852754245594905 0.04983032454676957 1.179073769364601 -47.94618101896101 -39.03955620469791 -693.3399945675626 696.0914245197325
3040 5 -0.007091272944903947 0.0002659499613404791 0.04051771870849535 1.001757678821067 9.625154451009093 1.640278226654939 11.44206661028487 15.04177513396654
3041 5 -0.0066228922766494 -0.002841792771654896 0.04677698285339178 1.008039884039984 -1.078849955958873 -18.3465288598851 -38.99199453279378 43.10608629972674
3042 5 -0.008125490484863329 0.001251943924360572 0.0390268449091265 1.013318505068816 -29.69457459970958 -24.89020810785783 87.85620199245614 96.02084382491877
3043 5 -0.001886469851246551 0.0008486218471235284 0.04383408934123698 1.000000004746676 -1.658595514785867e-05 -2.159607053624978e-06 4.790590215207447e-06 1.739849319346039e-05
3044 5 -0.008126824595267155 0.002411280769788481 0.04299863248548959 1.000000003639121 -1.393389584635536e-05 2.091283240427426e-06 1.124117665741586e-05 1.802473222247706e-05
3045 5 -0.001213447043286157 -0.0007111351273253238 0.04517128449322545 1.000000002293649 3.296937221914101e-06 -1.306165643519541e-05 2.110156794034331e-05 2.503503212335165e-05
3046 5 -0.006400887425242576 0.0001790994680257685 0.03992636429057403 1.003555038314325 -3.824151882117584 6.222196350377335 21.17821713917792 22.40215941007299
3047 5 -0.003617513274879284 -0.001089225784354177 0.03531040413297786 1.153185384932748 -1.218528375333811 -5.194501694488634 270.5508134354995 270.6034188805936
3048 5 -0.004762979148175701 0.0008823716789824735 0.05355053770740975 1.355222522059284 -10.2076605031119 5.046478364181362 -320.5256010758828 320.7278039426624
3049 5 -0.006681507975773673 -0.003372611045190321 0.04756123109702855 1.025984132865191 -64.27359861350578 40.02361431517763 -195.522963500503 209.6716824885973
3050 5 -0.003103661036968152 -0.003215322046686333 0.04193153816699188 1.000000002207793 7.447607478059379e-06 1.105383443797878e-05 -2.051639366360185e-05 2.446582354815333e-05
3051 5 -0.004745750808532557 -0.001485110521781771 0.04984306857471368 1.173951225338143 -38.13833202583601 -31.77767771127494 -681.8195592690532 683.6243592590017
3052 5 -0.004903624372198498 0.003295695441129458 0.04519038047560412 1.000005477661198 0.04841018089822025 -0.01224381044415553 -0.02155250335330714 0.05438719435294614
3053 5 -0.008703466207629351 -0.001248505015602078 0.03981650488000571 1.002101657265785 -9.742465720883269 -1.407251455639423 5.620537139588598 11.33518560586811
3054 5 -0.007166725589518913 0.002399404561516339 0.05070794402736135 1.224747585732095 -57.79462646855663 -16.17010392020826 -756.5622102397734 758.9387782109446
3055 5 -0.005088905046360189 -0.002555634592649817 0.03723787892343061 1.07588141336692 -2.323996743831471 -63.82354270787753 277.8213197726118 285.0675907304185
3056 5 -0.008100985931757494 -0.00223376159077534 0.04167696809354729 1.000000005049718 1.160966565050853e-05 -4.66322984215037e-07 -1.093426126225925e-05 1.595493224659848e-05
3057 5 -0.008201097274010288 -0.000894797693280659 0.04092922671637323 1.000135665663851 0.1888777788031641 -0.6093818167422378 1.522683204375431 1.650934630683092
3058 5 -0.001254234729943545 0.0007871415524052584 0.04011559117605512 1.002884400740343 9.036232042844285 -11.8763936268251 23.20777057177804 27.5917166922195
3059 5 -0.002377845361561875 0.0001235754258934173 0.04398217958532992 1.000000002293649 -1.716791725547486e-05 -4.010000288984544e-06 5.0955257491862e-06 1.835161758181297e-05
3060 5 -0.003246867075444011 -0.002731866355493877 0.04118212330583404 1.000068523217563 -0.2472830216736307 -0.3670206289679059 0.6812061234332344 0.8123391025298324
3061 5 -0.003744675278870539 -0.0003892947025288612 0.05053900596501651 1.233623019373604 -52.46809326373462 -9.706351562857376 -765.1984180357055 767.0565383566847
3062 5 -0.006491075891356976 9.932824473693204e-05 0.04992595053622175 1.16900382087476 -94.03563186583757 -18.63299838747359 -671.7406242689631 678.5465017097731
3063 5 -0.008438518638322092 0.001874499340500365 0.03870140242569602 1.018768223456255 -41.28877327221819 -10.52839379120965 73.31546902274101 84.79839545753161
3064 5 -0.007356370263223582 -0.002127155679918332 0.03715165498605995 1.071060228611318 -49.25247793303593 -17.20258872304538 271.790655462067 276.7524092719311
3065 5 -0.001788155886934813 -0.001011263255756041 0.04456937473731839 1.000000002293649 -6.003100806177633e-06 -2.365678372019546e-05 -6.698327440964723e-09 2.440657042971883e-05
3066 5 -0.00244989779903175 0.002881840362040414 0.0446455770118797 1.000002156522099 8.703900579194383e-05 -0.0106661770501534 -0.0198399547278294 0.02252551247488209
3067 5 -0.008098974035860297 -0.002237081878711309 0.04024792687600098 1.000561298051444 1.171339035860533 -3.285440049460349 5.628857795223337 6.621947714560666
3068 5 -0.0059385688654952 0.002487631248064874 0.03876477072347435 1.018380553596062 6.893636850857238 30.23574079246306 96.11395343704693 100.9931398442455
3069 5 -0.005228505137935321 0.003198461619521724 0.03561057859008834 1.140130624521862 -20.91888931521746 22.36741212799952 264.1680279326547 265.937300951397
3070 5 -0.003046731416819726 -0.001911215610017249 0.04433107149268103 1 0 0 0 0
3071 5 -0.001199842678017626 0.0005817482305573778 0.03875808338854785 1.022353903967665 19.79966800861655 30.20198319663538 96.08817414168057 102.6504936770555
3072 5 -0.007394110935496382 0.00145925336536219 0.03925452042535597 1.01243269571358 -7.559051038499235 -17.74682975718169 103.6744508539242 105.453691158232
3073 5 -0.002066595783823372 -0.002374682007518144 0.05149258011587296 1.297798910265954 3.726558833213305 -8.411799096257479 -606.6107059227924 606.6804712078028
3074 5 -0.005754782936352325 -0.001785827285034056 0.05118029538830363 1.26119203283823 -125.1131583928599 -128.8135205167945 -761.8338570140176 782.7113460042739
3075 5 -0.005664127889235765 0.001400021065521183 0.03899491356902651 1.017073845558441 14.37673329887155 1.255978837130711 98.49796083840701 99.54956671181731
3076 5 -0.003858721708682445 -0.003553810538852121 0.041920934580643 1.000000002207793 -1.291689470611509e-05 2.232485423699047e-06 -2.072653473043899e-05 2.452385373361997e-05
3077 5 -0.006765025301263016 0.003314134461333195 0.04754833142940376 1.025590102840243 47.21962507751596 17.86643684194061 -167.7380809032772 175.1712486197509
3078 5 -0.008024023112636504 -0.001832574995964748 0.05257144655568807 1.317331270125563 0.6614687721947369 45.51552073705209 -378.9963588736793 381.7202381436022
3079 5 -0.00784861822873361 -0.002561682689544112 0.04303015290254848 1.000000006956162 1.398696122888825e-05 -2.256466319601968e-07 -8.600528601558323e-06 1.642117818693777e-05
3080 5 -0.005395876203733363 -0.003227471742810292 0.0469830949468234 1.011149513737247 -15.20852399554752 -1.009895326763323 -88.96528235892033 90.26151204082826
3081 5 -0.006166818446207096 -0.0008035710620243464 0.03960271222680141 1.00862856542304 -4.361621023121367 21.81675792313693 32.08834275036347 39.04684884457254
3082 5 -0.002540325515073169 0.003061677024117478 0.03703305934885553 1.078446276016561 2.978908970295087 36.20589716585256 311.7567390603465 313.8662218808813
3083 5 -0.008652572375725339 0.001601855507571023 0.04110895257558161 1.000000001161023 2.806393935407132e-06 -8.399713496079419e-06 -1.116619117448716e-05 1.425183704236418e-05
3084 5 -0.006124186882291164 0.0005627308293312598 0.05064022119910652 1.225262501131589 -82.54504553479846 5.29850345581179 -743.5173963452553 748.1041888328394
3085 5 -0.005519568187711032 0.001616537086987564 0.03471244160394812 1.172014982920927 -7.187820284365274 2.498348274782357 283.1335659373067 283.2358075260217
3086 5 -0.008131473243464249 -0.0009823448502327648 0.04031296187938514 1.001540360554995 -7.403798816542856 12.66643228099976 26.98830756258849 30.71845518150067
3087 5 -0.003897090897174251 0.00365598914804712 0.04153367953487238 1.000000003448162 -1.726927916602518e-05 -3.109090887160771e-06 -1.26568747753414e-05 2.163540912803387e-05
3088 5 -0.004170997850639665 -0.003599512673315465 0.03688966835535656 1.083430742975013 0.9810379060915523 -58.34433323838937 333.6719359785394 338.7358624593385
3089 5 -0.007442625217394731 0.002860743591603798 0.04755487247167909 1.024826403495339 -47.60368975975626 -43.58228562773385 -168.9412854726941 180.8498958707104
3090 5 -0.003148659202210873 -0.002642879751174363 0.04464085625631484 1 0 0 0 0
3091 5 -0.004856150349681142 -0.003148801846753641 0.03656548945186615 1.101388613006338 -35.15824609957912 -55.68553606307076 351.6017893925534 357.7160878398896
3092 5 -0.001776829794864954 -0.000288448935109001 0.05045758761142566 1.236127481901436 -43.3788229085218 -19.28795981164889 -763.4738677769366 764.9484260058973
3093 5 -0.005224523500626455 0.003698454573528254 0.03638819282449646 1.108862312271153 -3.262823106238983 59.12060682652093 337.8949720484796 343.0435895069335
3094 5 -0.005449363987312402 0.00274673720815661 0.04543959033171883 1.000005477661198 -0.002137046345920274 -0.04674209600324879 -0.0003551967492555873 0.04679227148357109
3095 5 -0.006631253933513646 2.117777637059291e-05 0.04452323337826872 1.000000002254079 2.165620545613507e-06 3.356038300710538e-07 1.032646287433521e-05 1.055643774070425e-05
3096 5 -0.001251045149946929 -0.000258856672123019 0.05108403260685325 1.278552189469232 22.17448820134792 25.6234568335687 -739.6020671399011 740.3779353713267
3097 5 -0.007299467447919542 -0.001315575903795075 0.0500492065853237 1.173219795248993 -37.53078518693407 35.32808625471855 -676.6496846845945 678.6099242561442
3098 5 -0.00403292898192332 0.003775604673978685 0.04718890027528373 1.025103719381998 46.756384875459 9.481716768904972 -176.7221430704577 183.0485682296453
3099 5 -0.001506272956529547 0.0015986087548083 0.04975790101150647 1.183995354345196 19.2476647510657 -10.1322381523289 -721.040982966446 721.3689998645378
3100 5 -0.004088638214058374 0.003171667805224038 0.04518724924844065 1.00000215745481 -0.03031214101567752 0.007676251269961415 0.01350853225179488 0.03406216625688516
3101 5 -0.007556823190176658 -0.002801913533335138 0.03893372281970664 1.011795191458628 -20.22498520735553 17.63706655348293 61.51669667674395 67.11497681790746
3102 5 -0.00432573922856771 0.001109098034634295 0.03827318428664203 1.042933016788513 51.77421467553538 23.70917407810848 230.62935154083 237.5554504381624
3103 5 -0.003874941636472066 0.003706255599909631 0.04857017458030535 1.088134357726545 -49.59725389856208 43.22810686223271 -408.1642988451069 413.432765596643
3104 5 -0.006510214789677097 0.002949251566627886 0.04681778699619139 1.009758584717116 -21.19994990285237 16.9105585700154 -49.66287472218668 56.58450311441269
3105 5 -0.007839088141595698 -0.0003481486098812778 0.0405305046875226 1.001540359214341 -5.188522032045303 -9.538867966156275 11.3438941231184 15.70333393994098
3106 5 -0.00715282289328884 0.001689950073703799 0.05115533598224668 1.252167746314651 -112.1046675843892 -142.4710612840653 -780.5272041287346 801.304047277083
3107 5 -0.002657984635148234 0.00225953602948132 0.05245282021237145 1.335055127673722 -83.17613379964918 -33.68625461793256 -332.5645426885026 344.4592980856435
3108 5 -0.007162520354501894 -0.00329713290174308 0.0463517310373211 1.003526548465863 6.315174638111635 -13.98413968764986 -30.1077787704589 33.79224668477147
3109 5 -0.008027943745351885 -0.002462093437033421 0.04562791774903222 1 0 0 0 0
3110 5 -0.004720130245603169 0.001441321335425031 0.05294566143591024 1.338256451988444 9.000158716991738 88.44129525473853 -428.6018231330312 437.7241007258169
3111 5 -0.005240674724142766 -0.0007294221653162311 0.0512338630391373 1.268884610853781 -31.17995475581206 109.7102404957482 -731.8132977117062 740.6478442255076
3112 5 -0.006689978783873814 -0.002186479412882343 0.05100336125200693 1.243020891011284 24.18243791105933 -35.91911639631581 -731.0262866110902 732.3075890241846
3113 5 -0.008904275281124457 -0.0007710626115056382 0.04113603589066962 1.000135665663851 0.4576670798952387 -0.657217348922187 1.300874573097872 1.527634921922353
3114 5 -0.003734323604375621 0.003610982959760346 0.04450654542255716 1.00000215745481 -0.01033841249082535 0.007424784186961308 -0.01968764833087543 0.02344384119238198
3115 5 -0.005818604579640935 0.002457598616446955 0.05042747025440877 1.210613489925008 -46.91921894411331 -6.985499674774183 -735.1023639229345 736.6313160306981
3116 5 -0.007187814705808812 0.002495860696898488 0.04682432803846672 1.008994885372212 -15.51177340364846 20.49945144314093 -49.29556314508019 55.5958197114353
3117 5 -0.007872724324236725 0.002638788589363492 0.04062982199946159 1.000352985090947 -2.205677476976268 2.175496558022065 -0.007058935599819969 3.098039417918702
3118 5 -0.00757227377543384 0.002345541421431317 0.04442759831231095 1.000000001135387 -1.497323253911737e-05 1.08402468795768e-06 1.747818220543163e-05 2.304039182394371e-05
3119 5 -0.005550461089355836 -0.003250078551300632 0.0450431251267263 1 0 0 0 0
3120 5 -0.006607255646833654 -0.003047876492131639 0.05065869756544318 1.219641400260254 -24.53378179804411 35.89220158014681 -679.8165530270752 681.2053305378622
3121 5 -0.003256202370354691 -0.002776981201934146 0.05000330586705726 1.19219822939033 -33.05935403837215 15.78435293293636 -714.2933862665652 715.2322058961707
3122 5 -0.007825571013786493 4.267298890755385e-05 0.05254592154491167 1.318920844672974 -16.50312975419592 -95.60612995748376 -396.4564848136266 408.155153989152
3123 5 -0.008901768859418326 6.660313042848777e-05 0.04637346119088134 1.003964797052312 -10.69173289404436 23.13957573925795 -39.22875247640291 46.78298984166502
3124 5 -0.003508050955026718 0.0001239685144103905 0.0442797381214504 1 0 0 0 0
3125 5 -0.004709815834152085 0.003857703427399293 0.04578105792013597 1.001289812473111 -6.861951896244842 -9.526161126264226 -12.38546757859574 17.06557753990096
3126 5 -0.002788390472725779 -0.002534380451545195 0.04642555212930964 1.009768861001836 -15.50287184957924 -18.67093693085761 -94.17112312874924 97.24784497761681
3127 5 -0.008292319014433546 0.0008578882474668214 0.03833914739469181 1.026548749839813 -19.21274606134828 12.48847102565979 138.8239469126118 140.7024511377547
3128 5 -0.008901300766410334 5.756946250134578e-05 0.04495219166940439 1.000023650878226 0.1442546171067188 0.122754408105781 -0.2301283001705362 0.2980554877961268
3129 5 -0.008119845896895064 -0.002101544773322241 0.03792140912897947 1.038819834219687 -12.98496986534888 -44.65778711106658 165.8187303570425 172.2172428338201
3130 5 -0.00841718062435204 0.0004216410454299759 0.04444999073636812 1.000000001135387 -6.211629445239331e-06 -5.285826625283668e-06 9.909365496874615e-06 1.283432226602445e-05
3131 5 -0.007453329450775503 -0.002221813769425604 0.04438782732983697 1.000000003247098 -5.165219343898332e-06 1.281687846953687e-05 1.863778649499948e-05 2.320170144637337e-05
3132 5 -0.005698238892054152 -0.00383434546320464 0.05006621326259418 1.18514331770997 -19.43165222162349 16.40220612515811 -676.8029892878257 677.2805236995753
3133 5 -0.003978705576785608 0.003159073009768898 0.0402247648315134 1.004248485242746 13.23269449022249 3.571265527070671 36.6364481698054 39.11633259183746
3134 5 -0.007438226211030416 -0.001816938010745516 0.05297582778015324 1.330292996970349 -47.74279169806901 61.44838823558558 -410.591274368237 417.9000755721508
3135 5 -0.0042512494679601 -0.001625142493217129 0.03472672443417054 1.171314357208109 -1.102225360711209 -5.181682422688646 285.2981144007549 285.3472950881112
3136 5 -0.002704836797028134 0.003139848719177146 0.03896276531932079 1.013899186577626 -11.2954384603147 23.03832879204311 76.34535591154417 80.54169660990134
3137 5 -0.003415021148421575 -0.0003543028734361675 0.04491571003368925 1 0 0 0 0
3138 5 -0.007864379695648016 0.002055703665383323 0.04467113257077944 1.000009742084391 0.09111282595782433 0.0685843927201755 -0.09492113610442203 0.148375833807835
3139 5 -0.005435716561839517 0.001453989389153684 0.04616420552307992 1.006083069280725 17.45983917758342 22.6199109139677 -55.99648364569116 62.86582962583942
3140 5 -0.007820021249941599 -0.001653548413444114 0.04930012111879876 1.116779728658481 -29.06148153607728 34.7007791729966 -560.3393766889758 562.1645051517169
3141 5 -0.005876702916626254 0.003156870052764321 0.04989782992624247 1.170911471126136 -49.02750850720707 5.97888242330186 -682.773013981972 684.5571066371907
3142 5 -0.007988674421628242 0.002546444430246804 0.03869062545643508 1.018866421337305 -10.0723240385893 47.26564015930276 72.88926370936761 87.45477239865629
3143 5 -0.004152367144849921 -0.003699981982725039 0.03808683585728793 1.035309828227557 -17.64959180925484 -18.42462648686519 152.0037267562872 154.1301654447105
3144 5 -0.006612882709033333 0.002508471576730591 0.05294297419782591 1.333677984509019 1.536151324300982 0.7116535873326059 -382.2299312939787 382.2336806048352
3145 5 -0.005181179092844308 -0.003847067418339824 0.04464636970015046 1.000000002435347 -1.145770903222116e-05 1.651726133007646e-05 2.337540552658382e-05 3.083031951902748e-05
3146 5 -0.00345726157520832 -0.0003157038843407686 0.05291287234074429 1.340644104519882 24.35738246973779 -9.490331356119324 -354.5533685459835 355.5157375100715
3147 5 -0.006324228144114731 -0.000721776367602558 0.04496517503598401 1.000000001118692 2.157833191548041e-06 -8.520057882893671e-08 1.064200697180414e-05 1.085890489916489e-05
3148 5 -0.003976765000358124 -0.0009793670854319151 0.04043015178868837 1.002268072410839 8.195916633670151 -8.707589883696548 5.803122569185831 13.29177951222933
3149 5 -0.00407829307397671 -0.003183817046330922 0.05255776149302973 1.332890473506211 -74.57448465785993 51.37522797195016 -374.946627693667 385.7275481865517
3150 5 -0.006494718394573628 0.002837653226587595 0.05068399216912937 1.226799143345027 -41.16964175059202 -7.644019111344944 -769.9370309933635 771.0748356190353
3151 5 -0.007567973646626414 0.0007006415980454739 0.03706956663490077 1.075454182158939 -60.88856210538386 10.17223018666804 312.0742553329718 318.121410948494
3152 5 -0.008503167244547128 -0.0015323054698112 0.04373206674956769 1.000000003600682 -2.938971057308997e-06 1.390047080165333e-05 2.395265922174398e-05 2.784942590389097e-05
3153 5 -0.005218946395842819 0.003172593835086212 0.05066012021091413 1.231055751579001 -49.68412020659685 -7.40753175338271 -773.7605101866631 775.3893927902974
3154 5 -0.003806988133195303 -0.002494537798044471 0.04523449335264443 1.000023602873417 0.1748378348071865 0.05229770232858851 -0.2208235894405724 0.2864722949995918
3155 5 -0.007419070934808871 0.002376995334935187 0.03916223001253565 1.012364991988647 10.55761207275892 42.33706260649005 90.31938732108344 100.3069377903673
3156 5 -0.008933420737819399 0.0003208024552760574 0.03840684680334989 1.02109877285237 -35.75291650916862 -20.38957066290666 136.3110987676465 142.3893299302034
3157 5 -0.008285944592618121 8.550732608594443e-05 0.05138464170004214 1.263858323115133 -74.18765420183543 30.41017206588982 -653.6849092843794 658.5837435187536
3158 5 -0.003800336654834174 0.0006819542916800809 0.05291287234074429 1.340619562638392 50.37601281404237 -45.86215001253622 -329.3968053431016 336.367856432588
3159 5 -0.001240762409923039 0.001066731679786556 0.04431185972538158 1.000000004746676 -2.30770100529398e-06 1.096231374744653e-05 2.233414890784665e-05 2.498623649262045e-05
3160 5 -0.003050351011044242 0.003381737277360132 0.03954865160246381 1.006329097955146 14.36550815495215 8.804433802850728 30.36762719114815 34.72864322658369
3161 5 -0.006552816731558947 0.00353692466290496 0.05015435184096308 1.187097124546155 -33.78398431976525 1.065979512500735 -714.5831644579353 715.3821306375745
3162 5 -0.005343229244137321 0.003876896902359027 0.04873330388212382 1.091689246005258 8.471803863520881 29.62580920089856 -439.5513593972556 440.6300688553669
3163 5 -0.008004741014414642 -0.002437703779966075 0.04949185503674025 1.131993234559105 -30.54870160581593 -9.025144703302624 -588.5231018422031 589.3845245751579
3164 5 -0.008199026072139494 0.0008303718453470826 0.04942124282284185 1.123782221562965 -21.57520514732195 -39.45486280651534 -566.0426164226317 567.8260466752195
3165 5 -0.007513466100637862 0.001518373278363472 0.04515106552903914 1.000009742084391 0.07747922477419028 -0.03301565127851581 -0.01614777721763045 0.08575438303681211
3166 5 -0.006191549848190432 -0.0006609676161134059 0.03868253481592162 1.026284081302778 -10.54493316441765 -30.22343572163362 180.5057392045026 183.3220487776243
3167 5 -0.004127032321017096 -0.003819498029941802 0.0406401187190621 1.000132412263353 0.3891858476739696 -0.2390151236447295 0.5562781344819043 0.7197494121312495
3168 5 -0.003313483994664 0.002825629106342108 0.0400250583218357 1.004248485242746 12.60861626546722 3.840800533221349 36.77342284870353 39.06422379716956
3169 5 -0.005038585989945167 -0.002828063493381498 0.04539936528296984 1.000023602873417 -0.1677558981001448 -0.1316575995546695 -0.2343531805943949 0.3168551374407442
3170 5 -0.006219881975242746 0.001016878345183053 0.04599857833641904 1.006083069280725 -10.95262118368866 3.892940727523203 -56.92474359390006 58.09940904632904
3171 5 -0.006321855696031834 -0.0008301950783735361 0.04988410997479822 1.166675608339944 -96.03601908357359 0.2946052985131681 -663.4450512623746 670.3598584329444
3172 5 -0.007542922234423814 -0.002255814833850652 0.03611646618122459 1.11409351331147 -52.12682472497071 -18.25457174448599 333.0030719082698 337.5521902548208
3173 5 -0.00203877142259242 0.002370271932892378 0.040982522560029 1.000000002493625 5.992574373348656e-08 -1.760249956282986e-05 -2.544167387719643e-05 3.09375233596325e-05
3174 5 -0.001158064758679919 -0.000725101774966175 0.04315482511410384 1.000000004734836 -2.424177334764638e-05 1.843090519806354e-05 -2.110156822702378e-05 3.704912985615726e-05
3175 5 -0.008310503159393773 -0.0001408362265221425 0.05179580067075839 1.28728634174736 -84.23361638636669 19.58470645868698 -668.944256542916 674.5111423974797
3176 5 -0.007136158617611191 -0.003288978990664608 0.04879964726316123 1.089614164940021 -11.61210961702877 -32.24281014130896 -431.7395951223484 433.0975847219374
3177 5 -0.00472738011202055 0.0004835912793459742 0.05124474494129279 1.273324821174261 -120.8962300098499 -121.2163895492325 -727.9229131580012 747.7841125795444
3178 5 -0.001257211607400918 0.000575537803128399 0.05111233463333454 1.281176722023058 4.900835592824097 -52.15432331267784 -744.5742445725058 746.4146952669333
3179 5 -0.002321209491761748 0.002615527606975802 0.05093318863139908 1.264014153720061 21.15591693064567 16.81611515855587 -763.6284344458319 764.1064981037619
3180 5 -0.003330676646673481 -0.002950739911033123 0.04733677320606922 1.03175590254227 46.00848651250229 -13.55118582838629 -200.2200050394886 205.8845936114196
3181 5 -0.006713016099493074 0.000833973105857976 0.0512667883455676 1.262005398852 -178.3983810137023 46.56197833014493 -765.3153105726498 787.2112326251693
3182 5 -0.002288502146193647 0.002583229749223785 0.0432319005210143 1.000000002493625 -1.062814091410744e-05 -9.102188507817921e-07 2.113193263753943e-05 2.367159594628016e-05
3183 5 -0.007419737792148797 0.002877062821044374 0.05132765490274672 1.264686289428959 -61.47697300178893 53.61146161555541 -701.7700034602509 706.4946884319934
3184 5 -0.006459896617665479 -0.00302010189159311 0.03736375541756426 1.064264326862388 -26.86180983654203 -47.50364000086932 267.5343464454732 273.0435481183052
3185 5 -0.005667510905647842 0.001272088603277183 0.04910276326830365 1.122418822881279 -34.33449737377603 32.46808691372807 -466.6660185163643 469.0524567845935
3186 5 -0.003833962329802243 0.0008499948522016978 0.04605144170243929 1.007490217456168 -14.82776014392164 35.57527081608423 -56.28797597442542 68.21875551357485
3187 5 -0.001810379380719018 0.002048560043835428 0.0509879473435372 1.270521654534406 -62.04916244674444 79.51353092470585 -757.5928593036058 764.2770705891089
3188 5 -0.005626166788102046 0.003689821154615652 0.05191314472428794 1.303272611474945 -95.22053295227199 54.97296122360672 -618.7395162952291 628.4326259724753
3189 5 -0.008749909592330279 0.001129855006762763 0.03978473431530041 1.002643488176303 0.2667530592520872 7.688470232969435 12.13017113901812 14.36401001043043
3190 5 -0.003085857316654943 -0.002653545063567023 0.04363620569601668 1.000000002207793 6.297368099141026e-06 6.583075570574899e-06 2.775836441113913e-05 2.921507357042892e-05
3191 5 -0.008732982727931361 -0.0008282493983431739 0.05182810342778414 1.286015898017101 -88.16048101190812 -13.54371019628369 -649.0719925363599 655.1718507332655
3192 5 -0.006761597568396909 0.002839947987219574 0.03880599883392928 1.015469059519526 -9.579681281782346 33.64423232995232 97.48456332241487 103.5709647956137
3193 5 -0.002832671420716936 -0.003166329150756378 0.05063731884330257 1.241091529510155 -19.82383861137637 15.82456481806739 -788.1255718064675 788.5336507494417
3194 5 -0.006531702263315322 0.0002403304638504951 0.03849484961087992 1.031532587156653 -10.15076197919683 33.11443533821151 166.7937825459646 170.3518995858791
3195 5 -0.004084550582162224 0.0009745342585912949 0.04442953440399414 1.000000000932712 3.286200397593948e-06 -7.816998265451811e-06 -3.133841806660306e-07 8.485445455597187e-06
3196 5 -0.008396142030932665 0.001939982914903359 0.0488047428882675 1.086068849787672 -56.66116206046651 -38.19537774308482 -414.9016999730206 420.491135230556
3197 5 -0.005143490126514614 0.0037305403528136 0.05140459951508609 1.278727012070271 -12.03587293362069 40.36216410926185 -661.6258073034455 662.9650634979141
3198 5 -0.002862247202055143 -0.002545568223758642 0.05257756654585527 1.336883514036345 -94.43710702752546 53.70851123503359 -345.2913077793239 361.9793621061397
3199 5 -0.005375331295768495 -0.001569074456233299 0.04605765471066409 1.004536938447538 14.39476135257762 -13.69293477601586 -43.57811756138409 47.89319312148334
3200 5 -0.008227737458844251 0.001215042009627956 0.04491927126616437 1.000009742084391 -0.0207131891186383 -0.09610033477078321 -0.02037602691044217 0.1003966783274036
3201 5 -0.002132682683250948 0.001551016403883666 0.04388125244522328 1.000000002453027 -2.477210763450735e-05 2.041456268767487e-05 5.332088871637013e-06 3.253986567457924e-05
3202 5 -0.008066491999651589 0.001525089472263665 0.05095144980481456 1.233093764452241 -4.355065865751981 -26.32883308787751 -690.9464001386586 691.4615693695752
3203 5 -0.006278098906568632 0.0006482129462624013 0.04892421418501621 1.104317297540776 -115.9160682204925 -52.17946889256374 -461.2088543830057 478.4065626712205
3204 5 -0.004251458380766571 0.00115633478135104 0.05355053770740975 1.356002631404704 -31.4856843688961 -6.669861865812207 -305.2882500968427 306.980049880573
3205 5 -0.005745848609120381 -0.002629871853159658 0.04642915040195418 1.005013273366518 11.62439520411612 -20.87859262264534 -41.1040796935414 47.54563661595942
3206 5 -0.002549943875786784 -0.002938335646040869 0.05186523273718817 1.31518415564257 -4.120116391442372 -22.83492406173277 -621.1722774874689 621.6055078865962
3207 5 -0.005736138761211193 0.003205854812520391 0.03927077591940765 1.007705536703549 -13.21001151133059 5.019621180267652 43.25793173889688 45.50768791369147
3208 5 -0.001890100948833127 -0.002318435107922585 0.04662314018929893 1.011775192605265 37.70573154729883 16.32156847498669 -86.54756922253853 95.80499740269681
3209 5 -0.001782996252318944 0.0005459455401424168 0.05048588963790694 1.238752014455262 -42.78509903968866 9.329696661278698 -778.6260402998873 779.8564730594401
3210 5 -0.004217919214513545 -0.001162286075251695 0.05291690516247131 1.338867484299761 -79.81768544175192 -104.9825015905324 -345.2860534335792 369.6141870183301
3211 5 -0.002446452507174349 -0.002889423282374844 0.04508961017649778 1.000687864800918 -5.464169825923451 1.992652608341113 -5.770426285525792 8.193023606749096
3212 5 -0.004157411788362675 -0.0005795972540086168 0.05355053770740975 1.356050675501074 -13.59650013101514 3.14837936339711 -318.5784901328562 318.884040810698
3213 5 -0.00182121891778697 -0.002120339936552192 0.04810211614889769 1.064840934827511 -46.54967475427994 -49.85954217544789 -380.5435276501284 386.608616823369
3214 5 -0.008864408366249544 0.0002886915656102076 0.04935389346740029 1.114988864931376 -12.98778809492079 -24.96013168213654 -548.9206465168085 549.641307568508
3215 5 -0.003546088194500858 2.813816630897205e-05 0.04589278346650995 1.007490217456168 6.878382926308852 -16.02331371650689 -64.91979833704032 67.22082229681899
3216 5 -0.002386780825886487 -0.00290331176601968 0.04307093861143593 1.000000002207793 2.151087107991013e-05 1.108793974322698e-05 2.665113325081972e-07 2.420188031241171e-05
3217 5 -0.00520456469253648 0.001650260862394497 0.04533361939630415 1.000000000932712 -2.874998487621889e-06 -3.724674036590982e-06 9.220577816100378e-06 1.035170846988291e-05
3218 5 -0.003667276273881954 -0.0004340483915396544 0.04883912076862165 1.112206940913731 -32.33612947707399 -66.97816589235191 -505.6812762850474 511.1215639758666
3219 5 -0.005648839162828493 0.0001382532100008382 0.05126261931257623 1.268321622638834 24.23380601079534 -52.13165334406355 -729.9541595201208 732.214491549355
3220 5 -0.004319215673334823 -0.000384084095971095 0.05121598866785386 1.273887809389208 -186.3106034571657 37.53630397066814 -729.0266277252823 753.3926194281764
3221 5 -0.005500966782487835 0.003606859269095878 0.03489813698614022 1.161138669057456 -24.13304201560015 29.55522459406516 275.0720513972651 277.7058668404973
3222 5 -0.002026877574186352 -0.002531451636891614 0.0393397588751753 1.007568891811484 7.910970187559928 26.12171517747809 69.38476031632464 74.55985794833283
3223 5 -0.007405835095918726 0.002167608333231835 0.05177504685763205 1.292106450011514 -105.1937799244781 -11.04576479283774 -670.6640862566114 678.9536485276986
3224 5 -0.004080666326313393 0.003826055489313053 0.03972229619889164 1.006407808425495 12.22611949804818 17.70762894204624 21.67197937990959 30.54034726346402
3225 5 -0.005156603035622733 -0.00141764820390558 0.04882811674218258 1.104107515005227 15.88476614696441 -62.03051745101079 -438.027429988752 442.6828891128896
3226 5 -0.001808162243955631 0.002033193036119799 0.04308266161774299 1.000000004946652 -1.887022064639735e-05 6.63974578437972e-06 2.142924634957227e-05 2.931525286323769e-05
3227 5 -0.004884271494935351 -0.001313111581114387 0.05246432505857888 1.327245859729468 53.09429031709435 -46.42749394483075 -331.3968388541732 338.8190972492726
3228 5 -0.00591086900540912 0.003306934197976904 0.04478202661501299 1.000005477661198 -0.05403283567630381 -0.03452472628089463 -0.05178332586192182 0.08241976033279354
3229 5 -0.006525733194467586 -0.003537366846669352 0.0395411947945979 1.008733522200655 -23.68305115769899 -10.20259048229445 26.23302695841551 36.78520719105097
3230 5 -0.00721215225947984 -0.003074493593042602 0.04096249175635437 1.000000001227075 8.485502262622773e-06 9.597340320681704e-07 -1.160149654523446e-05 1.440553921761949e-05
3231 5 -0.006293835056662111 0.0031401038971521 0.04454743738247626 1.000000000932712 4.417297310882916e-06 1.334025956373932e-05 1.575119777978285e-05 2.110865396605165e-05
3232 5 -0.006517631474118714 0.003686535715680998 0.04490308032737475 1.000005476728486 -0.01461952468962522 -0.04415103633110774 -0.0521302979234329 0.06986138041040435
3233 5 -0.00786627743590255 0.002769890012037128 0.04492402892509177 1.000009740949004 0.08068220174602202 -0.005841190160039126 -0.09417994539043559 0.1241515174889818
3234 5 -0.003853622381672558 -0.001121566184622009 0.04467157211551934 1 0 0 0 0
3235 5 -0.001170901396610213 0.0003622232596058622 0.04086559117605512 1.000402189700018 3.090869483130415 0.6058558065156232 0 3.149688146473485
3236 5 -0.002639744224875342 0.003070906771385072 0.04702637999834782 1.019059670310851 -14.00073886774451 39.25939395713884 -158.4589661196404 163.8492131394897
3237 5 -0.007459609847689492 -0.002120500822366104 0.05055778683847286 1.211870321893822 -32.37710177974382 -1.504061841343783 -719.6316402004975 720.3611847534102
3238 5 -0.007936814016610918 0.002607639555112907 0.04882250631365433 1.088572631379636 -9.58589496808264 59.59871304171158 -415.8740091212161 420.2321827765226
3239 5 -0.008113678358002314 -0.002239312165231842 0.04373948860526324 1.000000005729087 -1.916785498197939e-06 1.157653205599531e-05 2.397512456796813e-05 2.669263492312399e-05
3240 5 -0.004950528468710027 0.001475341932800578 0.03976030587721754 1.006398828665928 -13.30076140377343 -5.759468184956872 38.28745008674385 40.93910797560861
3241 5 -0.008111836395294718 0.001871819117430503 0.03522740265247628 1.145930291821872 -46.80672081431384 10.3339853387086 213.7401365254671 219.0490957029841
3242 5 -0.006765855815295469 -0.0002431786833387512 0.04218200407321328 1.000000001118692 7.760942016418253e-07 4.565290435292504e-06 -8.047198775323537e-06 9.284482058680706e-06
3243 5 -0.005689271393473631 -0.003280601720406453 0.03719918797477906 1.070540457750354 2.760938520713814 -60.56473043065338 271.2096860151541 277.9035860547527
3244 5 -0.003833188227246685 0.001500237190899758 0.03745250777518088 1.073376826889138 26.24882713062599 -12.03977005081233 289.4897326361146 290.9265582416618
3245 5 -0.007858669498198042 0.002667061089234027 0.03625660395796619 1.106029836337222 -46.62763450474348 31.16098962456734 342.2620281218884 346.826238148152
3246 5 -0.005836910084322395 0.0007721926814166745 0.05250897745441932 1.325563199504915 -7.043079043841874 105.1908157908087 -342.6408317238852 358.4933085199631
3247 5 -0.007855531225429545 0.002781895931795402 0.0463583298825212 1.002921557040491 2.493338101122377 18.73082043660036 -27.84041960547385 33.64742683955977
3248 5 -0.00173478019994664 0.000515750019396771 0.05246095651611517 1.337533279783056 -98.21883851431244 -45.02806929885573 -327.1470567212131 344.5281758945642
3249 5 -0.004279394910858467 0.001318119556637463 0.04522416455216233 1.000000000932712 1.874818713937495e-06 -4.498129375712243e-06 7.117039236015479e-06 8.625564362855305e-06
3250 5 -0.003514079447707379 0.002440646824007895 0.03488910729597333 1.166129646183085 9.690230634371893 12.38600372378552 268.0003822531349 268.4613911642033
3251 5 -0.003548350555899552 -0.0006442988887174492 0.03458367969880732 1.176348873684254 1.043099442074908 -1.757298326563897 286.3100453835104 286.3173383526789
3252 5 -0.006462196592824987 0.0008345958351028858 0.03912843209230175 1.014230055206838 -7.317593241416812 -18.07717368728859 104.6057496110438 106.4081492699484
3253 5 -0.003104781438158779 -0.002741081329244952 0.04568324727282736 1.000711467674335 -4.623073231733194 2.311042031975086 -7.066121278627371 8.754643984982716
3254 5 -0.00776457037934265 -0.002785008796999712 0.04491867572132853 1.000000002128406 -5.608964621680858e-06 1.112163141527845e-05 2.046077353456921e-05 2.395400641014993e-05
3255 5 -0.003772155735377879 -0.002508985680921792 0.05296071804989549 1.341962673016095 -48.54997832079868 78.41230393513426 -366.5675984287532 377.991261831791
3256 5 -0.005448655412214795 -0.00128078158125401 0.05184453406319686 1.306579366880292 -73.08978535865755 11.42241182698837 -582.2855471704366 586.9659672070389
3257 5 -0.00413815788886011 0.003751539854170043 0.04378122286344239 1.000000002301858 9.167467798676366e-06 1.947337617727862e-06 1.29327024236099e-05 1.597151782439075e-05
3258 5 -0.003047003412972349 -0.003350628418054197 0.0479414466775074 1.051019980569961 51.21875065354042 -11.55708838372113 -222.3143827676991 228.4307586464698
3259 5 -0.005573759073408335 -0.001570614789124262 0.03722026099167722 1.081453414649494 -33.50378010794164 -9.931887795048141 284.1500242472448 286.2907297772747
3260 5 -0.008107299578009111 -0.0005202756618127109 0.03476652625540663 1.159964197106799 -97.130323730149 -65.41964813012653 253.1301426018341 278.9066138387865
3261 5 -0.007579576704728731 0.002203525862324624 0.03684843991102666 1.082241783789008 -42.67637977534154 29.59076744320723 311.4193566867389 315.7196582853045
3262 5 -0.006040953104023195 -0.001036928323186664 0.0488553165927107 1.100419351299355 -125.2192315121475 15.88955079564288 -438.1237882322141 455.9438425726638
3263 5 -0.002852778301115499 -0.003287536540714626 0.04668651275324502 1.011220226202055 -17.34401788161438 -26.61859740135684 -95.81159103095274 100.9416943575638
3264 5 -0.002613219652548189 -0.003139162487429664 0.04069677959147777 1.00032826838923 -1.836541452305505 0.07146585211757099 2.41669644555101 3.036184049756238
3265 5 -0.005520714662155549 -0.003352853491608274 0.04601378066829994 1.000499937792398 2.241737216181118 0.6130419185420853 -5.640095230171569 6.100154124750071
3266 5 -0.00310474392634781 0.003405666573451942 0.03828483641197424 1.028962669234829 21.48891642977376 -10.03523625320043 155.2301169643925 157.0314258636224
3267 5 -0.008578651053854407 0.001752372396647807 0.04443933830790468 1.000009742084391 -0.05570723078278813 -0.03531585422160514 -0.09305926615204534 0.1140637196379537
3268 5 -0.006502859337830662 0.003691954858397598 0.04634284381431412 1.003680992164878 -23.96371715423858 5.495309999975158 -34.86138719911899 42.65881490725068
3269 5 -0.008605347167892307 0.001480443663606615 0.03801370491126133 1.031998468227252 -21.37533699739676 20.50954618795328 142.2588980237554 145.3104971553029
3270 5 -0.002146353682185055 0.001744725711445212 0.0373307322273097 1.067942087329754 38.16802523275256 11.65426414193064 294.5567906612859 297.2479149591037
3271 5 -0.007837644699249103 -0.002552703709990247 0.04095556802046148 1.000000002567729 1.180803575231957e-05 -8.133282396439961e-07 -1.159839708980046e-05 1.657148231770928e-05
3272 5 -0.008524816416645056 0.0001852588395980315 0.04049046189542425 1.001540359214341 -7.323800850259903 -4.03374391705102 10.32059271278059 13.28246147465573
3273 5 -0.006949653102452216 0.00336609079046955 0.04954832309550255 1.139945144978989 -24.8745017982874 0.1507016988885512 -616.3881933843639 616.8899160258296
3274 5 -0.006032589761566217 -0.003774868549527408 0.04565754051205641 1.00047633491898 2.920176199335625 1.158746424637246 -4.590898289115381 5.562955097138425
3275 5 -0.007310454278876695 -0.0009809000820834471 0.05338020900461798 1.341774806578304 -75.16442101557321 -25.7185406908028 -455.4602033452971 462.3365985439723
3276 5 -0.005644855023770264 -0.004099256793920376 0.03478473349839726 1.154067500389862 15.76285144354955 -83.95136094819941 184.9445270626661 203.71739390911
3277 5 -0.001938790554405729 -0.001523222663233612 0.03526269184385824 1.154799337088432 0.9024337668433712 0.4225440210339865 267.7527522852286 267.7546064710526
3278 5 -0.003187785102046089 -0.003385209204724138 0.04394599045965049 1.000000002207793 7.193155441492656e-06 1.153007168291619e-05 2.12822685456138e-05 2.525111864187969e-05
3279 5 -0.002257508958028867 -0.001719228859933656 0.04912690929556222 1.132828330284619 -40.91629156503579 -19.27880612569354 -632.8506243834908 634.4649147617552
3280 5 -0.005754706128576472 -0.00379771456028088 0.03950331867838722 1.008797411246445 16.74396223376013 -23.44141173555073 29.76265066165818 41.4207125705136
3281 5 -0.005079490797507938 -0.001703236962586687 0.04526087793021411 1.000023602873417 -0.1368677551694914 0.06028682117752013 -0.1959090987730659 0.2464704002408829
3282 5 -0.00427237239827238 0.003857214809627803 0.0380269095276325 1.038850130189131 13.08407108061008 11.60780362797114 185.1788102300004 186.0030262638393
3283 5 -0.001253518051172241 -0.0009103623939993 0.04011222462237726 1.001938484955045 5.204108111399804 7.346288241811726 14.22099173627924 16.83114072575715
3284 5 -0.003617278393075767 0.0002400125534384894 0.05291287234074429 1.340368141973499 7.278240945833389 52.96615096147759 -334.9329092371018 339.173170561836
3285 5 -0.007673705530104543 -0.00282429930313002 0.03671282292009915 1.085979454409238 -49.21164505384551 -10.19985767226137 295.1943957774543 299.4420718667575
3286 5 -0.008533166438389379 0.0004086485340529777 0.04300382005993873 1.000000003563227 1.227354873260229e-05 -3.056227246792876e-05 -4.5190083010846e-06 3.324325394603769e-05
3287 5 -0.005596897510023095 0.001316683714379464 0.05011941434339169 1.190129811292644 -53.87389984045351 25.75887855146221 -691.1081046602277 693.6831619949417
3288 5 -0.004867188648314184 -0.002803454469460422 0.05251083079430337 1.328597003881676 24.48787644625776 50.04641093061596 -337.167112977048 341.7396105416531
3289 5 -0.001486975241927437 0.001769126236546694 0.04435902282936788 1.000000002453027 -3.566254983730966e-06 1.452879591975515e-05 2.245116978617741e-05 2.697886413944525e-05
3290 5 -0.005640669120063749 -0.001355919485181609 0.04460549833557056 1.000000001118692 5.991491293157375e-06 -2.639101983735632e-06 8.576071537781581e-06 1.078943141308592e-05
3291 5 -0.001653946950395028 -0.002004137348565174 0.03632140196708228 1.114718880768172 13.2709116576155 -25.96050038629747 309.5893053713942 310.9591656100098
3292 5 -0.00154038994878039 -0.001683343830684126 0.04969495405399334 1.178707588475844 -29.91190448687774 -20.05232621617825 -671.4206597678083 672.3856930213128
3293 5 -0.00495397751663958 0.003872421689454029 0.04380436297262003 1.000000002301858 -7.685274255039814e-06 7.663233617655526e-06 1.30946445828745e-05 1.700759555627273e-05
3294 5 -0.004915448512469444 -0.003302418875263255 0.05176808221386824 1.301576946665347 -79.72093297140992 -54.12696991880685 -638.5516385443867 645.7811944568722
3295 5 -0.006462260066297642 0.003450394533286395 0.05185711374053825 1.298102183671635 -10.1774718616451 64.61807405149469 -591.546496608695 595.1523620701171
3296 5 -0.002175794965889327 0.0006377711271070021 0.03546564880741771 1.148118380318031 15.7865285062156 -2.26053856751725 261.8620699373078 262.347228284852
3297 5 -0.004260557097620343 -0.001462352439939667 0.04532417688103815 1.000023602873417 0.1168543134910365 0.1162957200845759 -0.2029193140556859 0.2614495613082599
3298 5 -0.002793669239401365 0.003256962518650285 0.036377819832546 1.107697987554956 0.7576127896090699 45.55121339256599 334.4869324037392 337.5751693586743
3299 5 -0.008940581885343432 0.0002877829846654744 0.05160682921720877 1.27123682496233 -87.78314196619552 33.55748135690484 -650.3412286374531 657.0964147171619
3300 5 -0.004908946455553045 -0.001913729924686171 0.05291378735116913 1.337289089200713 38.38015725974453 -13.69186766643721 -355.079722694599 357.410286897777
3301 5 -0.006889461537451074 -0.002065465470024034 0.0525232476762608 1.32117679880208 -98.55541533839917 87.44203150725986 -388.8786380761625 410.5921016271648
3302 5 -0.005365129390295215 0.003855892430949753 0.04453281675889827 1.000005477661198 0.02964134572905975 0.0003014568226558973 -0.05263854466471867 0.06041122939706787
3303 5 -0.008654623739376793 -0.001265705370070521 0.04927461232478074 1.110314584561708 -22.5248557696246 28.41798585751202 -548.0110997288763 549.2095378575398
3304 5 -0.002111470515546823 -0.001800519592634308 0.04452643265060056 1 0 0 0 0
3305 5 -0.001170984401591014 -0.0004874097864360358 0.04086583220608686 1.000402189700018 3.222502884762444 -0.6319848112307337 0 3.283889407993
3306 5 -0.004305188078815145 -0.003221068406548883 0.03933202063654663 1.008514904822649 3.437282871660795 -5.0359826651982 74.7159155880323 74.96428534376859
3307 5 -0.006937632715489004 0.001948291662643702 0.05250629021633498 1.322065905192631 17.79675137877856 16.45094689910556 -366.5151908319427 367.315590635751
3308 5 -0.008574654393454898 0.001529121138351418 0.04960590871591133 1.137954852902268 -32.5963601449251 0.8537965198549575 -590.5808762758157 591.4803657653442
3309 5 -0.008348995710172051 0.001194363089501219 0.04251769977117908 1.00000000472425 1.892135268223048e-05 -1.287013344926302e-06 -1.3249299749564e-05 2.31347775984375e-05
3310 5 -0.001191653282533674 0.0008182827157544669 0.04987715510480557 1.194258746301665 -28.83716384236064 37.14002149864744 -741.6553887222102 743.1444535459333
3311 5 -0.001684940027483463 0.0004772228290746674 0.03737006511383416 1.067738612376605 24.83716974384583 30.7281007839496 284.0805539871915 286.8150315662393
3312 5 -0.008109720193726844 0.001909716321212571 0.05271443613859822 1.325114123692372 -41.78280964882082 8.76915148021382 -315.7837138023626 318.6566413910826
3313 5 -0.004364297062877001 -0.003815930246260147 0.044659789854509 1.000000002435347 9.969006001902118e-06 1.422194918607877e-05 2.380404317897179e-05 2.946654698100408e-05
3314 5 -0.007161298152507694 -0.002493089981336144 0.05171268099502567 1.286428702989302 -64.13307688908243 -43.18818081481554 -690.931649402359 695.2444279958081
3315 5 -0.002417838461705046 0.0009576917576383628 0.05296095651611517 1.346163590062556 -98.67556770494541 -48.79376571168967 -334.5049850662925 352.1523594531508
3316 5 -0.00284185935072954 0.002487196993338363 0.0458764837594611 1.000658349665004 -4.947593716975661 1.098127250812161 -7.134867034735632 8.751622401051735
3317 5 -0.005929965024412521 0.0002545312663935314 0.05311385372591883 1.342921785019291 -40.99086023459866 24.46563337230655 -326.9637516907395 330.430193473242
3318 5 -0.006686927533811399 -0.003583913411593426 0.05125090514860162 1.260123474297683 -29.11697091207739 23.98189013677968 -737.104148999484 738.0687336026915
3319 5 -0.006032642136863473 -0.003768300688109906 0.04945119562906747 1.138806241006155 -24.92361561784706 10.27367246543979 -610.7802646952438 611.3748986526887
3320 5 -0.006021409044668445 -0.003838311567842559 0.05131872324940162 1.268218895746615 -77.52519137367875 37.86360599733943 -750.0074664815086 754.9536460834257
3321 5 -0.006475533355659013 0.0008486950489416311 0.03698807330198533 1.08852821630538 -53.77010893530834 11.93912604134443 325.9029257679832 330.5245594047099
3322 5 -0.005170742256768532 -0.003950453381258909 0.04656772521316916 1.006636178163127 -26.44251145389649 20.36438772131459 -62.03645621091421 70.44456400931269
3323 5 -0.009015976509553748 3.50330776662042e-05 0.04255797605085435 1.000000002427841 1.63754748319831e-05 -2.78688789847071e-05 2.909025015478279e-07 3.232514835391429e-05
3324 5 -0.001240762409923 0.001066731679786461 0.04581185972538157 1.002812471841902 3.331712223222798 -14.67821232927016 -26.50073123374398 30.4768597372604
3325 5 -0.006747730597203513 0.003315311486115631 0.05130370304451475 1.26673784704189 -100.7753761077255 16.00614323296097 -718.6174732752162 725.8256994260424
3326 5 -0.002156386561027274 0.001650387959291558 0.05245582331961694 1.337393024915766 -102.1097344047053 -17.06546843816127 -342.2444703928585 357.5596531876905
3327 5 -0.0075262590175548 0.001855689391495835 0.0348405824545512 1.161232424747944 -99.87319342912357 -2.131678407049211 243.8887289548797 263.5543794547702
3328 5 -0.008128408904670502 0.0005816313327494229 0.05316571254029369 1.337171417775943 -70.98659980731389 38.45087139361225 -342.9964778430378 352.3693384445664
3329 5 -0.001157429076589707 0.0006418133869871618 0.04506185972538157 1.000000002293649 -2.652921204924641e-06 1.16877263490182e-05 2.110156794034331e-05 2.426761437945638e-05
3330 5 -0.001752961841769309 0.001047247309560736 0.0362439508338967 1.117093524692988 50.33219656582295 19.23297047496554 342.1912059069554 346.4073592816525
3331 5 -0.008582715628834644 -0.0007541763139826895 0.03476652625540663 1.153344607460468 -76.01556053246019 -41.98176335119526 237.4620919829363 252.8420040777488
3332 5 -0.003050590190473272 -0.003348869970998182 0.04929230689304565 1.137128864384401 -43.86680491470274 -35.38369750765079 -666.4156064579456 668.7944849903063
3333 5 -0.004957017562405956 0.00389955648309294 0.03832851286160437 1.026890715062807 -35.3062185671746 7.036264977347136 189.3149317761697 192.7075024169021
3334 5 -0.008028343394594989 0.001520091463311285 0.03687917635758524 1.078943407353357 -61.81005260267045 10.8914536529734 316.1924728241507 322.3612666498118
3335 5 -0.006986223751245269 0.0002541718548230429 0.04283465725659406 1.000000002254079 2.926034846368918e-06 1.559572384040789e-06 -1.193234635516115e-05 1.238445943441842e-05
3336 5 -0.002523488862527558 0.002922972185076332 0.04115908327270783 1.00000000457264 -5.773670087269454e-06 -6.09464074335034e-06 -2.314244576960648e-05 2.46181377903836e-05
3337 5 -0.00426617520914466 -0.003332754405796656 0.04524925474829521 1.000023602873417 -0.1013686827851473 -0.1446142429200089 -0.2420486557589325 0.2996271697620717
3338 5 -0.004270266855104926 -0.003753000407276793 0.05135424643876656 1.279918653920116 -10.42415745711269 -72.2987065243608 -639.9299321246056 644.0854633142939
3339 5 -0.003719093249084242 0.003715627176484491 0.03927530693499958 1.008488421137895 4.12901706935026 16.96839388300069 28.89476708633071 33.76214948579165
3340 5 -0.001595493177811715 0.001775543439367912 0.03804586462052682 1.038183128776196 -11.57707043336717 31.88447730954449 176.9461669660548 180.1682393128737
3341 5 -0.004568325068775969 -0.003799891918641842 0.03871584802332233 1.02052989620225 12.06813605329696 9.663088938337911 104.4891067530007 105.626647327609
3342 5 -0.003785327179090933 0.001574817002655953 0.03453486760678289 1.178041031402412 6.940633353310408 5.368717502469549 276.847304001728 276.9863268321952
3343 5 -0.007727628240815259 -0.002774578960854641 0.05005016481741209 1.173849612614998 -34.62039675473426 -10.2855607608207 -667.45502444956 668.4314282666417
3344 5 -0.008584932205150466 0.001740410381991567 0.04300518381924793 1.00000000472425 9.227997604431407e-06 1.847930045452308e-05 1.101559757204106e-05 2.340905540480191e-05
3345 5 -0.008464568532035277 -0.001387384643064645 0.03479832126253 1.152049500527592 -61.87111444317221 -0.7460030730427738 225.9192422336321 234.2393974856571
3346 5 -0.008776047017722008 -0.0008850779008026539 0.04856180447933793 1.065211724768817 28.81076840860484 -33.93970589209788 -338.0489898168057 340.9678628969293
3347 5 -0.007524060986786103 0.00189377019385782 0.0531111664878345 1.33729201321822 -78.13070376711254 3.381105265020984 -336.6378455156797 345.6021958515253
3348 5 -0.001853149211467991 -0.002282549305586681 0.04513173516877102 1.000687864800918 -0.5500091671357819 5.084323857084654 -5.872903810046167 7.787416665988045
3349 5 -0.008208205780085532 0.0001577270857006302 0.03678827446107779 1.083804838910358 -62.65434673659369 10.95997112659801 322.661391447821 328.870889047859
3350 5 -0.003126183550912514 0.003350948274311605 0.04967576819990774 1.169529941364982 -61.73260993889492 17.98178878627901 -670.3095313243322 673.3863138214705
3351 5 -0.002319133865190135 0.000871323393951364 0.03690493272061704 1.090690982178218 40.55654649984154 17.18160311988946 323.8930963998815 326.8742554030007
3352 5 -0.007047387595017537 0.003301574582407686 0.03809240155238688 1.03164469679625 20.85618289205914 12.91172322986808 172.7067496133465 174.4400020740624
3353 5 -0.008761287095130708 -0.0002373341165775962 0.03735447246819032 1.055136474199738 -44.60380998014336 23.16668204936278 237.2223524805699 242.4884317618817
3354 5 -0.005230583526302651 0.003866785709257727 0.03902236232616261 1.009511875956374 -0.7249528377014388 15.92449641590761 43.38253276668488 46.21860331045966
3355 5 -0.006925766499582587 0.003390883576554558 0.03990092285457564 1.001689975096134 7.747490788177533 1.509984142062347 12.95606043819199 15.1711294141293
3356 5 -0.00394423588676286 -0.003720043092057737 0.04395016266219387 1.00000000464314 1.140583159917066e-05 1.445946620816393e-05 2.136674172378828e-05 2.820827554787335e-05
3357 5 -0.005909197747558464 0.00225571735430035 0.05339512372850048 1.346696108961742 -11.07668864450965 6.602977660562202 -399.1580370250953 399.366286592948
3358 5 -0.005385490873711204 -0.0009630976208204608 0.05309795760351731 1.344041457028898 -15.53357758303962 -17.37443844061081 -319.2663248029398 320.1158373102323
3359 5 -0.002932014138397727 0.003235354136376754 0.04075426282858076 1.000000002079015 -9.139354392520211e-06 -2.784003929140891e-06 -2.665521232181362e-05 2.831569918809202e-05
3360 5 -0.003894829676011961 0.003733675791493872 0.0457779266929725 1.001286492266724 4.423312644261582 -8.750104223590476 -12.43236330795413 15.83330906960211
3361 5 -0.001296801078989945 -0.00113610416745109 0.0459195675628265 1.002029934476846 -2.96083252914176 11.73009209903845 -18.95037866004329 22.48284771279146
3362 5 -0.0086906216347274 0.001261643526307857 0.04565509057501264 1.000009740949004 -0.03268325869685552 -0.1037180262645414 0.0004680588241893741 0.1087466939742104
3363 5 -0.003657521958792404 -0.003602165822448745 0.05169134561403562 1.300125373100067 -29.21320859045708 -77.70639384845506 -684.4251641830456 689.4414409999371
3364 5 -0.006303526783181676 0.001238516076086485 0.05295843974700957 1.335196441489285 10.2052420410676 32.5656723002977 -382.151232428201 383.672040190421
3365 5 -0.002170084337479838 0.002653951698731429 0.04534370413429262 1.000658349665004 -5.874847876177725 0.9656850885463226 -5.986621623378883 8.443105099427477
3366 5 -0.005297210905098444 -0.003654318213088329 0.0344807542365103 1.166431344050627 -33.88051979158248 -111.94632100838 214.5380631707598 244.3490310144896
3367 5 -0.005730239657889468 -0.003565018989872155 0.05262296995491677 1.329600378517346 -98.13061466277249 -33.0853272507032 -326.4921272676888 342.5220658310357
3368 5 -0.003988963200396089 -0.003789683878441469 0.03488513546097516 1.157236519849392 -8.979123555334539 -118.098970117457 194.3958884248597 227.6351309422965
3369 5 -0.003626458380766575 -0.0003525486951321444 0.05355053770740975 1.356411550478095 -9.184800220116724 4.424162492072993 -321.7466486587242 321.9081230599194
3370 5 -0.003597235720519335 0.003568798039803544 0.04095396933825846 1.000000002079015 -9.571586331710557e-06 -2.583198480934928e-06 -2.650019063038428e-05 2.829396194851473e-05
3371 5 -0.006330723320120529 -0.0001081659284955887 0.05249406273053681 1.322423105873621 -102.1655075367908 -129.0461396564158 -386.9690480656028 420.5184196337564
3372 5 -0.005369115207391886 -0.003124554710202105 0.05314446333924182 1.344548867993224 -50.72803535645643 2.786567814144156 -315.1382386066763 319.2071552509861
3373 5 -0.008403843036984269 0.001912937598621654 0.03741740766875343 1.05190441601625 -36.56707048712784 -14.34319897768949 234.0496699102518 237.3228307306779
3374 5 -0.007080806534072256 -0.003328840356007074 0.03661499293395425 1.091412557501408 -28.84879650491613 -52.75563903275396 298.2784426132532 304.2785563218744
3375 5 -0.008832066901329417 -0.0008672078536514988 0.03912030706366895 1.007326695830201 11.99242351163012 -21.40670660154169 53.60497875862267 58.95387228095517
3376 5 -0.001118768004062638 0.0006531467446840395 0.0362090832271138 1.117090888327342 18.60866802859065 48.37632762042331 335.0289088825416 339.0146329981395
3377 5 -0.001541601128182656 0.0002436705622303055 0.03543078120063482 1.148115743952385 11.46107700305282 2.723451145322536 262.6853746025959 262.9493858184822
3378 5 -0.007146660018237726 -0.003307029014969923 0.04492922002559561 1.000000002128406 9.260032689781532e-06 -7.091394550627292e-06 2.071759837526637e-05 2.377509126222923e-05
3379 5 -0.008414605241088564 0.002341140281681398 0.05315112012008914 1.332915613185113 -85.63077918526926 47.27631352614457 -282.7942164940152 299.2327673350006
3380 5 -0.006559167464112904 0.003558171551675092 0.03931200402986258 1.004794042627013 -11.71029718658489 4.745597649546373 42.56208217845759 44.39800216918882
3381 5 -0.002224220350139815 -0.0008623576338671088 0.03492939729835445 1.165224779988049 0.9089398420820197 0.3215416029415019 276.1743225333019 276.1760054518988
3382 5 -0.00208126582199666 0.001828428098097298 0.03523462408817285 1.154847042708941 12.85818005202936 -3.595799275863305 257.5449764938915 257.8908247377596
3383 5 -0.008623565884185943 -0.0005705833374323017 0.05360239652178461 1.344540306751525 -127.8954196534557 -3.374953052238448 -279.336223556436 307.2415246466687
3384 5 -0.007930929216323374 -0.002427111390819905 0.0512671065814916 1.25527813387184 -108.2214309783436 -20.30885450181309 -643.2144798558904 652.5712181750433
3385 5 -0.008929996602105358 0.0003435085624724833 0.0397926836148768 1.0027791524995 -6.409273634215039 -5.163535092990009 12.25587597691608 14.76304098539092
3386 5 -0.001108319949200357 0.0003933644229551079 0.04912715510480557 1.139554485114521 -31.25158705179159 44.70786758640723 -608.6206134591615 611.0601494491237
3387 5 -0.008390497203185167 0.001929362985925118 0.05025365274499067 1.185559056448465 -36.82357060975684 3.124244903329312 -676.1114722181406 677.1207123723578
3388 5 -0.008244889502872841 -0.002015123864727026 0.05167329203826157 1.277064502839832 -100.5898471551306 -32.27322456707348 -694.9908820810548 702.9738292073553
3389 5 -0.001277009553897608 0.0009912244130111116 0.03803638541502684 1.039901839945986 10.63857953719979 -13.84990504285846 180.1391087315521 180.9836946767954
3390 5 -0.005949874790990649 -0.0009307676209600836 0.05247816660813529 1.323374964179721 -162.4806638314091 48.59237474592173 -391.1090027630888 426.2950117522855
3391 5 -0.001068430682799169 0.0003203928913166846 0.03686198172528631 1.089394252469772 20.39655584648126 36.08755178748105 316.1781499732164 318.8839183855129
3392 5 -0.007698142635551955 -0.0003707659871593765 0.03642338145030381 1.104496036750791 -58.38294672395561 -18.89132781493898 314.6827601605183 320.6098723948251
3393 5 -0.001318113533279956 0.0009406683121961299 0.05171095651611518 1.315463651228334 -9.339758323442654 53.78893153528078 -616.8391410511477 619.2503582348299
3394 5 -0.005783841873064144 -0.003787684185829265 0.03786553329363319 1.041045777809948 23.78253512207008 -25.79852824663321 196.0924504394708 199.2069832005925
3395 5 -0.009026304524033626 -0.001028162060893127 0.05319801529731945 1.331752138981587 -132.8837080232941 -28.70302500753986 -286.4182883098964 317.0447592706344
3396 5 -0.008531009849852833 0.001039519198345765 0.05276898219105741 1.325124482690553 -49.35681701367034 -5.395407431912181 -314.9922399287231 318.8813525786535
3397 5 -0.003952066449528169 -0.003784841505457557 0.05319139403796817 1.348392734156546 -34.16783454508948 -72.04260694298823 -220.7162404565026 234.6768777146466
3398 5 -0.008623565884185938 0.000585697536559197 0.05360239652178461 1.344054597500591 -127.672118489214 15.10888979753931 -278.7973256075407 307.0120472495422
3399 5 -0.007589841354693852 0.002926280335253777 0.03991109160690753 1.001689975096134 -4.551204694579027 -5.854031218890193 13.12772260181252 15.07714317746696
3400 5 -0.005599386505944096 0.004100404321839418 0.05327321621272237 1.346713235561372 -45.51344826746447 85.77635554070298 -242.1770688963578 260.9191250987008
3401 5 -0.009016193358905619 2.523142503789719e-05 0.04113002807184869 1.000135664323198 -0.3972485368228327 0.7988665898266187 1.297707656463053 1.574814081087645
3402 5 -0.001900951739799595 0.002422923288881424 0.03698756343661451 1.080930729337679 41.91056703327798 15.98734781989778 305.7890369159533 309.0615246473614
3403 5 -0.00655446709725599 -0.003527184357015922 0.0380301007364184 1.034769646921982 -37.1076502624069 -5.062516479456632 200.8833838713435 204.3446615321854
3404 5 -0.0086020497163264 -0.001362595151494654 0.05132755238857303 1.256911809522173 -72.59534212928791 -72.79062048444253 -651.508972328674 659.5699349986652
3405 5 -0.008880738116316983 0.0004732233527734161 0.04566086089526808 1.000023650878226 0.08235991151051407 0.2613633953830513 -0.001179481021140067 0.2740353456137659
3406 5 -0.001541162088381406 -0.000420415895625516 0.03542939729835445 1.148855583879708 9.680912252316617 14.38572716729202 265.0842778636234 265.650792542856
3407 5 -0.006237668380030403 0.0004094954865275544 0.05188918645903729 1.305064520359245 -60.80197090511368 -20.88707224847517 -582.8498059274324 586.3847250079975
3408 5 -0.008479428966467395 0.00115317920870157 0.03519126443182074 1.145266371434639 -51.0512762627601 1.271086150171819 213.1114648931753 219.1445754221922
3409 5 -0.001524622183942436 0.001813798022380857 0.0459092257510658 1.003468664984808 -6.931538239776274 13.99692928353821 -27.59093921466724 31.70520743482548
3410 5 -0.008461945674754019 0.002301103500456277 0.03476044274789767 1.153498163588809 -93.29218427728773 42.28046149873127 179.527358551968 206.6909324097697
3411 5 -0.002367589420728547 0.001168796156485642 0.03488196910861039 1.166218921918272 14.98496997885297 9.277985472548721 267.3077984087938 267.8882032301017
3412 5 -0.003017397148303453 -0.0004172503298409768 0.03458367969880732 1.176232689791088 3.955362096549086 -0.9180498970967244 284.7525334731426 284.7814829378863
3413 5 -0.003957447564607448 0.003786398003849038 0.05319950022861025 1.348424162279166 -14.83653697145918 55.72156589465389 -212.92895172582 220.5986269633479
3414 5 -0.007828946034147822 0.002325194154326647 0.05354785046932543 1.345093502710961 -92.25451740106718 46.72199128289299 -293.3765235931206 311.0685214642063
3415 5 -0.003169169266548499 -0.003494237418414382 0.04594420789676274 1.002162832874554 -3.679363671460442 9.330775285151411 -14.2328486775379 17.4119230967331
3416 5 -0.006600147709463015 -0.003269259695267929 0.03520554004535808 1.146751106099681 -30.70843138037088 -24.03589267580799 224.1826427524097 227.5490918593622
3417 5 -0.007894159201462067 5.593814881631849e-05 0.03523348615998524 1.149858398083016 -62.13561850565564 -15.81305193566658 275.7737019019587 283.1289853747066
3418 5 -0.003771636062307584 0.003737649509634492 0.03850373938507658 1.023551903795098 -7.147380215798648 10.25623119853447 159.4718390654967 159.9610664420523
3419 5 -0.003039081293925213 -0.003320101879321841 0.05138196836223428 1.287498214216176 -63.16868024110633 -92.91039719495591 -649.8968866721176 659.5366459693039
3420 5 -0.004242594175131238 -0.001762904418823479 0.05336636745506156 1.348910713771006 -15.9101635043408 -0.9811974006755497 -380.3676608037904 380.7015280195515
3421 5 -0.008116924413363466 -0.001989521919556736 0.03520270248699475 1.142999430049179 -52.42508087405844 -14.76854215521671 218.0653440909283 224.7643059641298
3422 5 -0.001241398092013363 -0.001150020067765844 0.04390482511410384 1.000000004734836 -1.829801960384539e-05 -7.846513051433732e-06 2.276728886510874e-05 3.024458184132051e-05
3423 5 -0.005277044732828137 0.003871865271403577 0.05013047988274783 1.191353732780129 -50.56601841400405 7.067227191498469 -722.6094627422317 724.4110045844405
3424 5 -0.001049898281462219 -0.0003313326044884677 0.03484571759954713 1.16309484943213 70.45705407830857 34.02414544377177 216.2166335790228 229.9379733293699
3425 5 -0.00398158870839437 0.003793380234010962 0.0347586209136552 1.16282885806589 8.585886706570346 108.3449472901082 170.8463149518397 202.4865634714007
3426 5 -0.001050337321263468 0.0003327538533673538 0.0348471015018275 1.162355009504807 70.3049839911088 -15.14162975663549 215.7499651559313 227.4205513810541
3427 5 -0.006797351786383545 -0.003507227041166975 0.04564765842963997 1.00047633491898 -2.08698646972194 1.598228102904052 -4.669243505158105 5.358328144503273
3428 5 -0.006887918036095689 -0.003334606905354041 0.03883031399564126 1.014540905909854 -0.1336068028735414 -17.84058782818423 62.3822214969689 64.88332592993224
3429 5 -0.005698267711871579 0.001633681627726275 0.05339512372850048 1.347109584627394 -10.42827191496251 5.019401783289585 -399.1267175236457 399.2944776610297
3430 5 -0.001339065625982025 -0.001506199217794782 0.03601269184385824 1.127803578785807 27.80046881638638 -15.58832322449883 312.4323971926449 314.0539200565804
3431 5 -0.005404977885931726 -0.001544217543614682 0.03449717955900637 1.178609383398169 -1.922511463561958 -5.1009337999691 288.338926941972 288.3904512393
3432 5 -0.005346265746012727 -0.003855454447778913 0.03862787043664538 1.02088092584361 -37.44509741184451 -5.393968850036051 104.7195288774851 111.3436569745224
3433 5 -0.003787578451963505 0.003685713416799235 0.04995581184365226 1.186176098581866 -47.79777752579938 2.703007746229984 -705.2886202095734 706.9115726768135
3434 5 -0.007706736261332199 0.002835823152366393 0.0379721914954418 1.035395042543953 -32.69195440811799 -4.482081731639637 176.3660568139057 179.4264164936629
3435 5 -0.008879457199765449 -9.13702708814924e-05 0.04855169355346263 1.064209935275783 17.32415506916539 47.42359553618593 -337.4684092133149 341.2243411297113
3436 5 -0.008381405765793019 -0.0001129777478127296 0.03591765248919532 1.120639669924546 -70.37789684807673 -18.1210391020365 313.8979779959928 322.2008085229905
3437 5 -0.008641302525612717 -0.00102247564953303 0.03734640100299066 1.0567018673487 -43.22625847693696 -18.12731418308889 239.5001625512297 244.0439239224628
3438 5 -0.003647914143086585 0.003111158898331131 0.05359561877553515 1.35716438011793 -7.682002554112779 50.96950240464743 -211.6468690805236 217.8331942799514
3439 5 -0.008583848079704659 0.001604164311771747 0.03630053805247725 1.101311389759285 -66.43633485066684 11.87931103669388 344.7276434828184 351.2720495574813
3440 5 -0.008076909850485888 0.0006951077445253116 0.03480444423389566 1.160467773938601 -71.31186258455968 63.24411421227325 246.1237434324476 263.9357816003269
3441 5 -0.001687501682613541 0.002091274286341695 0.04520638885505212 1.000656193142906 0.8224743404064997 -3.350731199960298 -5.177843745183419 6.222051869323297
3442 5 -0.004949940047012929 0.003893834785447629 0.04951056275142003 1.146732767366125 -54.54700259603008 0.4260716371929609 -621.9557693109734 624.3432837858161
3443 5 -0.009026166829368271 0.001043585402155539 0.05320566617254833 1.332007662415201 -122.7517250569029 10.12249365149814 -268.9143991550798 295.7793179975701
3444 5 -0.006790085578321116 -0.003492259326686386 0.0494366651201661 1.133954053256818 -46.97441773300277 14.5525716220114 -601.7778540904684 603.7838677340573
3445 5 -0.003645929110929338 -0.003110010140048427 0.05359435059483392 1.357464933666429 1.914239291895877 -44.74444923216827 -198.5655751423084 203.5534762187874
3446 5 -0.00562342363688537 -0.004091088878057177 0.05307555005880921 1.338879873874116 -113.8603970267054 -91.19941193532078 -300.9143596632917 334.411385272685
3447 5 -0.002330892764124702 -0.002912692030715299 0.05321119909079371 1.353701517181113 -21.3953931258276 -39.89948452335648 -209.8847785208727 214.7122538817802
3448 5 -0.003647914143086601 -0.003111158898331137 0.03440438122446486 1.174910538507915 34.10604111640325 -90.26230895426413 173.4005129215342 198.4395231294411
3449 5 -0.005280509064854414 0.003652688627025715 0.03440438122446475 1.174582001787978 7.297316000358848 85.76778882334547 209.2809426685934 226.2915760356761
3450 5 -0.008806741461977151 0.001042502685852583 0.03598519936868429 1.113965797738621 -78.74036722508882 -12.25290507930205 344.9799305118946 354.0640218514384
3451 5 -0.00180089713112982 -0.00229973912447971 0.04310125478488573 1.000000002441187 -2.64067903051903e-05 -1.361157800761659e-05 -3.271698689168199e-07 2.971027886444102e-05
3452 5 -0.004229447245498275 0.003815304148804538 0.04938545820752766 1.141318799786315 -36.3255479073449 -1.384947846319042 -613.6009468892303 614.6768138905728
3453 5 -0.008118610938090761 -0.001154318283941286 0.03674228501738909 1.085398270055061 -54.3763968442825 -15.90634662441806 292.8580080055758 298.2878094218684
3454 5 -0.006699633277429959 -0.002660761273455035 0.05314303867164282 1.340716116205955 -35.06018009969653 -40.96760356577852 -329.6615512252906 334.0423612759478
3455 5 -0.002968532724251715 0.0004187919732773124 0.03511854730559021 1.159866130048392 1.849821745102714 -6.676412797790765 270.8020195415859 270.8906238985334
3456 5 -0.008935470220940076 0.0005792956701517836 0.04373335886529079 1.000000003563228 6.279432726616688e-07 -1.324971773371509e-05 2.344438399698802e-05 2.693674950277099e-05
3457 5 -0.007121200822654749 -0.003303905945531987 0.04998386465289282 1.1721957085117 -56.57752950426897 21.24478808170447 -660.5531240387161 663.3119835663686
3458 5 -0.006694445329032788 -0.002641262852677473 0.03490156078347112 1.158945909163493 -9.003389073249719 -78.60292652319602 253.1375702869049 265.2133302901138
3459 5 -0.00105033732126347 -0.000332753853367361 0.0531528984981725 1.355236828747019 -15.96676551038721 66.86483931648954 -253.9138175366839 263.0552623950641
3460 5 -0.006416491489849933 -0.001348327702773457 0.05292762890072555 1.333050810798482 -140.7101222010124 61.47079838952481 -409.0506455196144 436.9215354551463
3461 5 -0.002602755848975495 0.002475278765619551 0.03524176227553578 1.154683407219976 3.512625648015143 12.78735437437344 259.7374483747353 260.0757525396344
3462 5 -0.0011091179782666 -0.0004545105558227458 0.04912355500457241 1.140805028000012 -27.94932665800502 -15.96547784992709 -611.0047177236797 611.8519644686988
3463 5 -0.006980398280738218 -8.378427206736812e-05 0.05294352502312706 1.331925393417534 -52.19970076059231 -107.0496399860947 -414.5203338309464 431.2905532700283
3464 5 -0.008946679218024263 -7.148831212047262e-05 0.03910249361736097 1.00800419240457 -1.225424908123605 18.58433377249204 53.39814067144303 56.5529889142922
3465 5 -0.001545748409851221 -0.001893856857906081 0.05326974699413229 1.357194206461884 6.613777692533868 -46.77376383282898 -173.2849526169496 179.608468179855
3466 5 -0.001060901925879038 0.0003651305090677301 0.05309862188278064 1.354119690818678 -15.92857693444047 -55.56558900639553 -253.3065181372768 259.818102478666
3467 5 -0.005265695269309797 0.003651032338495905 0.05360388145307511 1.354682202652292 17.51440706520814 55.64812043992462 -205.9754650368074 214.0779296435558
3468 5 -0.002332356533870611 -0.002913123275527662 0.03473767576996864 1.165919278840979 31.19902064117617 -78.23085104090578 182.4381626994192 200.9406085207583
3469 5 -0.005410165834328897 -0.001563715964392245 0.05354741989610757 1.354084686500142 -11.34992119029628 -2.112145623768392 -342.1268378439114 342.3215667223378
3470 5 -0.001613188618559769 -0.00191826200883418 0.0459229603250899 1.002717799277764 -6.09305819874541 -0.5272831463149129 -19.02349508701389 19.9824110420972
3471 5 -0.006817080947669718 -0.0007555604586691677 0.05338020900461798 1.343616676532061 -16.16461152186526 -1.258029946423438 -450.2281033460844 450.5199466700796
3472 5 -0.002883375315394831 0.003261590624981687 0.04642321292243384 1.006115201026089 5.776955758013738 -27.52069658187039 -55.43959089733551 62.16357612819059
3473 5 -0.007876368297014101 0.002284973774521609 0.03437362254997259 1.16880029651488 -113.7196690418998 37.24768358876899 197.9344880552137 231.2955136214445
3474 5 -0.008234467592776497 0.002208134892420163 0.03588022566558629 1.122544214429014 -61.12750029658402 27.8514319829344 353.0532588114126 359.3868070942048
3475 5 -0.001544788107638616 -0.001891718095556841 0.03467901214505091 1.16752686008385 83.43585925433413 -35.52507253965201 138.3553586733645 165.4260519449459
3476 5 -0.005456516696794585 -0.003873768974510278 0.03652679850321459 1.096047657389772 -12.53630122339491 -41.87693405227445 348.009667464366 350.7443015968198
3477 5 -0.008891468910326597 0.0004155153250472772 0.03628254549996929 1.099948472084113 -79.266123640145 17.77080648295069 321.287899233316 331.3983013139124
3478 5 -0.007634072095848114 0.002902166062562194 0.04954835865385355 1.137561114860335 -31.08366843225381 -1.938641157386214 -611.5324014918406 612.3249389393847
3479 5 -0.005262299186387787 -0.003650624598387128 0.05359704344313426 1.353828363349994 -22.41175829170602 -47.04512875981158 -250.7706197920612 256.1277704596821
3480 5 -0.006396581723271802 0.0007208546610633422 0.05356331601850908 1.352555027003661 -12.00362858277384 3.105949241249669 -373.6125719343805 373.8182552086843
3481 5 -0.002091969976717643 -0.002514727988835747 0.04870353415519885 1.100892360353618 -43.58822109874203 -0.7118531572085159 -521.1310255294928 522.9512267151605
3482 5 -0.004364520888294238 -0.003929421996544607 0.04658091610291941 1.007611208444365 18.48667330200007 10.218387912421 -61.44121642199977 64.97072892248177
3483 5 -0.007558313452890604 -0.00191714926261264 0.03483342315055432 1.158774303077913 -111.7939696603359 0.5340512015511041 251.0805388135156 274.8447085792035
3484 5 -0.005618561303663944 0.004100696401385186 0.03489813698614022 1.156563101158566 -40.29842548419968 104.8027767791356 226.1023946665537 252.4477727987968
3485 5 -0.001544333344442062 0.001891906256680876 0.03469975648138996 1.165062969300515 88.8634470581207 36.20595955332121 140.132857554307 169.8375738656316
3486 5 -0.008436643965299553 -0.002355850517502544 0.03477366056090518 1.149281232625908 -101.1674370236162 -57.12992163346906 173.5491116373809 208.8491618606542
3487 5 -0.00635135749117422 0.0007229942385063948 0.03446695990457861 1.179627718314948 -6.721680224297316 3.397454128112101 284.5069720624971 284.6066422832764
3488 5 -0.001556661632602184 0.001633364513849326 0.05170582331961694 1.315071975696151 32.50776134104942 -44.32662087907718 -635.7839008969754 638.1557588126421
3489 5 -0.001074597140253892 -0.0005140015839398116 0.03683367969880733 1.093458287525405 25.73103771387085 8.91358076434198 320.9534982587176 322.1066380383734
3490 5 -0.006988635764570874 0.003083988902376432 0.05354785046932543 1.347687310107296 -115.2715741328226 54.93071323266616 -274.364287126988 302.6230016208426
3491 5 -0.00790924291990013 0.002634751269926346 0.05017833925754606 1.182661536814569 -45.96542017222688 -15.73544385155153 -669.0323431886326 670.7940818740778
3492 5 -0.002356334428926916 0.002944954447814347 0.05309048557903691 1.350635457671913 -0.9430975625519624 25.54712331002192 -239.2559602621784 240.6178702079441
3493 5 -0.00881435604927161 0.001230420000818734 0.04182500379569996 1.000000003588863 1.121399797746595e-05 -4.477438224770969e-06 -2.352772604245622e-05 2.644532277027685e-05
3494 5 -0.001475374436118235 0.001795962542309441 0.03601292611465183 1.123975453616077 51.24741896734795 14.51981942274432 351.0284092308808 355.0465704580833
3495 5 -0.002340790079115106 0.002917216129404923 0.0347068946687529 1.166134677210425 50.60673124145053 66.27573171192954 173.3633662755867 192.3755977958205
3496 5 -0.005853578177241793 -0.003819793446366392 0.03596994654292261 1.120048254878147 -42.67593297778731 -60.60115286966438 314.5236204818668 323.1390456532271
3497 5 -0.00661881598968595 -0.003284283814883496 0.05262154528731778 1.326135009582561 -28.34935152955384 -52.76516718316307 -324.0652616815158 329.5544604897993
3498 5 -0.008463829906432779 -0.00229911484577768 0.05319123755107009 1.333522724936191 -126.9511187607903 -45.50141496108179 -286.9539524977849 317.0639307335002
3499 5 -0.003556915474113145 0.003626969884407313 0.04646441086791814 1.006743343627809 -23.43464709795878 -6.000482459859443 -61.27734991201031 65.87945117102826
3500 5 -0.007878033004826691 -0.002283477860558448 0.05359561877553526 1.346484451780977 -87.58018690362476 -65.43232941364694 -270.5035029711804 291.7598738521959
3501 5 -0.003657241491328889 0.003116484839963247 0.03435423968919044 1.176697439617524 41.01229187416043 87.66774770762741 152.7603957755806 180.8407603125234
3502 5 -0.007036058027437155 0.003043768522571394 0.03437362254997259 1.173702866856132 -78.37241903059129 63.19220519755731 204.3767684724569 227.8274661968593
3503 5 -0.008617291062098912 -0.0004592465030994658 0.03433748432931705 1.167667566651441 -88.6322132323259 -71.50955726642883 276.1482867608671 298.709160026711
3504 5 -0.001841221547789519 0.001264650970769597 0.05359862188278064 1.362378186137186 1.701157978246237 -7.496788902958332 -193.576966727547 193.7295481586645
3505 5 -0.001830217903372703 -0.001230853066190337 0.03434571759954713 1.177952302983468 85.98644731545215 -34.89295776111544 141.8830491758703 169.5346196701265
3506 5 -0.001830656943173949 0.00123227431506922 0.0343471015018275 1.176434848509845 91.69477591067616 41.14292594312484 146.1147078110573 177.3419863517414
3507 5 -0.001830656943173954 -0.00123227431506923 0.0536528984981725 1.362768943137189 7.885361638641722 -2.638116596162189 -159.1112422856103 159.328359085937
3508 5 -0.001186284854145928 -0.0008639867382748049 0.04984525297809111 1.19288475663333 -35.11511867002454 -25.40783209141441 -697.7783874968557 699.1232420314086
3509 5 -0.00864342018598894 0.001582881374957806 0.05162657986163823 1.273608238418009 -84.19992013735164 -13.04881026774465 -660.3703737092549 665.8445227479467
3510 5 -0.001564712720625373 -0.001939276404644111 0.043861883027386 1.000000002441187 -1.795125572696258e-05 -6.481568257558945e-06 2.276711952686508e-05 2.970858530463482e-05
3511 5 -0.008749017049391837 0.001368354451359768 0.04372454748185434 1.000000003563228 3.074682612275262e-06 1.359620346522331e-05 2.319947592253113e-05 2.706521946916522e-05
3512 5 -0.008246689096638603 0.002226734945216525 0.05198319277989528 1.297025898052054 -86.00300221127833 -8.481835358403364 -696.068945726863 701.4131700543602
3513 5 -0.003942082512880748 -0.003836513019309131 0.04587686102337557 1.001474968073636 -9.166881184060257 5.241178096299217 -14.45098687942826 17.89784010067171
3514 5 -0.008950806719251917 7.557099563449169e-06 0.05360239652178461 1.341355430001804 -131.4787104058076 5.745935988161921 -271.5857570071626 301.7921312418662
3515 5 -0.007566598476620331 0.003067172636526221 0.0456371983980951 1.000087484325407 0.009145081593314451 -0.4801384391455209 -0.7445404096084139 0.8859779764770174
3516 5 -0.003200011615451865 0.0007063359481082969 0.05336233463333454 1.351158369805191 -15.28806909256793 -14.33991537545949 -352.9205736308687 353.5424861618415
3517 5 -0.006932168528005093 0.003674834558689271 0.03486737831164807 1.155985985359349 -45.32348155774864 104.5879771403071 225.1406559603586 252.3512986078684
3518 5 -0.007955076347118012 0.002596371997634993 0.03738667122219485 1.0552027924519 -17.29685174461343 20.78762276129477 245.2034909253125 246.690207147144
3519 5 -0.006891526505153163 0.003523840693399019 0.04562825337216334 1.000083220104889 0.4673706604874866 -0.1680193170934774 -0.7509338772556141 0.9003152299118446
3520 5 -0.006880385262963582 0.00371641914747835 0.05321718522897269 1.339982807674347 -122.2135881296822 40.42829147531696 -264.0937849700753 293.7960774669484
3521 5 -0.001796144517153601 0.002298236204136279 0.03633073921067698 1.110561553109233 47.65874952945803 17.88337925924506 338.3008472451793 342.109097960355
3522 5 -0.006952002694104264 0.0005528760251903219 0.05356331601850908 1.352047196061302 -15.28155251432576 2.15110747806841 -371.5110437426078 371.8314251557446
3523 5 -0.00700436083091409 -0.002146178301113595 0.03533060270956069 1.147576790540862 -40.74313639382201 -21.09089378045229 273.4869580716031 277.3083936683539
3524 5 -0.007878033004826691 -0.002283477860558449 0.03440438122446475 1.165056105654643 -128.7870275889549 -50.0323023584368 194.9836970828951 238.9727429699849
3525 5 -0.001579769647111746 0.001957347172422792 0.05309348868628241 1.353607620990395 -0.7856115218957425 84.623229342863 -211.4050268312401 227.7142804028669
3526 5 -0.005497990457190301 -0.003898969033227891 0.05188022137448164 1.303572794027784 1.095162566874129 -2.837511022318365 -686.7116654860625 686.7184010673454
3527 5 -0.00653139078331295 -0.001429040533863018 0.03492622148509594 1.163672809916117 -24.56344060886657 1.666589796320173 285.0776627718258 286.1388018908679
3528 5 -0.008324252339355229 -0.002196860405709615 0.03598856595865865 1.113795864329666 -65.4537814064827 -13.70373798070966 321.2988154840568 328.1842756234819
3529 5 -0.002893157178775621 -0.003321048068710497 0.05359435059483393 1.357338599972883 -22.62349424919061 -41.0479889321682 -210.7492642750334 215.8981525624674
3530 5 -0.007037722735249751 -0.003042272608608241 0.05359561877553526 1.34837540775101 -80.87581084994987 -62.6345968780282 -280.0403152537955 298.1385041791065
3531 5 -0.002290804989515922 0.002868364542572153 0.03590667687338844 1.129835417291785 28.20148139582415 39.2806984854196 338.0084986265678 341.4499113635965
3532 5 -0.005946154164974392 -0.001778609143757361 0.05354741989610757 1.353582600929124 -13.02139044544418 -3.040718373668291 -340.9895971174082 341.251678266427
3533 5 -0.005940966216577221 -0.001759110722979798 0.03449717955900637 1.178199323050992 -6.712190264180017 -7.74432971536443 286.1716874108043 286.3551340842869
3534 5 -0.008858250684918485 0.0009291800656915127 0.05196021974212577 1.290824392802555 -79.8469395786733 3.253972879427992 -700.4790093222409 705.0226695650633
3535 5 -0.002895142210932885 -0.003322196826993207 0.03440438122446486 1.170489591626347 21.42823704016543 -87.29716271022959 177.3134686555375 198.7964540090293
3536 5 -0.004669057721572202 -0.003934242431473282 0.0344807542365103 1.16385844430568 -5.743670299481045 -117.754249374534 200.2479452285066 232.3753269228643
3537 5 -0.006943425115679977 -0.003670269451198698 0.03470836048635171 1.154968070206119 -78.00856650687612 -79.23671014591471 169.2745325548286 202.5281710154445
3538 5 -0.00289514221093287 0.003322196826993198 0.05359561877553515 1.357361641349809 -28.73755155747484 47.82980378800498 -222.1736115457598 229.0734612896128
3539 5 -0.002605196320741922 -0.003133287788940811 0.03934486892342236 1.008988578077114 -7.521141055634628 -6.12715569329632 69.82558610160648 70.49625574526284
3540 5 -0.007055261290500824 -0.0001818559464914394 0.03489600183066818 1.164730010082436 -17.39211388356187 -18.87699535639389 282.7713077187508 283.93386386269
3541 5 -0.00371330630160171 -0.003720417284753207 0.03991285301244871 1.003088393784011 -20.92772122474107 8.144446032380538 28.51965743325075 36.29975725738137
3542 5 -0.002954554304847097 -0.003378570234406858 0.0399589102985155 1.003284249909887 4.789048710856556 16.16917810859472 28.80132769937224 33.37504734841648
3543 5 -0.00899789002267681 0.0004401423625758883 0.04183812999239065 1.000000002427841 7.17218803858812e-06 -1.442326621466572e-05 -2.342967303469136e-05 2.843273585275479e-05
3544 5 -0.007037722735249751 -0.003042272608608241 0.03440438122446475 1.167162873269931 -65.00127895309967 -106.3801817124272 191.1927919844611 228.2467809926816
3545 5 -0.002706606969264377 -0.003130612586768433 0.04860890263624879 1.087649975372694 -71.29527163017421 -35.21019233196485 -495.5823637854099 501.920962598703
3546 5 -0.00695690544750574 -0.003665795150036701 0.05307412539121022 1.333794301127617 -49.63840322631818 -104.5332874569281 -299.6618912340263 321.2295570450589
3547 5 -0.008617291062098907 0.0006970343708920329 0.03433748432931705 1.166871582810904 -128.4120363170291 40.4343306999919 177.6456587650467 222.8958641345992
3548 5 -0.001891095789078991 0.002428254592017129 0.05349486680350177 1.358415284773007 0.8328072795472977 24.56368021370955 -242.4055364426789 243.6483368538952
3549 5 -0.007052085278129735 -0.003363835701990099 0.05181097860608264 1.292012003644067 -101.3349017700939 33.10447658405805 -710.4502694548927 718.4039630007539
3550 5 -0.007618270818388265 0.002955232948758368 0.05354785046932543 1.343876720283649 -85.23365914569634 61.06141337967217 -282.5761201641259 301.4009564389245
3551 5 -0.001158163286031112 0.0008227092325280048 0.05359862188278065 1.362689007217146 -16.22151300060835 8.273946114336441 -198.9610545958966 199.7926347847768
3552 5 -0.001147598681415542 0.0007903325768276286 0.0343471015018275 1.172573572462026 72.40535422333373 56.79939497838683 152.79456348834 178.3672762075757
3553 5 -0.001147159641614294 -0.0007889113279487444 0.03434571759954713 1.173902822670255 72.67857439922658 -45.35389632911595 145.9306310864752 169.2184983334654
3554 5 -0.006906778462006682 0.0005550156026333746 0.03446695990457861 1.179153699695518 -10.56066108625429 2.280556012388517 282.6583344803468 282.8647424998526
3555 5 -0.006707242790327616 -0.003535364656676532 0.03589357353087706 1.121689285877749 -26.10175559138436 -66.03048398751261 318.1778552006194 326.0037944574324
3556 5 -0.002904469559175175 0.003327522768625313 0.03435423968919044 1.171742727844714 29.32861994394111 84.78017008987445 156.6590720870529 180.5267571731698
3557 5 -0.007665693081254544 0.00291501256895333 0.03437362254997259 1.167851819785725 -104.622075663647 55.90731366548341 184.803559860482 219.5990942025203
3558 5 -0.006321728036528135 -0.003948594353663944 0.05347850661567496 1.343989740358763 -73.77079729784394 -71.73149334093445 -321.5516337908235 337.6136710271489
3559 5 -0.001124495421716112 -0.0008453341884282783 0.03617939729835445 1.121894763310298 25.18983667231192 -18.23358568250338 305.5752220272994 307.1533946344274
3560 5 -0.001147598681415545 -0.0007903325768276377 0.05365289849817251 1.363311945668215 -16.24280771430981 -23.88552183756887 -170.1962660793029 172.6299972288533
3561 5 -0.001867639156434037 -0.002397140933200791 0.0536168484959598 1.360706660219633 7.454297277168072 -17.49171204098219 -190.603206548349 191.5492335785597
3562 5 -0.005941673396879071 -0.002430224924015408 0.03449717955900637 1.174819123232139 -44.24495524012143 -98.43634680590174 276.3355119974279 296.6625113282309
3563 5 -0.003160327179090935 0.0009498170026559524 0.03453486760678289 1.177966671648633 6.182930840807757 5.73635972093127 276.8918306421899 277.0202525683155
3564 5 -0.00868372697153246 -0.001529738373676594 0.03626835106340398 1.10024679629594 -59.48321038507915 -18.41485192381168 305.8456815781747 312.1200730954511
3565 5 -0.009019810178080413 0.001155105835068291 0.03472430452724213 1.151670180306942 -118.7423388406398 26.687734480853 165.9920427687092 205.8284151121871
3566 5 -0.004652355881328172 0.003932612845410662 0.03440438122446475 1.170078641363268 33.86776573404294 91.0266891779593 191.1132461112807 214.3762032915681
3567 5 -0.00766735778906714 -0.002913516654990172 0.05359561877553526 1.345027545157764 -89.73001349965732 -60.04051018794728 -272.8291514267328 293.4145259773428
3568 5 -0.005230659360698527 -0.0002023517408431513 0.05355053770740975 1.355115153704837 -10.24585686285439 1.786496860636225 -319.0657147786219 319.2351789842092
3569 5 -0.005946861345276242 -0.002449723344792971 0.05354741989610757 1.352738867741242 -27.53639608153589 -38.13451824968965 -335.6622875010706 338.9419800522599
3570 5 -0.004668932555771804 3.032312010600092e-05 0.05355053770740975 1.35550274760672 -10.74827958189279 1.58339209648461 -319.3465699847969 319.5313199133327
3571 5 -0.006298655824840054 0.003956137848353375 0.03449375576167547 1.165594499376874 -45.32156897668282 109.5701306764383 230.5970127089551 259.2964334911955
3572 5 -0.00766735778906714 -0.002913516654990172 0.03440438122446475 1.162075557224029 -106.2882051292464 -95.25372631570247 165.2431025620787 218.3477452848212
3573 5 -0.007445376025311238 0.001016015971427583 0.05356331601850908 1.349914718572514 -88.94092456621237 32.68102775345822 -357.0626408394153 369.4215303970956
3574 5 -0.001866224091024877 0.00239519033197559 0.03435265497956246 1.171769973235007 90.6042924792785 36.45939820182937 143.1214317678694 173.269067534269
3575 5 -0.004637542085783557 0.003930956556880852 0.05360388145307511 1.353579985529576 -6.603767418130609 49.78338038680115 -220.66047214838 226.3029798204073
3576 5 -0.007400151793213655 0.001018155548870636 0.03446695990457861 1.17501375710962 -118.4228527123797 46.98269492359182 272.2004655108476 300.5402453767937
3577 5 -0.001867117894022683 -0.002396423419730444 0.03433329454550378 1.173828593371425 84.89508761261013 -38.2333527089834 139.5884351720514 167.7912285964445
3578 5 -0.004634146002861545 -0.00393054881677208 0.05359704344313426 1.353378759888782 -6.369910851142794 -50.8145046174948 -240.4737456226071 245.8664515088206
3579 5 -0.008811474025104592 -0.00169697756928559 0.05359561877553485 1.340565091945018 -139.6767154414461 -41.59008950473255 -286.0421157917822 321.0286784512588
3580 5 -0.008811254501238402 0.001697470310001057 0.03438682019792508 1.159332307636074 -122.7358137841129 31.0053732128337 167.9209517392454 210.2923184196929
3581 5 -0.007430541520736883 -0.001081111333950571 0.03442904192608957 1.174443963202657 -133.1997373079026 -54.46514865380898 275.9418698416167 311.2114039820255
3582 5 -0.008944531897164886 0.0001188939338962851 0.03433748432931705 1.163965576499961 -134.7782664642114 24.96695515318733 170.5974319939276 218.8424404991911
3583 5 -0.008811336330439228 0.001697286711421141 0.05360326965076373 1.340903774224376 -131.4993986205625 28.97223968980224 -264.930537011767 297.1862580126412
3584 5 -0.006294294822664823 0.003957502057337417 0.05366933475964727 1.351208455584704 -83.5537179529932 105.2431391863933 -222.487253602462 259.9190646050058
3585 5 -0.006937168189529906 -0.0008557717105362917 0.03442904192608957 1.179115520616098 -12.94474320115479 -4.644559649820725 304.4906365128172 304.8010597666372
3586 5 -0.008784288083971366 -0.001753713241010453 0.03436927933644043 1.158331303104322 -85.29689278427587 -66.76098209728555 186.0974046233875 215.3249466662122
3587 5 -0.006308247704702372 -0.00395306865482594 0.03430397926188696 1.164152444920665 -54.06985151138016 -121.3225327512392 142.9270318335571 195.1175087591805
3588 5 -0.002005929055613043 -0.001136571857928709 0.03795809021252927 1.048142500028268 -28.80758739676814 -7.712422019791243 267.1943910694129 268.8534938660611
3589 5 -0.002835633204637404 -0.001044771446464508 0.03743842223040941 1.072175901401936 23.80980510870823 10.00168331570464 301.0694276695339 302.1750167795528
3590 5 -0.002724839911102525 0.002092126046877011 0.04911726838046213 1.131572028045097 -52.59834979468189 9.30380741575436 -613.3814646345241 615.7028247383206
3591 5 -0.003115996126834592 0.001394112919137601 0.04861168615067488 1.097067109297295 -16.15297774218733 38.4751880911886 -461.793897107567 463.6753845034111
3592 5 -0.001754999000557449 -0.002124638216185048 0.0371080421304622 1.082275860231652 12.4212054837625 -23.14795285761706 273.8729155854048 275.1299474038015
3593 5 -0.002583903465828332 -0.002030872119481349 0.03708476656463274 1.086233585826394 28.99756177290801 -20.88823206995897 276.011395476257 278.3154096713526
3594 5 -0.00531680804987955 0.003231139188207249 0.03984680800246004 1.00460146917267 -18.37916187230698 5.666713096618245 32.40293266576345 37.68096699648044
3595 5 -0.004805638733637817 0.002588236491031126 0.04010619511471777 1.00460146917267 -13.6452515241874 -0.2861547690490764 39.17766594589351 41.48691700618656
3596 5 -0.008127947030006983 -0.0009696577590165047 0.05041278667865391 1.196474913909353 -27.02817289353708 21.07321447492086 -725.867924000199 726.676575644645
3597 5 -0.008773664758086473 -0.0009165235168350787 0.04989336791253442 1.155110996429916 -30.37564541518644 19.24284880157559 -652.1258462754076 653.116441719856
3598 5 -0.001690306801184709 -0.0003552059609423308 0.03783815550364557 1.05172697165331 25.61313365379473 38.359354711626 260.8262220352818 264.8731598532732
3599 5 -0.00115713078983512 -0.0009369541915030758 0.03758007211509772 1.062756049552194 48.97953947635673 22.80897545107523 250.8434370674706 256.5963261004838
3600 5 -0.004632059775656125 -0.0009596601877462028 0.04657483284517636 1.012027155903705 -3.103604239016941 -23.4471297934303 -58.03818789108395 62.67241425462382
3601 5 -0.003947738752741936 -0.0008444252184426346 0.04614470171587133 1.007513820329585 1.583024419982178 -23.15023737490688 -60.02576654125075 64.35473646666213
3602 5 -0.00387962410545254 7.515592517449781e-05 0.03602284573692598 1.13092614439728 -2.242076947045291 -3.862509707102501 250.8732577063707 250.9130074796462
3603 5 -0.003601580144553623 0.0008004086861502571 0.03583098890953833 1.137597617362467 -5.129617740496379 -7.908284696981497 256.5957589149077 256.7688404735465
3604 5 -0.0047957015290953 0.001288370048283634 0.03471244160394812 1.172403036076616 -0.1581506153751843 1.429668272213704 283.1594340809198 283.1630874107932
3605 5 -0.004235316337634433 0.001514491977287306 0.03524730921073101 1.155925785248666 -6.574907133467111 -2.179961837452342 268.6252193131591 268.7145141008749
3606 5 -0.001794588653091217 -0.002175004032704307 0.0399698241662916 1.001864563644257 -4.21751563420576 -3.920127626082267 14.15628300121788 15.28251246163777
3607 5 -0.002065963699436031 -0.001455452990882272 0.04008922845778051 1.002007008172608 -3.968541632985114 -5.441310164708723 14.16186504154907 15.68169635136289
3608 5 -0.008774925406717402 -0.001156934859064808 0.04185610095762264 1.000000003822643 -1.166804470033582e-05 1.884921089071131e-05 -1.09198236206602e-05 2.471191142420742e-05
3609 5 -0.008071747399603233 -0.001280669940839828 0.04164929178332625 1.000000003822643 6.621912313095623e-06 1.041979877041755e-05 -1.092814138347446e-05 1.648775919267169e-05
3610 5 -0.005746483096377192 -0.00355368848495779 0.03528191305740363 1.145110075100079 4.057115053852029 -32.69331572238332 222.6160816060149 225.040513830509
3611 5 -0.005398838977705373 -0.003108749904125744 0.03497793379551667 1.157473918760844 -56.04474026132621 -69.88157545607891 254.1876274299686 269.5102918956152
3612 5 -0.005334847692596144 0.002930956459818253 0.05299900518157559 1.3391128769703 -47.87062123461622 -56.36388042338566 -357.630340605558 365.1957610863211
3613 5 -0.005668538929230444 0.003380328443161766 0.05266833994122286 1.33114390987938 -47.86278996382551 -54.86286452731276 -351.7671024866517 359.222598062981
3614 5 -0.0056183038370897 0.003670189032393871 0.03710921287272359 1.077415436282481 10.868691751493 53.92996165734839 284.2417317525424 289.5167202329363
3615 5 -0.006274006495801619 0.003462193739377466 0.03709479712862045 1.076565218382697 -56.92852493795442 23.77169219049189 290.7722711238804 297.2447879370641
3616 5 -0.008803639880606673 -0.001212060754867921 0.03548248759174009 1.127075970532052 -89.00810648521629 46.62016223959756 253.4350044235333 272.6264550891684
3617 5 -0.008921786977406039 -0.0005788524257859663 0.03545069258461671 1.128371077464928 -115.5431855675514 -86.16526394553624 266.6837905246189 303.1417565603267
3618 6 -0.003910807325978588 -0.0004352096529457259 0.02440696469187045 1.199319762292365 -0.2176507654426375 -0.03308523711800539 95.6994135988455 95.69966682100575
3619 6 -0.005213767692594899 -0.001176746106507706 0.02439363684120256 1.199325847381801 -0.1338559858126106 0.1021213154914963 95.69697384121667 95.69712194499124
3620 6 -0.005897110512608496 -0.0007828387912373483 0.02446245718515427 1.199290247611005 -0.02355450833974665 0.03810905124480075 95.69533705291903 95.69534753992185
3621 6 -0.004436282551345452 -0.001052234627508525 0.02438318896024728 1.199331584931113 -0.09189696320297019 0.1090657978030512 95.69723590848898 95.69734218318233
3622 6 -0.005915028005258324 0.0002895647635575742 0.02422439875291615 1.199412499321358 0.06188092339027518 -0.1951926719136051 95.70986146550962 95.71008050970855
3623 6 -0.005295935904871964 0.001117526693416222 0.03017575041688436 1.19634491601678 -2.283486474493131 2.988907650109421 94.33745484573259 94.41241055174216
3624 6 -0.003898196155963385 0.0003843757495967994 0.02438244682927417 1.199332569278821 -0.2167201353381363 -0.08862481063468169 95.70159441995617 95.70188084095268
3625 6 -0.005937063502689333 0.000647716419457554 0.0301050972846148 1.196366126187887 -7.537736678122797 -0.4769561502867893 94.37344285990574 94.67519040714895
3626 6 -0.006169526255437888 -0.0001097189629144594 0.03020490442207951 1.196309710900489 -6.823308316535908 2.088394378943487 94.43502062102949 94.70423457881267
3627 6 -0.005883524645750027 -0.0008009583158224592 0.03018766540809766 1.19632434681835 -4.590038203998617 -3.726344121223671 94.17558849270888 94.36098536562655
3628 6 -0.003905011840953538 0.0003999997663543838 0.01228344005152546 1.205344678311918 -0.2528889331369567 0.1471743532158169 90.73831709492985 90.73878885197216
3629 6 -0.005428144638632639 -0.001737002804186502 0.01168300245377399 1.205634515620651 -0.2232766857190015 0.1961002215139474 90.71973735741955 90.72022406263362
3630 6 -0.00612790004250922 -0.001383195685801267 0.01168412558893117 1.205633377745106 0.03782599014596304 0.07501097549121372 90.72961460002445 90.72965349278562
3631 6 -0.005159594233153451 -0.001173281806050923 0.0122862671854821 1.205343387771343 -0.1951012446316779 0.2251053147236021 90.73737212466807 90.7378610999227
3632 6 -0.003905798318268421 -0.0004114825851892954 0.01228147092286156 1.205346192113182 -0.2527500606436706 0.115277498343653 90.7386330494168 90.73905828898323
3633 6 -0.005859349637030032 -0.0008194746876656876 0.01228739032063927 1.205342249895798 0.04271494799233312 0.1041411403702015 90.73660620981902 90.73667602694989
3634 6 -0.004461308650728544 0.001006304151179978 0.02425075094386937 1.199399981807287 -0.08753404872664847 -0.240199295028408 95.70998323751836 95.7103246741806
3635 6 -0.005269322454643021 0.001134610824433195 0.02404765825518281 1.199503688981872 -0.02255655222641146 -0.2466433880045311 95.71831428670748 95.71863471470853
3636 6 -0.006176083303786218 -9.045221950704387e-05 0.01228632305460738 1.205342363214802 0.02939552867472098 0.1337625222674276 90.73650754833906 90.73661090529698
3637 6 -0.004400546476827129 -0.001022759492818851 0.01228158350475658 1.205346162128979 -0.1512152015792186 0.2347152850698018 90.73725236444523 90.73768194058769
3638 6 -0.003885473674138177 -0.0004332207378853742 0.03031302767190261 1.196289890509814 0.9225758272047879 -1.628768805341092 94.08493204327522 94.10355185414582
3639 6 -0.006778837744057489 7.264814669381646e-05 0.011667069320072 1.205640837972326 0.01613677218144269 0.1419351642324878 90.74347110382278 90.74358354151869
3640 6 -0.005524869449258195 -0.001718897933119914 0.02366607560987249 1.199697576229862 -0.1754321176416379 0.06738550767490691 95.67904231134983 95.67922687214616
3641 6 -0.003428497883779661 -0.0008154563677735317 0.01165497464490576 1.205648516046979 -0.1251961240078692 -0.07195121796399571 90.53370408865645 90.53381924485259
3642 6 -0.006208212269271792 -0.001324990617849557 0.02373489595382421 1.199661976459066 -0.04066724061527451 -0.01231380514646866 95.67647934057617 95.67648877577999
3643 6 -0.003428036275090879 -0.0008112603717666335 0.02963839782857515 1.196628775285845 -0.09105864895226574 -0.1777108999465862 95.86168579376438 95.86189376422686
3644 6 -0.003923246042338369 -0.001426733275403087 0.01165508722680078 1.205648486062777 0.06060958665966581 0.152581553613537 90.53517450807199 90.53532337082332
3645 6 -0.003444388787808889 -0.0008515229766315789 0.02363369015074037 1.199715080840382 -0.15134220697316 -0.1275232110506448 95.62422889419777 95.62443368848203
3646 6 -0.006355284720248116 0.00110855712798109 0.03076222219596402 1.196004693084407 -9.040302402853317 5.395690160931914 101.4399594022022 101.9848317318229
3647 6 -0.005198307307113177 -0.001179873347437242 0.03007254477212686 1.196393189401141 -5.174360057825255 -3.3564305744106 94.21032019481174 94.4119910785585
3648 6 -0.003407464765719103 -0.0004067475198091053 0.01513413803285786 1.203960383935103 0.03107088209624708 0.1892793779737185 91.97117529357115 91.97137531299309
3649 6 -0.003969864013175754 -0.001468547951194378 0.0236099144191172 1.199726903479129 0.01386065255800088 0.06675181562311622 95.62574248260363 95.62576678527499
3650 6 -0.003423431590765262 0.0007995135762071247 0.01165286870472057 1.205649232523099 -0.2985563847149098 0.07863986692919092 90.84453154596994 90.84505617781439
3651 6 -0.004403625558335716 -0.00104901979614177 0.03019467824192118 1.196344463336219 0.2558250017856983 -2.427374700740788 94.08147161387836 94.11312817775389
3652 6 -0.004475029434786127 0.001003177257917615 0.03052878634835969 1.196175246393055 -0.9216499030966916 2.940100932303015 94.28323542532017 94.3335683322875
3653 6 -0.005714157122430746 0.001578367401939758 0.03083287532823357 1.195983482913301 -8.947431834011406 5.488268484730614 101.4700832734207 102.0115455568618
3654 6 -0.004033140197422892 -0.0004070676980012161 0.01451470937966274 1.204262892832168 -0.1050944875130354 0.06712757952164228 91.72103586952773 91.72112064264385
3655 6 -0.004422798563354481 0.001015735353361069 0.01238934488800361 1.205292492810118 -0.2380870560397744 0.1297994098693979 90.73440899628017 90.73481420732234
3656 6 -0.003946188159288418 -0.001427059430023029 0.02952004839859371 1.196683348112249 -1.692519572175029 -2.080239078848303 95.85757571171523 95.89508245188895
3657 6 -0.003885473674137537 0.0003791831025789615 0.03031302767190261 1.196291083471209 0.8695926030890346 1.004941981990939 94.17545091096608 94.18482708996336
3658 6 -0.00340927963595426 0.0004035244185167627 0.01512958517974847 1.203962470866486 0.03217134076884713 -0.122770502421693 91.97133471040283 91.97142227890346
3659 6 -0.003555634129112323 -0.0008107989323708896 0.01588414973000039 1.20359256857058 -0.04808214399823521 -0.08864385942856942 92.44829924948078 92.4483542511598
3660 6 -0.004031120093420863 -0.0004091080456076052 0.01650766042144642 1.203285564421543 -0.07134085912977621 0.009358994500664674 92.5692761797286 92.56930414315444
3661 6 -0.004032180656547608 0.0004002430550626233 0.0165057207265319 1.203286520669622 -0.07127230078327475 -0.009774258667821863 92.56934252808857 92.56937048159926
3662 6 -0.004034955067658049 0.0004032042403246519 0.01451015652655336 1.204264979763551 -0.1049975560887565 -0.005090826087472813 91.72087965596239 91.72093989524328
3663 6 -0.006507583343274987 0.0005030472713686622 0.02495010917627011 1.199041411226969 -0.1865317644365906 -0.1104467415704993 95.9511546184707 95.951399495784
3664 6 -0.005939780885618485 0.0007152654277798184 0.02744098227080018 1.197755974087021 -0.4674085390324073 0.4897631358810434 96.63833159178044 96.64070297506397
3665 6 -0.005890605574782706 -0.0007766720651619163 0.02742352266356318 1.197764724582626 -1.019222374979439 0.0802082541874397 96.63529822574934 96.6407062825661
3666 6 -0.005961905814934321 0.0006811852286111216 0.01228452506310012 1.205342312330963 0.07347282448725433 0.2860867169997755 90.73526636290065 90.73574712213545
3667 6 -0.005882480615664976 -0.0007802313135641505 0.01861622398033118 1.202241734491958 0.04645697739824244 0.1188724276754521 93.39476758460839 93.39485478915756
3668 6 -0.006179808674218858 -4.048574714097179e-05 0.02743168731876335 1.197759946147181 -0.7863453800861405 -0.5002710149918598 96.63613237585187 96.64062650204825
3669 6 -0.005199484661353159 -0.001160177600456771 0.02741402035121333 1.197771527803503 -0.1855742271189998 -0.3848808674802266 96.64098071118337 96.64192529071035
3670 6 -0.006564660255205589 0.000844285594811982 0.01166527132856473 1.205640787088487 0.05594970474128896 0.2859156009833183 90.74046938933623 90.7409370851845
3671 6 -0.004003901008443252 -0.0003848148796598174 0.009509825152273211 1.206674360774389 -0.2010744981553432 0.3654844214022281 89.44310549853576 89.44407823348784
3672 6 -0.003373778121878647 -0.000379854392894462 0.008858925576216557 1.206985778927405 -0.5655104876091858 0.07350949836231641 90.13589929171745 90.1377032483332
3673 6 -0.006785180335663294 0.0001021576907657921 0.02953663840826137 1.196637740606028 -1.310054870438551 -0.2664937860143444 101.6863885346335 101.6951762667138
3674 6 -0.006552717582914739 0.0008595930731378055 0.02943683127079667 1.196694155893426 -1.222662519242927 -0.001884514342138734 101.7142819309504 101.7216302263988
3675 6 -0.003558509562474225 0.0008088241066252069 0.01587765718197648 1.203595611750042 -0.0396246920855516 0.1259420352721561 92.39043201842252 92.39052635450901
3676 6 -0.004074900217837376 -0.001426790279717994 0.01587878048789319 1.203595265692653 0.08178444139469428 0.1090732996585779 92.44849485247771 92.44859537152607
3677 6 -0.004418631696921852 -0.001021330014544304 0.02739880163462878 1.197780880875505 -0.3854363191509715 -0.4218987342880683 96.64043393456213 96.64212348018116
3678 6 -0.006202945256846832 -0.001321964122381329 0.029509988796063 1.196659301221365 -2.708092297603244 0.3790642138794831 99.88843788992459 99.92585990453074
3679 6 -0.006270496744911534 0.001243142166731914 0.02683814834888257 1.198066752506913 -0.374302217782072 -0.008120885217370253 97.23607952651173 97.23680028561782
3680 6 -0.003897076871970691 -0.0004063575897865422 0.01862679672425221 1.202236622837113 -0.1026423610096814 0.1199714573478949 93.39399663091282 93.39413009017112
3681 6 -0.003904257680386272 -0.0004061984092901681 0.0273960864059152 1.197784144207389 -0.2106497638721257 -0.2168129351915026 96.64191752814969 96.64239030927149
3682 6 -0.005182943580121866 -0.001162538328215577 0.01863147351886543 1.202234376277606 -0.01887894204522439 0.155192432220281 93.39389053119359 93.39402138069676
3683 6 -0.003883779196791129 0.0003664145803487707 0.02138002112155881 1.200858292798114 -0.2151852412399924 0.1447272526875777 94.48827670235818 94.48863256946372
3684 6 -0.003901409159172151 -0.0004244179681025145 0.02138002112155881 1.20085849066411 -0.2110110239694825 -0.03464895422897924 94.48300501734504 94.48324699813143
3685 6 -0.003941218313166205 0.00141524916321381 0.01175877354119872 1.205597047021298 -0.2996222300856892 0.0799403417982458 90.84057273054898 90.84110202960534
3686 6 -0.003994013512214553 0.0003985775515158705 0.007450942123998591 1.207650916642394 -0.9779578859890603 -1.658954489904153 87.96692274579583 87.98799934645152
3687 6 -0.004550386182145916 -0.00102509939295471 0.01650229117933922 1.203288261543616 0.0005355853989333221 0.1006979899684028 92.54987532181499 92.54993010508184
3688 6 -0.004403173402400753 -0.001019942926088047 0.01863309049147124 1.202233669309189 -0.08335164455198338 0.1427668377478611 93.39372492544696 93.39387124065831
3689 6 -0.006468351470812282 -0.001004642498292761 0.02685402934464757 1.198057817671307 -0.3261851690740165 0.06231016658590995 97.45255695615957 97.45312276481913
3690 6 -0.006757554570248432 -0.0002684561802718165 0.02686219399984774 1.198053039235862 -0.2876693203639372 -0.03606602379752716 97.45127466056883 97.45170592332171
3691 6 -0.005167127408492092 -0.001804141039136796 0.03073579353964916 1.196037771298715 -3.06075207255533 -7.724482275520464 99.23844716737575 99.5856677733624
3692 6 -0.004424987121662463 -0.001041133924039592 0.02136390413532113 1.200865924048764 -0.2062497265736959 -0.02897237474334884 94.48376478125539 94.48399433548417
3693 6 -0.003423075257038314 0.0007904271888313752 0.0236220012333142 1.199721954610902 -0.2256662483746064 -0.1013442082172613 95.74817713040113 95.74849669680911
3694 6 -0.006172479053297032 -3.60036091114709e-05 0.0186018797438857 1.202248661587816 0.07904118752671628 0.03623144347165837 93.39571302257471 93.39575349672999
3695 6 -0.005200932661534765 0.001774295119377813 0.02477861620560946 1.199130346318081 0.02907153374193547 0.003965645900807949 95.93609529514818 95.93609978188698
3696 6 -0.003992505242601064 -0.000412055906791233 0.007454723616292716 1.207647115044824 -0.9349708655116588 0.8533118075228043 87.70942003350476 87.71855376243944
3697 6 -0.005073984760265561 -0.001775351538792227 0.01924550292715334 1.20192877916657 0.09250297908533726 -0.02438199927339494 93.61853386752522 93.61858274289348
3698 6 -0.003273405777897354 -0.0004039784584557028 0.01924873317969679 1.201926737124484 0.1440750352721573 0.2156149357642836 93.67636542606076 93.67672436018023
3699 6 -0.004549617052002169 -0.001022573771820145 0.01451919616590763 1.204261015495365 -0.008613855433663772 0.205762463645404 91.74737913634091 91.74761027284272
3700 6 -0.004392918857620288 0.001645988446124596 0.024981708894296 1.199026639143496 -0.1732613178889943 0.02643823057415855 95.93002072005795 95.93018082863735
3701 6 -0.005246481156997143 0.001765675417940086 0.02951933256151239 1.196672759241214 -3.755909268687544 0.7802896012284273 96.84082978613064 96.91677883608558
3702 6 -0.006502444558421545 0.0005025450930823839 0.02342488416580808 1.199820902237634 -0.1350980273146773 -0.1298364326840068 95.50009634415285 95.50028016042002
3703 6 -0.00551772791820998 -0.001700879153996112 0.0293948681600922 1.196728143804155 -1.304244817843208 -0.3621942026393777 99.98565952762878 99.99482161772279
3704 6 -0.003522269852265157 -0.0007842859309697678 0.00811270706851068 1.207340517724204 -0.6922688494567875 -0.3088608831175967 89.44952132515358 89.45273330929668
3705 6 -0.006176265586610484 -3.408728210652719e-05 0.02138950634004382 1.200852769978347 0.03585826025907716 -0.08956355233182078 94.481317537647 94.48136679311122
3706 6 -0.003275220648132582 -0.0004061103605934043 0.02075328603280618 1.201173793435188 0.1462837725885799 0.1101989387237573 94.05803726140287 94.05821557001637
3707 6 -0.003257590685751559 0.0003847221878578809 0.02075328603280618 1.201173595569193 0.1462637147518706 -0.02660271448674961 94.0580217679645 94.05813925270665
3708 6 -0.00429421458254445 -0.001632756136664697 0.01924711989975916 1.201928072198153 -0.1259465074740666 -0.06354386895484657 93.61447501372892 93.61458130249851
3709 6 -0.003275120898925215 -0.000406051439234996 0.02676044559595998 1.198112430403724 0.04213350641097757 -0.1115550997175718 96.34557924403779 96.3456530396769
3710 6 -0.006467445404066505 -0.001001445913558199 0.01921901389873277 1.201941618487292 -0.1285091453772943 0.1224062367209355 93.56808273155123 93.56825104673941
3711 6 -0.005090916129369412 -0.001776244075145193 0.02679586260346975 1.198090476156491 -0.3076308902933502 -0.1896481988800495 96.93830929826824 96.93898293674593
3712 6 -0.005053361126198221 0.001294848823035972 0.0053262861402406 1.208618908646815 -1.902075576911107 -4.733402052989688 79.05175666584245 79.21618028187862
3713 6 -0.005896130664190246 -0.0007820183094012878 0.02140224673628498 1.200846213053727 -0.006413165476587615 0.03048582685375573 94.48427891222308 94.4842840480738
3714 6 -0.003284618814939018 -0.0004169020454366157 0.02528022960311783 1.198873417710055 0.0349563124964317 0.07038459996206094 95.97302613292726 95.97305830829417
3715 6 -0.005210161423315813 -0.001177533978181101 0.02134631639680863 1.200874401202364 0.0277040586515143 0.0107775542109499 94.48596804239679 94.48597271859653
3716 6 -0.004313510884839925 -0.00163801865843797 0.02072926199941183 1.201185515421436 -0.2205761979546336 -0.09632067104340201 94.42550147176928 94.42580822913764
3717 6 -0.004443207709023432 -0.001638244940975138 0.01513325557699554 1.203961203720373 -0.09959998543982006 -0.03900824411609958 92.06545940950646 92.06552154896907
3718 6 -0.004310063164938104 -0.001637396489232726 0.0267806438868852 1.198099829228493 -0.3274003828316313 -0.1929997673087142 96.93932584447272 96.9400708432881
3719 6 -0.005108147431032641 -0.00177465194374219 0.02528438481466156 1.198870164956144 0.05437664209241534 -0.140045022353168 95.97544083627363 95.97555841538278
3720 6 -0.003986187751803473 0.001412355590414554 0.02349030534790941 1.199789367139368 -0.09874922771433765 -0.2431949752632614 95.75170836365078 95.75206812264473
3721 6 -0.004425574686911305 0.00165132598244148 0.02987236849298772 1.196503089617489 -2.293081929505262 0.5865037567222546 96.935700960799 96.96459318820206
3722 6 -0.003904257680386174 0.0004062054311739012 0.0273960864059152 1.197784631755278 -0.2106772974471406 -0.007625684635886325 96.64205621361685 96.64228614985578
3723 6 -0.004600837294151829 -0.001036833610854441 0.007272606662338034 1.207730444981134 -1.237499066326905 0.4628754729648708 87.69577649755412 87.70572885023873
3724 6 -0.005051039941350378 0.001302640093133659 0.03268611782836578 1.195168224193056 -9.748440931667762 20.81851295958088 50.14481942470059 55.16289964806311
3725 6 -0.004557098229946007 0.001017177822996427 0.01658642400205987 1.203246528761398 -0.09174772570660716 0.01582877879244367 92.57182158564889 92.57186840439498
3726 6 -0.004330662289783193 -0.00165014046474301 0.02527393693370628 1.198875902505455 -0.1878319324692944 -0.1811053458097444 95.9781575345975 95.97851219787246
3727 6 -0.004372445659714631 -0.001673287487841324 0.03085792700944348 1.195989045233793 -2.08337790137205 -7.750540750954279 99.4207775678492 99.74418458039484
3728 6 -0.005244750797906209 -0.001161395190513839 0.009594020174917868 1.206633066010645 -0.001074719028653791 0.1203414649495016 89.39098699761972 89.39106800811714
3729 6 -0.0058745725442332 0.0009451544497752219 0.005296958307519814 1.208625460750542 2.466180970379156 -3.04951367731774 79.05919962051526 79.15641873457444
3730 6 -0.005859346552462748 0.0009610259275350662 0.03265739904424129 1.195095956721622 -38.89977861545799 9.005437598044409 49.66871034591119 63.72810580968134
3731 6 -0.004083427135872624 0.00142575887455901 0.01595836045750445 1.203555619841818 0.01621511857563923 0.04265658951754386 92.38712506211623 92.38713633270491
3732 6 -0.005909548798107952 0.0007252661685539485 0.0213082411916005 1.200893483110017 0.1196566105250535 0.1439594318576169 94.49154257403852 94.49172799797768
3733 6 -0.003982083549167799 -0.001387061581829213 0.008278061219965443 1.20725938278239 -0.6934946579352531 -0.3105541997150679 89.44351212145578 89.44673967994895
3734 6 -0.004907701976111401 -0.001417155476230183 0.005386811693320123 1.208595564657083 -0.8207675162932898 3.847841065770921 81.08901439931203 81.18440611616907
3735 6 -0.005253911114252728 0.001124622580923064 0.01213681348488465 1.205413265781138 -0.1728125380989733 0.1182322173060295 90.7431761405618 90.7434177178023
3736 6 -0.003426053536161501 0.0008086234667844736 0.02963229480111034 1.196633885084216 -0.004903133059459008 -0.2476992771589413 95.71335848391091 95.71367912290417
3737 6 -0.005098685186493275 -0.00177441871257948 0.02071167426089934 1.201193992575036 0.06632856833910963 -0.04488838616700867 94.4314993572402 94.43153332072208
3738 6 -0.005278095856604858 0.001145566932233851 0.0274501077499488 1.197753030469528 -0.9647702832791565 0.169965730184053 96.63474718558209 96.63971250821425
3739 6 -0.00675744384169856 -0.0002572182091055192 0.01920466966228729 1.201948545583149 -0.05156354390772893 -0.0786478888459876 93.57224795726093 93.57229521639726
3740 6 -0.00675871295804578 -0.0002393734059223046 0.0207436247142482 1.201177842457389 -0.04389332979874782 -0.1855834062553537 94.38043214043589 94.3806248063685
3741 6 -0.005328764012665589 -0.001165514089183501 0.01451194004618155 1.204264541590099 -0.08554155280467653 0.1879423892500857 91.72696723773709 91.72719966472226
3742 6 -0.005938452479161336 0.0007153598913404793 0.01858846576996288 1.202254281000181 0.2045124647649469 0.4112247642124107 93.39497865617186 93.39610789182676
3743 6 -0.005321731678663877 -0.001172306537960512 0.01650545804811285 1.203287121775743 0.142532766517928 0.1490153311726597 92.51112911739585 92.51135893355985
3744 6 -0.005222354669686851 -0.001781185258338495 0.01512599945726946 1.203964729815107 0.10443405638007 0.04107087607188439 92.06696940727723 92.06703779925536
3745 6 -0.00619124217963103 -0.001324700200315543 0.02816278731751594 1.197377511314924 -0.9070582568125169 -0.9858116605241961 98.08107803094143 98.09022605246101
3746 6 -0.003272007644923815 0.0004026833571059095 0.02525571174052153 1.19888622469651 0.03489532532840521 -0.1845158012521512 95.97405133502413 95.97423504994707
3747 6 -0.00444218207428849 -0.001607712165199319 0.00785284168085988 1.207459263245949 -0.6251508875173059 -0.2761938133363877 89.52668753764895 89.52929620028584
3748 6 -0.005500121266201481 -0.001708205735610397 0.02815328500516609 1.197384314535801 -1.109074656165173 -0.8758429606837326 98.08440182524727 98.09458205681544
3749 6 -0.006478578035625541 -0.0009873044332170651 0.02075636511048937 1.201171285532769 -0.1332493128163136 0.04759095034314016 94.37877283329581 94.37887889669371
3750 6 -0.0033746133380718 0.0004293831303456053 0.008863490730321466 1.206982064616994 -0.5463957561542192 0.6448223776149101 90.13562192127823 90.13958444189007
3751 6 -0.006463758438033861 -0.001016534720812596 0.02889433980692076 1.196986641643267 -2.001932078049889 0.2069251960278068 100.926889589229 100.9469543485008
3752 6 -0.006751961704820886 -0.0002832107511768689 0.0171074114078243 1.202989855078744 -0.05110479770126212 0.04859701441581701 92.80766590188311 92.80769269584131
3753 6 -0.003942410291626073 -0.001426391977020319 0.02814111305728874 1.197397597980818 -0.4407914487473394 -0.4158786573229079 96.53438506150148 96.53628722589836
3754 6 -0.005608811715897909 0.001673443671185947 0.02684727382803118 1.19806380888942 -0.5581526499306845 -0.124642561641867 97.2328689915893 97.23455086791097
3755 6 -0.004004736224636406 0.0004244226435802499 0.009514390306378118 1.206670646463978 -0.2011300735140975 0.3542394771029098 89.44222591876347 89.44315354579541
3756 6 -0.006277537659375332 -9.475303486481456e-05 0.009562385422695644 1.206647353983492 0.01993083471172916 -0.09828227203588273 89.37635517661474 89.37641143668478
3757 6 -0.006759991907162463 -0.0002836522605734749 0.02890375040513728 1.196979716945791 -1.62247327059879 -0.7315416276752473 100.9144577062464 100.930150831219
3758 6 -0.00326846891676598 0.00037430482371723 0.006835119132932926 1.207948497658266 -2.736611335378148 -0.7389586968676368 90.53912616212219 90.58348893566242
3759 6 -0.003275120898925116 0.0004063524012290733 0.02676044559595998 1.198112917951613 0.04213317665439439 -0.1129962263783895 96.3456184487444 96.34569392361439
3760 6 -0.005074441608244246 -0.001759210354607929 0.009108474750315978 1.206863349221846 0.1306699112370534 0.02094167629621772 89.18915237040891 89.18925055034113
3761 6 -0.003428036275090494 -0.0008112603717661837 0.02813839782857515 1.197400861312702 -0.2272956627416594 -0.1628970535271917 96.53353147411772 96.53393650749371
3762 6 -0.006776678748195783 0.0001443685779445234 0.02818036257093263 1.197365808182003 -1.67690999341201 0.6260806214572586 98.65212085295019 98.66835841776054
3763 6 -0.00653665095959541 0.0009001197528653135 0.02818965752296947 1.197361836121842 -1.862212810576483 0.0381649522733299 98.6436335463095 98.66121696155007
3764 6 -0.003426731410209708 -0.000813381568234805 0.01014807723005663 1.20637107274636 -0.04193482709683816 -0.1054212044095338 90.06946908789995 90.06954054471593
3765 6 -0.004541945880331192 0.0008272809467156759 0.004974742193770714 1.208770051152152 -7.137133602766019 -2.243897443246237 80.59318081995748 80.93969697545143
3766 6 -0.006780422935901817 4.375442534529443e-05 0.01020788004389948 1.206340216779189 -0.1783098380591515 0.1293048468023058 89.76174929654816 89.7620195345343
3767 6 -0.005435458277994279 0.001150050760008352 0.009516201352882631 1.206671750914564 0.3577712895107462 -0.3583777998738627 89.30370436281547 89.30514009766843
3768 6 -0.004886692673599592 -0.00140852191455487 0.03268245405641708 1.195089974801316 -17.46239634011715 -27.17727641283169 61.12161550593965 69.13314343507545
3769 6 -0.004138760434081809 -0.001171355079765572 0.005330727283467018 1.208628788867527 -5.927918076785654 1.787564398551202 81.01456461273115 81.25081709493412
3770 6 -0.00645107033872113 -0.001024512530216342 0.0171223553600187 1.202983131389708 -0.1182187765536187 0.2175893219921996 92.80382168938753 92.80415206739303
3771 6 -0.006477804679059559 -0.0009926485869142551 0.02540186958744125 1.198808709921041 -0.4531580010077054 0.06113714996160004 96.18467253933363 96.18575945234214
3772 6 -0.003278036275090242 -0.0004050584515340916 0.02888839782857515 1.19701490832543 -0.2860636596227695 -0.3116720792024502 96.22933512485999 96.23026504418931
3773 6 -0.003274888954388933 0.0004049602531197392 0.01313254047546881 1.204935003048818 0.01433126378792971 -0.02747761953291092 91.14651085152411 91.14651611999057
3774 6 -0.004422201142833593 0.001020586078067121 0.01862746970917839 1.202235946042384 -0.1511427656035131 -0.009688070441396451 93.39433622811741 93.39445902988543
3775 6 -0.00494601667283143 0.001758655612599288 0.03190187650482286 1.195445088232582 -7.173258957806317 4.659446158547794 99.02331170735332 99.39206378817077
3776 6 -0.003275675431703816 -0.00040652209842394 0.01313057134680492 1.204936516850081 0.01417046331477686 0.2867853806650756 91.14662535843892 91.1470776321886
3777 6 -0.003271840457466557 -0.0004064305438926243 0.01712807524169799 1.202979707719972 0.03892395687264583 0.08174304342854635 92.72807076958826 92.7281149687048
3778 6 -0.006305607774802019 -5.460993124177185e-05 0.01649595235888795 1.203291307093887 0.07499394423840244 0.2208715520759269 92.52978160604128 92.53007561001927
3779 6 -0.003272901020593302 0.0004029205567776041 0.01712613554678347 1.20298066396805 0.03954318974116693 -0.08057594452505448 92.72814447680354 92.72818791639165
3780 6 -0.003929540582001904 -0.001426320718152552 0.01018738160609106 1.206352112337967 0.04738967389792462 0.002354424432521852 90.06811344040739 90.06812593830628
3781 6 -0.003898891742205436 0.0004039143485388446 0.0186313495773616 1.202234242809959 -0.1020739807203989 -0.06689009733226201 93.39455157552925 93.39463130917565
3782 6 -0.005045948201168124 -0.001783827393104496 0.01313985439567034 1.20493183517144 -0.00951624964130768 0.05394014045831402 91.04497498774529 91.04499146365453
3783 6 -0.0061767748274436 -0.00133158143077016 0.01786611651344121 1.202614928537461 0.06020996628711119 0.008601889264622256 93.27104189193942 93.27106172248955
3784 6 -0.006427742500082421 -0.001062918478120467 0.0131437163512383 1.204928691924079 -0.2260776773742375 0.1580811952172809 91.07192791248238 91.0723457174398
3785 6 -0.005932543274870741 -0.0008143879396297944 0.00957889598180719 1.20663976501327 -0.1061512458372072 0.1548665598420219 89.41210805223078 89.41230518268803
3786 6 -0.003423860561468612 -0.0008105921165180639 0.01388512419991431 1.204570201113881 -0.08647587011510205 -0.001114604689187532 91.64694217894311 91.64698298399678
3787 6 -0.006744476166838607 -0.0003338960099618234 0.01314264908520641 1.204928805243083 -0.1151688448532385 -0.09524751346849339 91.07735465199033 91.07747727268291
3788 6 -0.006004716408702262 -0.000795911710281245 0.01651089631108235 1.20328458340485 0.1008894307738106 0.168885543606916 92.52225085373729 92.52245999780796
3789 6 -0.006773014278956488 0.000105153391292328 0.013887415115423 1.204567203320392 -0.1340689920245376 0.1971386337167595 91.53703935528351 91.53734981998467
3790 6 -0.003940337416047889 -0.001426098190336993 0.0138896109861592 1.204568323777079 0.0818383064259999 0.1966055226487425 91.64535849437495 91.64560592195589
3791 6 -0.003420025587231354 -0.0008105005619867486 0.0178735223885886 1.202610956650487 -0.03255978518623127 -0.1206885818171467 93.06915524608512 93.0692391936954
3792 6 -0.004286900444841801 -0.001633305079872424 0.01313517071494482 1.204934609529076 -0.2542621262987829 0.008295750074897357 91.03425810888699 91.03461356804782
3793 6 -0.005599256575144087 0.001638558040240874 0.03157744951890736 1.19559047519108 -9.137783760507876 4.299166530841017 97.76985705145226 98.29001410507129
3794 6 -0.00593043929925745 0.001342669199116924 0.0190630063406569 1.202017715668885 0.2701214672572337 0.0422724939999357 92.96844379993308 92.96884583102093
3795 6 -0.004297203076621672 -0.001636007227541234 0.01712899976680982 1.202979451314121 -0.0490070185871633 -0.01028181582976447 92.690195254415 92.69020878013592
3796 6 -0.005418401354142846 -0.0009552705246220799 0.004996645209837474 1.208747088265889 -2.769744743287692 4.934095643901542 80.44555830517415 80.64430938880506
3797 6 -0.003278497883779635 -0.0004092544475417031 0.01090497464490576 1.206008746568804 0.01858308310294138 0.03406601117934903 90.29965908112189 90.29966741904941
3798 6 -0.005478532133037631 -0.001719560820932421 0.01388703854715862 1.204569075514176 -0.2787749667742082 0.09322563078378962 91.44996413397344 91.4504365577626
3799 6 -0.00453810909817706 0.0008356727986398074 0.03304457956916731 1.195141150224953 -4.9572817031554 18.68783721660956 51.60685979792747 55.10968952844753
3800 6 -0.004087733007186529 -0.0004767952672083171 0.004940560799984369 1.208794837926243 -6.643478151122582 0.2217520652696966 81.44110937314615 81.71192857748278
3801 6 -0.006160571028075347 -0.001352459024333627 0.01388977736756941 1.204567070142361 -0.05579994820804963 -0.02272356204194275 91.46037445943495 91.46039430406231
3802 6 -0.00547723779190049 -0.001713888445421587 0.01788136605197546 1.202607570323108 -0.1150386654158818 0.1039489474990211 93.26656394363575 93.26669281758907
3803 6 -0.005908142514216153 0.0002613837720920626 0.03301586078504283 1.195006458426231 -42.24303040705608 -0.04465062027697199 52.22869371052387 67.17374530541728
3804 6 -0.004414187962929706 0.001647895385843565 0.01910201027987241 1.201999380711087 -0.2019627751515641 0.2100788528523879 93.63291798997537 93.63337147301925
3805 6 -0.00630651249182826 -6.982234511739585e-05 0.01451338388047781 1.20426255607731 -0.03188377854869388 0.07698762462568851 91.74065796967423 91.74069581368146
3806 6 -0.005068548573139634 -0.001783214372547036 0.01713216663558346 1.202978311546248 0.2516015915071155 0.04586603839052195 92.68210612746489 92.68245898376342
3807 6 -0.004593736228956166 0.001048384982436549 0.009268452558686996 1.206787553960815 0.2902393553570529 -0.3459622577954021 89.32500394614256 89.32614543763545
3808 6 -0.006010802907703305 -0.0007984122925847075 0.01451467886659233 1.204262536218283 -0.0822760360175871 0.1867228833663112 91.7276829968239 91.72790994428627
3809 6 -0.0064094539349396 -0.001092403351371069 0.0109536220911294 1.205984121218798 -0.2907854478767568 0.1174930972963172 90.25721210911856 90.25775699913568
3810 6 -0.003926122117661416 -0.001424085898288253 0.01787981615580764 1.202608003122564 0.168199067631029 0.1169661096181073 93.0689419955275 93.06916748399554
3811 6 -0.006241622240667123 0.0012243674461804 0.005964358463447543 1.208341053642879 0.391658372268491 -0.7819676877451056 87.08770077099912 87.09209203667304
3812 6 -0.00674365796973168 -0.0003655819870346287 0.01093763308830212 1.205991468127014 -0.1623028735986744 -0.1613593926661796 90.2637591926995 90.26404933678758
3813 6 -0.003266960647152491 -0.0004363286345898735 0.006838900625227051 1.207944696060695 -2.765226202259791 -0.1839612754299066 90.5388412307192 90.58124579128894
3814 6 -0.004410722427577759 0.0009836745499008518 0.02118409572144189 1.200956147628779 -0.1582731932480966 0.07307455942188795 94.49394949358822 94.49411029895852
3815 6 -0.006742698178944158 -0.0003490290018795843 0.03101256990390324 1.195862819754781 -11.69369771290713 -1.474292014550451 102.8930387136314 103.565889745948
3816 6 -0.005406269330053348 -0.0009502452757051724 0.03301586078504283 1.194999913521207 -17.0241243377257 -27.42193342694864 60.97324081302025 68.98926972784179
3817 6 -0.003942513536701863 0.0009907845353341815 0.005330030096899071 1.208633715178819 -1.980482277777453 -3.536933614968556 82.6887779328772 82.78808009298177
3818 6 -0.005909252856230415 0.001356181683739387 0.01967753263644158 1.201712857630479 0.1789930237405324 0.1014963464389074 93.18471708189843 93.18494426485611
3819 6 -0.0035246133380718 0.000835585050577403 0.008113490730321464 1.207340605011364 -0.4570690029001383 0.2897039032350663 90.79743990953908 90.79905249809229
3820 6 -0.00621212552231505 0.001253741030130405 0.03195016476554573 1.195313845384839 -29.9935405543508 -10.04567863745763 114.1279730328545 118.4302426023882
3821 6 -0.006077726802279944 0.0006779550442876558 0.009533621773223316 1.206662671601672 -0.1284926360344712 -0.6800809321202691 89.37217278957976 89.37485266875829
3822 6 -0.004608732640780641 0.001023492988741228 0.007241431001552306 1.207750032587073 -1.223475153660635 -1.366341180432197 87.89363781189012 87.91277124218466
3823 6 -0.006456696569256297 -0.001040268354787584 0.03099533088992139 1.195877455672643 -10.44989080338272 -4.963388162115292 102.8712391519907 103.5196951527414
3824 6 -0.005924884103292894 0.0002449117125057732 0.004945414361049928 1.208762077805968 2.468174967046598 -3.04461097479089 79.06970518838449 79.16678484209025
3825 6 -0.003938118052114411 -0.001425372720595018 0.01999082613254012 1.20155645037786 0.09899588224721309 -0.02973644288761661 93.9486698730026 93.94872673616798
3826 6 -0.003424888954388887 0.0008111621733514834 0.01388254047546882 1.204570774244001 -0.05593453838899367 0.1716080020468027 91.48651936082361 91.48669740862495
3827 6 -0.006586802957981834 0.000827182917478874 0.0314537320505348 1.195570080669 -21.76281389491072 0.849593821353539 126.635247622015 128.4944661009759
3828 6 -0.003982935680963163 0.001429900343710678 0.02940326380768576 1.196749229065504 -0.778249669669225 0.6814525306949389 95.71113966294794 95.71672949740947
3829 6 -0.006580612078806431 0.0008164625044977649 0.01017911639442716 1.206355534397369 -0.4223349817258679 -0.7549883620850825 89.78400532890031 89.78817286905705
3830 6 -0.003275220648132099 0.0004062934798696839 0.01925328603280618 1.201924357097331 0.1440191354903759 -0.1641525175082956 93.67617993606234 93.67643446979565
3831 6 -0.003423405777897378 -0.0008101803786875286 0.01999873317969679 1.201552161776267 0.1455871751493435 0.0250017323689946 93.94873343723926 93.94884956812204
3832 6 -0.004117662213910155 -0.001162579431227711 0.03273869223019295 1.195133821972444 4.333341928346457 -18.32204783968734 61.35040378956142 64.17435106372318
3833 6 -0.005504702417700477 -0.001088462506707188 0.007331862234788735 1.207699464018057 -0.192940847588786 0.5594474984987976 87.89404988481654 87.89604207715421
3834 6 -0.004075512065437187 -0.0004716279314288615 0.0330720989588187 1.195106185019623 1.224985392754462 -24.88216607668983 59.46471731048574 64.47228383341495
3835 6 -0.003284890871794835 -0.0004344704501978672 0.02286390614358254 1.200107781403503 -0.01057175552428771 -0.02901585272676872 95.41445552955901 95.41446052713351
3836 6 -0.003256336892677119 -0.0004330737678302021 0.03117738686194739 1.195844911018934 2.601316592266438 -0.7480493862267478 96.48740236065383 96.52536060644447
3837 6 -0.003749438457076005 0.001283211756028314 0.006080030096899073 1.208301102594605 -0.356538326409981 -2.386953099872069 88.17913885187441 88.21216012170508
3838 6 -0.004548031649783865 0.001018101100400682 0.01451018011548834 1.204264632362676 -0.122201677630085 0.01912186068471154 91.71636139847303 91.71644480174145
3839 6 -0.005021906054098486 -0.001793217720640349 0.0109676231490829 1.205978560091719 0.03059183669841081 -0.03795943804355829 90.24070605166546 90.24071922077361
3840 6 -0.003434890871794859 -0.000840672370429693 0.02211390614358254 1.2004880837323 -0.1200247882568006 -0.3193823245730923 94.86196410692163 94.86257768605033
3841 6 -0.006101224516605146 -0.001402701843756125 0.01024037960583831 1.206325280900751 -0.07076447878991521 -0.1035952949398119 89.76461691572693 89.7647045871806
3842 6 -0.006767664631175412 0.000153948052721993 0.01783682832480133 1.202628579322354 -0.06333907991297598 0.2261152962244526 93.07637963146659 93.07667583915489
3843 6 -0.003274218068080119 0.0003942331448952741 0.01090089957605667 1.206010976846186 0.02014597893304263 -0.1644617769130808 90.29982606744822 90.29997808055069
3844 6 -0.006153976100392642 0.0004851731378034571 0.007200975312888313 1.207762386694067 0.350764673214456 -1.013108187362554 88.17477283349137 88.18129046624961
3845 6 -0.004276055214130537 -0.001633470505089006 0.0109443916028352 1.205989756176209 -0.04207939393117258 -0.05342114014131043 90.24287083412108 90.24289645660465
3846 6 -0.003938676754547731 0.0009991763872583147 0.03268929166603896 1.195219354114086 5.69341616196389 16.31687992998954 47.2960350359443 50.35444854592568
3847 6 -0.003556779599590429 -0.0002497467083318447 0.00544056079998437 1.2085890237169 -3.92707619840943 3.379945133197367 83.49149647423876 83.65211258587175
3848 6 -0.005597672807523714 0.001680096486691557 0.02544311897905185 1.198789093635559 -0.2529629074051458 0.1140389247324253 96.23215707448196 96.23255712240346
3849 6 -0.00395846883428517 -0.00145738832636677 0.02209778915734486 1.200495517116955 0.08266194290634095 -0.07885319939947982 94.87109009661198 94.871158878467
3850 6 -0.006199839598110657 -0.001314580433766373 0.02612204369169725 1.198437847745396 -0.2457253706988858 -0.3180120582046193 96.76623551737868 96.76707006431354
3851 6 -0.005413432039640613 -0.00174970909464017 0.01025550379894899 1.206318581898126 -0.2734528925438257 -0.008755043114023543 89.76010221457315 89.76051917578151
3852 6 -0.005625392675018757 -0.001716937742087154 0.01587469123694074 1.203597652019514 -0.04281405658819361 0.02834226179009113 92.27823934779001 92.27825363245267
3853 6 -0.005503062531488873 -0.001704368176864057 0.01997162142142182 1.201565634499877 -0.1838266917012883 -0.08207684690718636 94.03423696170078 94.03445246201349
3854 6 -0.003434618814939269 -0.0008231039656687077 0.02603022960311782 1.198488131474363 0.04127832535518297 -0.1429760271715621 96.32427295827971 96.32438791389055
3855 6 -0.00522118280482097 0.001137197085184604 0.02139264392623724 1.200850579929938 -0.03699454803341899 0.05394138805863893 94.48526723304495 94.48528987292069
3856 6 -0.004462628715240257 0.001027643747504319 0.02717859525684853 1.197896093632134 -0.299549529163448 0.09664753283807201 96.65052800304723 96.65104052173386
3857 6 -0.005520361366382102 0.001064482700787634 0.007158831157480033 1.207785591133913 -0.1249640689539152 -1.444542783984275 88.12614277281091 88.13806986703953
3858 6 -0.003408558548658464 0.0007725249409420213 0.02212673508875267 1.20048195265037 -0.1949579539357165 0.2237904084767065 94.56970166889992 94.57016741285521
3859 6 -0.005513525170097334 -0.00170267647532395 0.02607337926286928 1.198463703009703 -0.4307413600595644 -0.212824320627323 96.77141759500945 96.77261025547685
3860 6 -0.006545622972514002 0.0008739641152799266 0.01387211493766007 1.204574405822253 -0.1867105390296298 0.01684970298324902 91.5412780106986 91.54146997164666
3861 6 -0.005521163430771515 -0.001719626883434635 0.02212591472863239 1.200480404570599 -0.2591711103696936 -0.1399009126493694 94.88009159625366 94.88054870859092
3862 6 -0.006287501365813535 0.001229534296719329 0.02881323821970942 1.197032160173028 -1.324993935876179 0.7206396081524711 100.169965520111 100.1813202282501
3863 6 -0.006258617938648636 0.001253894699558027 0.02543787145197916 1.198791348204962 -0.1774803628198866 0.161885492672669 96.23340318745234 96.23370301111086
3864 6 -0.003544558657841087 -0.000244579372552389 0.0325720989588187 1.195269972220742 8.367995379420643 -16.6795883610405 54.17333504027327 57.29731445669564
3865 6 -0.006759565470852292 -0.0002559096811793845 0.02547408321143473 1.198771493747509 -0.3134592843951756 -0.2958263066897009 96.17774297581411 96.1787087345659
3866 6 -0.006233780835878824 0.001277171439487395 0.02077366265339452 1.201163514642722 0.1607405314259656 -0.2130042297067889 94.96335585988182 94.96373078439403
3867 6 -0.006079121185385773 0.0006989883788702028 0.01449808370271488 1.204269758579172 -0.03432448520280199 0.07034902724397854 91.7405218609556 91.74055525489472
3868 6 -0.003556690681930045 0.000413359827514628 0.005440407036061278 1.208584156221697 -3.845857697058205 -1.007254959021683 82.43714134653767 82.53294770797616
3869 6 -0.006432061944610976 -0.0001638500464212465 0.005341761704827939 1.208599130442852 3.200077087043506 -1.848502154549149 78.52292937737454 78.60984602187276
3870 6 -0.005772507645035331 -0.001624333691821998 0.008034736333616932 1.207370532342086 -0.3931042093577293 0.06127250479153142 88.87626735821647 88.87715783466768
3871 6 -0.006144704228726339 -0.0004180789284027991 0.007346612221705413 1.20769204558658 0.4413088938476212 0.01062769586126237 88.07956388556694 88.08067007442313
3872 6 -0.006089204817032364 -0.0009690050887996023 0.005392992553615484 1.208577706242826 1.148415861146957 3.721554405314485 78.69728437028908 78.79359995228036
3873 6 -0.003363615602304189 0.0007057870482087607 0.006190407036061279 1.208251543637483 -3.314640126501223 1.185555292016206 87.08816791329681 87.1592873480114
3874 6 -0.006506953155366741 -0.001043450468619466 0.009054795529264316 1.206887776352854 -0.3243927381704343 0.1384762245047939 89.17029530790863 89.17099288228746
3875 6 -0.006635465777750865 0.0006886307445636198 0.006445447549939655 1.208116078770787 0.05807544391252158 -1.164394093330006 87.50278555121953 87.51055173854455
3876 6 -0.005513152669522738 -0.001765766688699953 0.03144261689272604 1.195613631608194 -13.78349694689128 -12.06978060925194 118.7233011751853 120.1286253728651
3877 6 -0.006775593922635023 6.55989231421502e-07 0.006174394737789936 1.208237538515334 0.05061818617372887 -1.190758628249753 87.50080942228958 87.50892593254338
3878 6 -0.006851947539871332 -0.0003238155638544864 0.009038284970152769 1.206895365323076 -0.1048552747463585 -0.2703629299045577 89.13033051435087 89.13080224220994
3879 6 -0.003276188511039463 0.0003878943127225618 0.02287673508875267 1.200101848187568 -0.004288003683758595 -0.2439416890733607 95.41398382431377 95.41429575886966
3880 6 -0.006415872190015943 -0.0001460518728012592 0.03245916707682178 1.195138889047219 -24.35812625066712 31.33760322327402 66.60277098160371 77.53252732015606
3881 6 -0.006480776415373035 -0.001004626899573928 0.02299447741894977 1.200039659807516 -0.1677991670027271 0.01398675787489493 95.5424247995438 95.54257317429924
3882 6 -0.003256336892676479 0.0003793300726341336 0.03117738686194739 1.195846103980329 2.559995235308847 0.1843843237573305 96.48749861247349 96.52162950176361
3883 6 -0.004447273791478475 0.001635356046526596 0.01521031204421142 1.203922131557388 -0.2120077344782155 0.2573903692039521 92.01969120147905 92.02029540214049
3884 6 -0.006741753663929322 0.0001270321699902137 0.03160427262100932 1.195484622626772 -16.655699523106 14.01361379320475 123.7772460472898 125.6765703589989
3885 6 -0.00395518706441658 -0.001439317410412302 0.02604771266532945 1.198478793631016 0.04650660828474251 -0.1370019797780288 96.32328411136064 96.32339276834563
3886 6 -0.006308377405057142 -0.001340542914407886 0.01588012949991023 1.203595113648621 0.1305648207910385 -0.02442640711310693 92.27492244056471 92.27501804515687
3887 6 -0.005179964488002816 -0.00177104890875339 0.008387053420326867 1.207204763662872 0.1178125746109279 0.01214003059236347 89.17205862952916 89.1721372818397
3888 6 -0.006207132671645948 -0.001324111214654822 0.02218184506810874 1.200452216421962 0.05382494180476767 -0.3249542039066516 94.87866180777408 94.87923354872215
3889 6 -0.003276053536161504 0.0004024215465526797 0.02888229480111035 1.197018825162407 -0.2861269219479789 -0.04487201028935256 96.22964999405748 96.23008583645542
3890 6 -0.00558703197058027 0.00167261350693931 0.02299576086401822 1.200039796541226 -0.3949283008298495 0.04821293345094532 95.07656394995257 95.07739639566898
3891 6 -0.004973501225596771 0.001751785624388305 0.006116775017794318 1.208278642638944 -2.628355752452737 -1.477034978574889 88.30985541564469 88.36130629309106
3892 6 -0.00433394405965201 -0.001668211380697744 0.02282401342572168 1.200127037426904 -0.1164772371227014 -0.2053616800260752 95.2289942803166 95.22928694475752
3893 6 -0.003544558657840548 0.0004183850764315369 0.03257209895881903 1.195281194685183 7.894455035205281 13.34990370058845 47.01564146390769 49.50770537381609
3894 6 -0.005178264977294549 0.001730828594677953 0.0100582854347531 1.206414194939317 0.5828174829374791 -0.03860700128395815 89.81463601056841 89.81653527290983
3895 6 -0.004985080620066066 -0.001814884621416918 0.006204694739365442 1.208233077980896 -0.4676786824823497 1.078178467329365 89.2654922615223 89.27322835458209
3896 6 -0.004260356085229903 0.001615019294370202 0.01116471148547096 1.205882780852743 -0.3718351293075063 0.2037587748845307 90.71103167455804 90.71202261257547
3897 6 -0.006196986139746705 -0.001312769566281456 0.0199603819315355 1.201571115606247 -0.03770477118251106 -0.1643333097207226 94.03750902873342 94.03766017620588
3898 6 -0.006236759786414942 -0.001306165361316168 0.006206029618360314 1.208224836547875 -1.231896687311289 1.7630960104766 88.19416080164355 88.22038356579803
3899 6 -0.006079383859144106 0.0007020988714905314 0.01648098954653157 1.203297877486437 0.04796686545314 0.1424329756698722 92.53768647926802 92.53780852661275
3900 6 -0.005087420185967462 -0.001778955287722233 0.02876971685860011 1.197062287446935 -0.8870736752348235 -0.9164522297052028 98.4384029710954 98.44666558037601
3901 6 -0.006077624627424575 -0.000962653725848997 0.03245916707682178 1.195161789067499 -1.52070496597601 -32.56432895982295 68.23772903409463 75.62496762265508
3902 6 -0.004687076433155475 2.280768001964984e-05 0.004585119132932919 1.208926306404372 -6.748891072867165 0.2794866138543797 81.41506038474795 81.69478380492174
3903 6 -0.005111464354485004 -0.001794049883624099 0.02286972673552171 1.200103447726949 0.006236455917293975 -0.1844320379863484 95.22760852543608 95.22778732882396
3904 6 -0.004310562175823361 -0.001635989115044623 0.0287727636273073 1.197066217819951 -1.414199263368257 -1.013649117714456 98.43329972314032 98.44867667204029
3905 6 -0.005248803238082199 -0.0002098671809295024 0.004585119132932919 1.208911780954462 -3.75850755298564 1.518107079395712 81.44822668201969 81.54903223077528
3906 6 -0.006620916503763385 -0.0006831347792554345 0.006627136574417757 1.208026058788732 -0.09620850899725059 -0.1478953358242927 86.78539540071591 86.78557474584221
3907 6 -0.00709499989643821 0.0007160276008934721 0.02415059458916203 1.199449814143245 -0.7071547962259674 0.06386207481407251 95.72978666790112 95.73241980516467
3908 6 -0.004336542928256436 0.001629162817106151 0.009810536640557466 1.206529997985569 0.466261717122582 -0.008102530640344221 89.8595234430171 89.86073346599167
3909 6 -0.004953696148843465 -0.001805888017433123 0.03198134363389461 1.195343323390889 -25.10806868375613 -9.911285894765463 107.9328975272865 111.2571753629927
3910 6 -0.005369156092958419 0.001132305626936401 0.01425210554438108 1.204389964249424 -0.1198511057832896 0.01856896909321118 91.72653644957582 91.72661662859659
3911 6 -0.006117504491650092 -0.001380809035965524 0.03158703360702746 1.195522158564913 -6.065882069942745 -16.18286660050276 117.004957703645 118.2744275992401
3912 6 -0.006329669623784395 0.001178763540236007 0.01090707144732253 1.206006734861356 0.05411957250004649 0.01147752293187139 91.17504448942734 91.17506127396194
3913 6 -0.004321127994619857 0.001636527054239684 0.01720295895412823 1.202942375292251 -0.1244509985684846 0.1188880650300526 92.75220426134405 92.7523639470237
3914 6 -0.004269010900103886 0.001576644968762141 0.006515231071324434 1.208097172560066 -1.293857950494024 -1.73207561945404 89.08861286360946 89.11484217743778
3915 6 -0.004240010750032251 0.001584115538799565 0.03151033824562441 1.195668426331078 -0.7930417100994138 3.442995674837723 95.80394811705555 95.86907535376766
3916 6 -0.006236456927903295 0.001263815915878038 0.0228383877582749 1.200119216133643 -0.04759509819712329 0.24880441089174 95.09255348816714 95.09289089005644
3917 6 -0.004578332470957649 0.001678260906427262 0.008408041860184061 1.207198088058509 0.2335128905638163 -0.4787669125522236 89.98712227028163 89.98869884887341
3918 6 -0.006533638057039715 0.0009053115531739433 0.01782341435087851 1.20263419873472 -0.03273328463022163 0.3198772702894349 93.07522663334198 93.07578205840628
3919 6 -0.006763582390566111 0.0001789519687769571 0.02209715131608957 1.200495447414798 -0.1152452662067334 0.1862867679085268 94.82340826058287 94.82366127915783
3920 6 -0.004139332466637888 0.00146050048780276 0.007903979607875177 1.207439720956042 -0.3000993011591224 0.05234703844186672 90.80407920164674 90.80459018938373
3921 6 -0.005649307096426416 0.001621552548846954 0.006394552112884253 1.208144056123555 0.08389201888844094 -1.014816048015423 86.77276212476677 86.77873665964205
3922 6 -0.006255639199935334 0.001876175302902838 0.01915187685839741 1.201973604721855 0.04493185041958728 0.3204476743368535 93.10100720010213 93.10156952090892
3923 6 -0.005236671213992699 -0.000204841932012595 0.03342738686194738 1.194976779267643 -14.90019630763384 -20.08052586432567 63.25874970077965 68.02141414804434
3924 6 -0.003946210421221 0.001425794206537143 0.01787225567860027 1.202611236103837 0.07242996735423908 0.01315082547102048 93.1136109321488 93.11364003124334
3925 6 -0.005643334967480088 -0.001690159942325381 0.006627565320627624 1.20803173189475 -0.04614585635197353 0.9763793399962659 88.97342445854549 88.97879357429011
3926 6 -0.003422901020592844 0.0008091224770088667 0.01787613554678347 1.202609532871413 -0.04218488435335133 0.1464026664098906 93.11306369132917 93.11318834241861
3927 6 -0.003423286810703346 0.0007993435474422395 0.01014856731531246 1.206369588713331 -0.2068107154974038 0.3367809230653938 89.39540963792541 89.39628323590793
3928 6 -0.00675709121187296 -0.0002494947434369099 0.02292252406317176 1.200076333875731 -0.1242191407699012 -0.1110988879532943 95.54480694503157 95.54495228697951
3929 6 -0.006368708360545173 -0.001233579003513817 0.008343652411085393 1.207223795592345 -0.2637675641076492 0.009475633459639206 88.80807578245808 88.8084679931949
3930 6 -0.004674944409065977 2.783292893655726e-05 0.03342738686194738 1.195039203594931 -10.66447745321861 -18.32676022027464 63.31778305567236 66.77381875111561
3931 6 -0.006767119499798999 0.000179389165465984 0.01993329729884885 1.201584599626724 -0.1381567975931622 0.1144975417977092 93.87069332724342 93.87086482357121
3932 6 -0.005096586977297781 0.001729993321583417 0.01141414921101589 1.205761321767718 -0.1696987087643646 0.1498717693847011 90.72548121501558 90.72576371072971
3933 6 -0.006496865602063579 0.0009383054194374329 0.02201588616764626 1.200536160546468 -0.1484540055471898 0.1016112854233372 94.82815615682408 94.82832679926447
3934 6 -0.004269395205224393 -0.001641891451672672 0.006546950154755015 1.208074003417397 -1.291095736496826 0.8946218138371465 88.82242090242922 88.83630863199397
3935 6 -0.005143505059937369 0.001751312544933112 0.01743251720666218 1.202827832322173 -0.3733079349818413 0.1590352416268432 92.74436161900253 92.74524927530634
3936 6 -0.003756298756872218 -0.001348738058964406 0.006084508775761145 1.208298586955508 -2.968948092502403 -0.4199122022710891 90.60973902455544 90.65933920524479
3937 6 -0.005383895206531567 0.001128990417952448 0.01632345820833777 1.203375510966078 -0.1712858445553707 0.0388931958401233 92.60336599507687 92.60353257375978
3938 6 -0.003935501779445095 0.001389784910494102 0.02193080968863576 1.200579807481035 -0.110173335335189 0.1265986825466721 94.58459403574626 94.58474292557531
3939 6 -0.006302907371544223 0.001206552162143941 0.01312555091593621 1.204935956861106 0.07362507007080836 0.3546039291567362 90.79713392056982 90.79785621250872
3940 6 -0.004239519003615917 -0.001634665229846113 0.03164286971079917 1.195584173200897 -3.05886901387498 -6.773456665074556 94.79198730582348 95.08289673871474
3941 6 -0.003937965536514702 0.001426059033427513 0.0138825640644038 1.204570426843127 0.06072092629927384 0.03471069213348169 91.48693049212642 91.48695722743329
3942 6 -0.006523773452603016 0.0009141919620723831 0.02616908136788889 1.198413538467631 -0.4820795633283907 -0.06795196614406142 97.06406416387355 97.06528509299112
3943 6 -0.003362196250351082 -0.0007679529459448156 0.006194342292278498 1.208252609535116 -2.75192703628238 -0.1072511191691594 90.6924351122808 90.73424045976716
3944 6 -0.003426053536161657 0.0008086234667846569 0.02813229480111035 1.197405265697568 -0.2499723803866715 -0.134607410617141 96.42874065379262 96.42915860579903
3945 6 -0.00374560167492187 0.001291603607952443 0.03193929166603897 1.195469766180685 -6.121790366721907 6.927675922952053 90.58813389462023 91.05865699370479
3946 6 -0.003736708806314692 -0.001341732792583781 0.03198869223019295 1.19542725096132 -2.978968715179512 -6.70994063888991 94.8501371944936 95.13383248769968
3947 6 -0.005569591046558178 0.0016210339146955 0.01080366090798916 1.206056316090413 0.1313027586526034 0.06514849301433426 91.1764032061531 91.17652102570912
3948 6 -0.006508904166134576 0.0009365805602152077 0.02004460038643848 1.201529558680388 -0.277547804602882 -0.2939113027392225 93.8736165336375 93.87448693730441
3949 6 -0.003422007644923968 0.0008088852773378868 0.02600571174052153 1.198501426008708 0.03941828429107579 -0.01265150216021096 96.21212161863463 96.21213052531674
3950 6 -0.003407590685751101 0.0007909241080891434 0.02000328603280618 1.201549583883119 0.1457611142340897 0.04226497160559317 93.98120500715932 93.98132754557129
3951 6 -0.004914233059345424 -0.002010258379715615 0.004801692560387203 1.208884543536928 -0.2516708345121302 15.81212640158166 91.75506622667609 93.10788826845047
3952 6 -0.006587378294762954 -0.001037688634060434 0.01513417654064973 1.203960186072399 -0.130463120554083 0.1879422606555306 91.76068427842496 91.76096949228442
3953 6 -0.00677080348933954 0.0001583447899894426 0.0262024219708909 1.198395853136419 -0.4062413798398622 0.1648675627269501 97.06510164390278 97.06609176490579
3954 6 -0.006319951398027854 0.001429839513374321 0.03323001218229391 1.194542466649767 -127.9064575344095 80.30682367157414 171.8436884132443 228.7782792458393
3955 6 -0.006730768079020963 -0.0006202048476432594 0.007888292212286275 1.207438591979778 -0.1192099222902366 -0.2479581259877484 89.07618759152258 89.07661247531777
3956 6 -0.003351483578215867 -0.0007645559923225958 0.0318220989588187 1.195519191325946 2.976671337601929 1.575011363822949 92.461288426241 92.52259772881865
3957 6 -0.006291711215027277 0.001224861552007385 0.0170790346215451 1.20300204488366 0.05240835683035173 0.4197646081891106 92.87762349077651 92.87858684463602
3958 6 -0.005805051470124393 0.001655224061851103 0.008979370150186353 1.206926091703258 -0.2569569750820918 -0.02037502590651772 88.4631913829742 88.46356691706166
3959 6 -0.005594912670862631 0.001649989514455883 0.01297783933772074 1.20500691031128 -0.206017941614458 0.1674830384878175 90.81007602243072 90.81046416113121
3960 6 -0.005059892209432239 0.00195174591955054 0.004741167007307681 1.208902838220814 -2.816862795766606 -13.86019168245759 89.38486307227089 90.49692467666101
3961 6 -0.00554541484259184 0.001689102356118051 0.02085806538803126 1.201120611462644 0.1797750141806497 -0.2013006803115122 94.95942420586678 94.95980774269383
3962 6 -0.00590160852831084 0.001596592612379597 0.00768778039790749 1.207538466976221 -0.9686050029153385 -0.4258669205381218 89.70088362300682 89.70712391462506
3963 6 -0.006883087878887908 -0.0003090986865931222 0.01513288155453522 1.203960205931425 -0.0558645299093119 0.05000523951746631 91.76371626111141 91.76374689069449
3964 6 -0.006904978355281853 0.0001293488120988989 0.01586389056160132 1.203601857196684 -0.08221661908453262 0.3710700944264478 92.27082723089472 92.2716099917036
3965 6 -0.005622392537713308 0.001665806367562942 0.02882508637815558 1.197031973691923 -2.552926971773554 -0.07261898578362221 100.1446096584101 100.1771708188828
3966 6 -0.00653522326232138 0.00101728304939542 0.007729924553315771 1.207515262536375 -0.3812571704727479 -0.08796808851594304 89.57764141951655 89.57849595577122
3967 6 -0.005273300694584046 0.001746266409359318 0.01544541825271733 1.203806266739129 -0.07614117674144441 0.2050243976949256 92.01378936563492 92.01404928545355
3968 6 -0.005069703048673893 0.001954511940731319 0.03325873096641839 1.194916753253831 -9.173553758427628 30.49338495501891 61.02181719422479 68.83068202668868
3969 6 -0.00398442457101574 0.001430061783115075 0.02791480365204368 1.197516727574424 -0.363998314900651 0.001419816681335586 96.43941952969415 96.44010647035539
3970 6 -0.003979806362855281 0.001430261964773395 0.0258634047797008 1.198574427927227 -0.0497202274525532 0.09242655100381153 96.21666813866952 96.21672537805063
3971 6 -0.005159074651453571 0.001759033927129361 0.02225766200802631 1.200413837773971 0.03028899043469037 0.1639737871030191 94.68837315932207 94.68851998201694
3972 6 -0.003891638105452188 0.001404394109910482 0.01030647438824859 1.206293578221689 -0.03379574911334645 0.1297289617510985 89.38562580768567 89.38572633697048
3973 6 -0.003351483578214688 0.0007108122971256659 0.03182209895881903 1.195531606751782 3.942604579127441 -5.189815524863607 86.90019204769796 87.14425795183674
3974 6 -0.006323045365708808 0.001418993284531384 0.004711839174586896 1.208905493643546 8.83222384037267 -9.147372521871993 89.14241393353896 90.04472535311965
3975 6 -0.004366244236591252 0.001627082683857822 0.02254911380323095 1.200267115546699 -0.1946069134417014 0.1916360394322702 94.66215460863093 94.66254862072283
3976 6 -0.005719507564360154 0.001649738088192978 0.0148566404060821 1.20409418449609 -0.1590340874563096 0.1872993940454086 91.95311945522826 91.95344773553333
3977 6 -0.005596222562414737 0.001651753098469302 0.0169215032833513 1.203079678363301 -0.2725724998038276 0.2025622886232485 92.88784460231351 92.8884653878616
3978 6 -0.005209857102481558 0.001766693328162959 0.02821063116056425 1.197358706023245 -0.7581980627848799 0.3990095072829508 97.04752927749603 97.05131123151176
3979 6 -0.004905355780923112 -0.00200665006695721 0.0332550671944697 1.194639308251254 -30.00439539784503 -105.8892153309223 138.2841081101702 176.7350678909364
3980 6 -0.005424932437376867 -0.001548373428107513 0.004411526076904555 1.209036067145734 0.3364560805019192 15.67511064809428 92.12447079994139 93.44913277657187
3981 6 -0.006447319994410059 0.001183128346130407 0.008996790570527038 1.206917012390367 -0.2463977198395446 -0.0142944864193965 88.46217418530574 88.46251849094088
3982 6 -0.005424932437376868 -0.001548373428107513 0.03358847392309545 1.194549246971145 -39.09601074664366 -103.7321058632443 143.8074590326498 181.5748691767455
3983 6 -0.005201143292464468 0.001770695253659945 0.02618345437411019 1.198408340280736 -0.1436629376114381 0.1713701213932394 96.48303563515694 96.48329478274005
3984 6 -0.00636874735978126 0.0007301973579313171 0.03358847392309545 1.194452968354377 -136.2930687465967 68.88894347761071 180.217799151032 236.2201139883471
3985 6 -0.004391306715817249 0.001645136739809302 0.02843577265861909 1.19724563102055 -0.8475281909726216 0.4093067203680322 97.03864060042123 97.04320483992453
3986 6 -0.00542897980702914 0.001773363318957692 0.008274442494288646 1.207261275531848 -0.7106833505916634 -0.2759749286618297 90.04463407431237 90.04786148800467
3987 6 -0.004548476963565209 0.001484178043230243 0.004389623060837794 1.209053980726151 -8.790070805849064 -12.95258951588592 93.17361854402323 94.47940575874738
3988 6 -0.004391290651710513 0.001649167404994999 0.02640064748607259 1.198297381746989 -0.2697474087976294 0.1849771920521981 96.47393085634725 96.47448530622697
3989 6 -0.002938310682824448 -0.0002178496118172777 0.004855441667051451 1.208891909683915 -21.4481815350403 3.190790427019652 95.49061888839127 97.92172348563516
3990 6 -0.00430575225891569 0.001635592700202455 0.01323846890088195 1.204882470146142 -0.2614642298091433 0.2150428802959423 90.885622671147 90.88625317013539
3991 6 -0.005127663179405055 0.001750718715658068 0.01347842520111079 1.20476556494268 -0.1403461975672827 0.1931493046712054 90.87531092318753 90.87562455958734
3992 6 -0.004556772205500575 0.001487544646237467 0.03361719270721994 1.194889679285728 -3.273759861139995 29.59451402206182 64.68236856984048 71.20647138873764
3993 6 -0.006704863065325346 0.0007219580402528196 0.00833400707003761 1.207228991779111 -0.06523785669245451 0.0919475510298713 88.98672950366901 88.9868009206379
3994 6 -0.00521824234189908 0.001775879369060444 0.02025212129848534 1.201424710055791 0.6429723091392894 0.2658601815224443 93.87349701468833 93.87607542283145
3995 6 -0.006429472656787508 0.00121642084012678 0.01510261856441591 1.203973978825837 -0.03257911471155112 0.2396783630510368 91.94554684225741 91.94586500348007
3996 6 -0.004036956196156079 0.00175814114559881 0.004389623060837794 1.209109405525894 -15.88491779860883 -16.86554944201688 97.05521892966912 99.78222734002122
3997 6 -0.003652322352178956 -0.000886839908935343 0.004355441667051449 1.209094176010524 -19.2240154615212 7.155903106334049 98.92120344570077 101.0256116580235
3998 6 -0.006678754439623938 0.0008860576148312022 0.01584892774924494 1.203608427589234 -0.1911868857834607 0.1005974544506819 92.2765649761501 92.27681786922861
3999 6 -0.005960920768022362 -0.00176326660747263 0.004411526076904555 1.209059185133731 2.730323275770635 16.99887798988726 93.3645314867145 94.93867630127878
4000 6 -0.006909679753691233 -1.22777905796034e-05 0.008346737820191014 1.207222662330001 -0.1234790169421754 -0.2395943622205078 89.06880547636118 89.06921332038304
4001 6 -0.003703349779074236 -0.001581399721492598 0.004745608150534098 1.208928126951808 -14.75055534245988 14.39282629634789 95.55655837777067 97.75371185132619
4002 6 -0.006373356924768503 0.0007187505472619352 0.004360295228117009 1.209042110698972 9.521209420924544 -8.213313562167219 89.97594948220964 90.85033535289082
4003 6 -0.006537677638507978 -0.001379049730526625 0.004807873420682565 1.208856594049948 10.20644018119831 13.24341470039276 88.42963691515148 89.99644514670833
4004 6 -0.007059535297339461 -0.000119180025203595 0.0330317802148744 1.194484668553255 -232.0117437384542 -4.759669333605912 185.3606140582217 297.0027961632086
4005 6 -0.006538229472989688 -0.001377723616492927 0.0330317802148744 1.194542081920484 -161.3435224271558 -145.2754015636185 178.0270847364762 280.7673724428129
4006 6 -0.003507102881694289 0.00146462337009034 0.004744910963966151 1.208938475137741 -12.63718456839372 -18.44569045644355 99.28077896681762 101.7674555174132
4007 6 -0.003652233434519113 -0.0008866978220727947 0.03364471209687132 1.194815292059835 21.35180490255305 -35.97115434146761 87.40005369918823 96.89475168385209
4008 6 -0.002938221765164605 -0.0002177075249547294 0.03314471209687132 1.194944141527739 81.98240701472129 -15.83717432286861 104.4800170349786 133.7460470821092
4009 6 -0.002938221765164064 0.0004452569240291951 0.004855287903128358 1.208887042188712 -22.75327754437717 -0.7448561407627078 95.49023441611983 98.16644700979764
4010 6 -0.003121368944582856 -0.0006597913500588706 0.004355441667051449 1.209141292158414 -20.23416313357471 6.865528774061497 99.26466987677631 101.5383254185776
4011 6 -0.006924168330613722 0.0005622187220582969 0.03358847392309545 1.193978949734946 -214.3324660223791 46.28471551592641 216.9802320551273 308.4819313741429
4012 6 -0.006928777895600965 0.0005507719113889149 0.004360295228117009 1.209072066405935 15.14142522105295 -6.588776246630526 93.12935902697305 94.58198688401374
4013 6 -0.005960920768022362 -0.00176326660747263 0.03358847392309545 1.194139186623968 -136.6079530333731 -157.6142791537362 194.2061339802794 284.9912565337513
4014 6 -0.007063593027844994 -0.0001319529499066748 0.004756642571895019 1.208878421308993 17.10939397120914 -0.8671551895243983 89.2636968889525 90.89274394838982
4015 6 -0.004045251438091445 0.001761507748606034 0.03361719270721994 1.194590783935081 141.3732238665679 109.354991499584 142.6943484050829 228.7063174882845
4016 6 -0.003694383582992082 -0.001577649321871644 0.03331130536824557 1.194842929012657 21.30883444965936 -36.04235167029001 87.36944388284353 96.88414351133622
4017 6 -0.002938221765164065 0.0004452569240291966 0.03314471209687164 1.19495536399218 91.27722949101044 12.18786912036416 104.4809982421406 139.2708001374441
4018 6 -0.003515398123629655 0.001467989973097566 0.03326190480409158 1.194740256888904 91.46194212289495 133.7144311094108 179.0709617994387 241.477214874574
4019 6 -0.006924052327761503 -0.0008002989086733695 0.03344330629177895 1.194044929047489 -262.7607554597949 -94.27827059992219 221.1572383206614 356.1490291700036
4020 6 -0.004233114175875648 -0.001874775410137656 0.004390166483482649 1.209099239150604 -12.14003888145702 18.62446398445189 98.48839395724485 100.9664050416221
4021 6 -0.0057425266902083 0.001815662368146136 0.03364153825919846 1.194470963351792 -148.9017672935714 51.75539436331197 148.420705208721 216.5157335703456
4022 6 -0.005741011092902011 0.001816262949972581 0.004351543946469886 1.209083356546914 4.541311905797256 -14.98256758739832 94.06282376933942 95.35678088525482
4023 6 -0.003121280026923013 -0.0006596492631963223 0.03364471209687132 1.194699108166669 80.98314523655938 -18.79640000996551 107.4856710516992 135.8850394531142
4024 6 -0.003121280026922471 0.0008871986622707867 0.004355287903128357 1.209141846537851 -26.40346304085988 -11.73728472260125 104.7898658479877 108.700610383055
4025 6 -0.006923500493279793 -0.0008016250227070674 0.004396347343778011 1.209051242445485 20.2387607393935 8.210986047759647 94.41094540542512 96.90435666413086
4026 6 -0.004224236897453337 -0.00187116709737925 0.03366659327137425 1.194505482912436 -22.87976776441686 -107.5602999948934 143.1485918861114 180.5110004041903
4027 6 -0.003121280026922472 0.0008871986622707882 0.03364471209687164 1.194522126365717 125.9585845648601 116.861043671157 192.8103182969967 258.2593413514491
4028 6 -0.005235794954767642 0.001761778644414175 0.01882964053463437 1.202133715776696 -0.4189018549598561 0.1999277949940451 93.58742472225508 93.58857577734079
4029 6 -0.005243808134671527 0.001134469336637731 0.01835509996394036 1.202370281107993 -0.3732788040052474 0.02645344403484202 93.40407824607526 93.40482787227418
4030 6 -0.004506710180235447 -0.0009977540295775644 0.009549129528307635 1.206655400365996 -0.4733901917480504 0.007113605173923511 89.4706847027275 89.47193733261786
4031 6 -0.004336400990573483 -0.001595569193671654 0.009063584103705745 1.206885683577197 -0.61775186975638 -0.303719819166721 89.09592779113684 89.09858703741948
4032 6 -0.004417821793088181 0.00164848362586737 0.0199099647479387 1.201595233028588 -0.06127221426159571 0.3102353272557435 94.02597683026501 94.02650859799085
4033 6 -0.003934533916537732 0.001408184077641224 0.02030736063268926 1.201396702134281 -0.08426233762421197 0.3240460933586434 93.98951442934408 93.99011080255221
4034 7 -0.00272508586074531 0.008037695418603576 0.003484917943321196 1.209981098204209 -10.88787386376902 -7.137317095902703 -1.992371211086847 13.17029368099197
4035 7 -0.00512592315996989 0.009507127659329243 0.002496207653318465 1.20992110935286 -6.460688019012257 -5.335133524944188 -0.4350354829201904 8.390077191503753
4036 7 -0.004124857290496367 0.0046092299814836 0.001492836561657155 1.209741804273375 -5.784490979047075 -13.28818356469809 2.460396363100676 14.69999008840988
4037 7 -0.003619933916601713 -0.0103984999065622 0.002990698658345314 1.209990586280055 -7.095706056302433 3.652795518474259 -0.5738459284095495 8.001328557607472
4038 7 0.0009805089471604804 -0.009123052630958833 0.002168033156667885 1.210109204369206 -2.027129529036317 2.706105100868746 -2.881027067621766 4.442136412674437
4039 7 0.006347018257046353 0.005942918574292846 0.002474283220561127 1.210140467343052 -1.662421260929824 -1.480529212707208 -0.1772964666782932 2.233169325323886
4040 7 -0.01061706161697337 0.002033860209846353 0.002492566308135963 1.209611383448162 2.203104314300701 -1.440121955251649 0.3003143814343433 2.649114681055633
4041 7 0.006692266172102999 0.005391039171282331 0.002982891823462889 1.210141093169268 -1.987243442753189 -0.9100807391774494 -0.512181785654603 2.244930652413045
4042 7 -0.005862017716136124 0.008954073134970167 0.002506859786058171 1.209881973342602 -5.956205439390569 -4.948259418525553 -0.3770834495988535 7.752667053163964
4043 7 -0.004268390581737557 -0.009907940997715227 0.002504850669819376 1.209955075505607 -7.151199646348612 3.695078628357317 -0.5866829861934935 8.070778114777312
4044 7 -0.003268378543150364 0.004178075259851066 0.001465762248507492 1.209756052881209 -13.34521539146417 -12.2275923819325 2.695735229025829 18.29961140921514
4045 7 -0.0041646599424788 0.00449492306217467 0.002492836561657155 1.209719432369591 -5.784775336613111 -13.28820022078039 2.493359647923822 14.70567010158089
4046 7 -0.0002712526750480641 0.00979004628349809 0.003503163597645245 1.210202629138564 -11.85138201834266 7.798500839851545 -10.82983832243946 17.84817271274679
4047 7 -0.005126997758123079 0.009518139654232453 0.001496207653318466 1.209920632873764 -6.442166003968731 -5.33165244232872 0.1439144013183206 8.363535851742794
4048 7 -0.003308181195132797 0.004063768340542136 0.002465762248507492 1.209733680977426 -13.3958063261932 -12.21251502391987 1.894553255864667 18.22587398117451
4049 7 -0.01020288933680947 0.001569403690060147 0.00299988260744966 1.209599488549143 3.482408428583089 -2.432115502641011 2.022604697059105 4.704602431897815
4050 7 -0.006022741954379844 -0.00790632729471589 0.003076135308689473 1.209840585942748 -5.083732871015847 7.029781844932331 -0.3380784793905507 8.681962321354215
4051 7 -0.00242714920474823 -0.01047885814081896 0.002577553932684781 1.210033092864322 -8.525212927580069 3.015383215139884 -1.414016639587884 9.152662697366111
4052 7 0.00116967404704136 0.007377846433668228 0.00350984695714963 1.210128896599185 -1.358368507748837 -15.63860758962452 -4.444553626763918 16.3145722986012
4053 7 -0.00159363939396824 -0.007644869235228215 0.003523877556210437 1.210037778866131 -15.79419179653441 10.25321435717458 -2.636602823814459 19.01411511510415
4054 7 -0.002247815825066403 0.00850140442930798 0.002971695103880042 1.210013928686837 -8.845800846804334 -5.15360591727968 -2.412161422784885 10.51790707800349
4055 7 -0.01034511073828424 0.00317651587262296 0.002499669127452817 1.209631785483727 1.20827103620553 -6.38450620803042 0.5090955023950042 6.517746285938951
4056 7 -0.005863092314289313 0.008965085129873379 0.001506859786058171 1.209881496863506 -5.953635198409474 -4.955077283496295 0.09601356743950276 7.746468974074168
4057 7 0.007221361354352125 0.005862995557997382 0.003509392708264721 1.210149600120551 -1.661731646101617 -0.700568603220569 -0.05797824260569362 1.804303164130034
4058 7 -0.004608366303528648 0.008951325331537216 0.002985446217131314 1.209924935220016 -6.802538569476184 -5.240893214055844 -0.7772980581624908 8.622394385643171
4059 7 -0.0009133248915411146 -0.007121119706145584 0.003523877556210437 1.210045658766284 -8.441307647767337 15.18869818296945 -2.731392253777909 17.59013163514113
4060 7 -0.002407227996840805 0.001293550863467778 0.002458747039403487 1.209619143368397 -14.42702152966123 -4.112354777602405 23.06338143134652 27.51308734188073
4061 7 -0.005127898311947349 0.008504922465241815 0.003496703183449469 1.209894512830535 -7.362571517241794 -6.033809164265569 -0.5326475562722685 9.534045615397385
4062 7 -0.00782979359145965 0.004312277471058799 0.002515958514675534 1.209648372486606 0.6221870627746737 -10.67815615090529 1.487388308425183 10.79918790947914
4063 7 -0.003239589947104754 0.003482282564218051 0.0009625905740926785 1.209719686708702 -13.2717755346801 -12.4242573569589 2.429822762150995 18.34138041070922
4064 7 -0.008154321884612846 0.003446982295368913 0.00252808262617852 1.209613523404002 3.300828402878454 -5.870254504202622 1.882181664848315 6.992707909590639
4065 7 -0.006297456019971103 -0.007376097268908015 0.003561983297215411 1.209813572363402 -5.179693651340039 7.394695222753086 0.061726913807434 9.028541076554275
4066 7 0.006876113439295479 0.006414874961007897 0.003000784105362959 1.210148974294335 -1.590488605145885 -1.037060633354697 -0.01661818181484153 1.898795651016659
4067 7 -0.003140616083096164 0.0005361374025626463 0.001461361444167694 1.209618378976543 -13.96664802597872 -3.663287489391597 3.905457876388368 14.95792544224473
4068 7 -0.00564875644153562 0.008270992956286935 0.00299609834987102 1.209869875611337 -5.894024576634547 -5.960595927005428 0.5312449940366492 8.399431573546792
4069 7 -0.007148241157242056 -0.008337476715889068 0.002508053775127873 1.209827963145217 -5.153792980814814 5.617350559115002 -0.1401110424435559 7.624686255663265
4070 7 -0.005319465006176223 0.006894067706140971 0.00249125265367617 1.209822042468912 -5.680354705237408 -9.715331606082536 0.2127135101273517 11.25608034934229
4071 7 0.0009907736756431713 -0.008878599327015797 0.001677067658897123 1.210102437392119 -2.518542352044022 1.807588187469356 -0.9905523503842943 3.25447762219531
4072 7 0.0007767309283781207 -0.008428719041470776 0.001166936530402236 1.21009168627348 -2.604560026244996 2.393728897827348 -1.338101967197925 3.782087762232128
4073 7 -0.004096068694450757 0.003913437285850586 0.0009896648872423411 1.209705438100868 -1.275821916074463 -10.64922967081715 6.935584140410209 12.77247593507452
4074 7 0.007159655231939874 0.001654966475972941 0.002454085866850191 1.210135604040949 -2.454548776046393 -0.4952759254822846 -0.08991450035536883 2.505632166485602
4075 7 0.003021643925059742 0.006736187923079799 0.002484483319020966 1.210104271399836 -2.128096110582678 -3.270047460081845 -1.002112578250395 4.028179870183617
4076 7 -0.002359896653616473 0.001155292038164753 0.001458747039403488 1.209691823847936 -15.05273671716696 -4.524166575837666 3.905695664256786 16.19590764681212
4077 7 -0.00718569229724635 0.00406585080002944 0.003006658418951685 1.209626863452245 1.397783492167582 -10.28440415108415 2.215499226307116 10.61278494343405
4078 7 0.007064089596644829 0.004839745411192108 0.00248178044072624 1.210142484040684 -2.357252243299638 -0.3059013137595114 -0.303228556245959 2.396280724294209
4079 7 -0.003377113365036994 0.003390741675583547 0.002962590574092678 1.20966980719147 -10.63277474033986 -17.66527387867966 7.955664060354039 22.10000883549099
4080 7 -0.00328682903334742 -0.01089142125292573 0.002498000263070507 1.210007276684726 -5.840594153174716 2.706231567126553 -1.430191655062531 6.594063809762642
4081 7 -0.01111092833928077 0.00175190191917421 0.002994880977093298 1.209611479311066 -0.4002013082860361 -3.146216099037698 1.874947885752254 3.684327130329864
4082 7 -0.003244319019595247 0.007974067189697535 0.002981621126770665 1.209952116231533 -8.117421048054149 -7.732389147109281 0.0719016036492192 11.21104527839992
4083 7 0.005866757370042415 0.009135484273750541 0.002461082376743345 1.210152955819036 -1.111813172642405 -0.4074884774153496 -0.4492691802064655 1.266498395723753
4084 7 0.005038968648614329 -0.009756707712250215 0.002584311588419139 1.210144788748528 -1.247347568817375 0.5268426345888981 -0.6560774666215367 1.504618476978041
4085 7 0.000728867020070494 -0.009567615545685901 0.001480573822408441 1.210106499272464 -2.083504924224358 2.721056401237591 -1.293149013045531 3.662973529514491
4086 7 -0.006528102051716134 -0.007471241336288045 0.002577392118831847 1.209814308274479 -3.61626236819922 7.153640042300826 1.001100050622117 8.078002270476235
4087 7 -0.0009036993031144407 0.008978353088032423 0.00317150147797149 1.210149268185795 -20.683213085805 -10.54241425605613 -7.145016635603352 24.28969050074865
4088 7 -0.003164849626805851 -0.009756931868991743 0.003498222009680793 1.209997636510651 -7.207123017971766 3.255698011846475 -1.006973107635147 7.972213405323513
4089 7 -0.004576225368665299 0.003691516295109366 0.002989664887242342 1.209626495200975 -7.076600673071482 -14.04817403569495 5.920535621246152 16.80720717031042
4090 7 -0.002615807697151566 0.008957358653830173 0.002460438137561886 1.210004772656972 -8.103752915235889 -5.306312794334487 -1.864610435519737 9.864306303981094
4091 7 -0.005463401285387075 0.006122350154539933 0.00349515430380515 1.209776399959287 -4.557341648358849 -10.9721825321892 1.250373546935993 11.94661401512668
4092 7 0.007316174854987333 0.001949979804491956 0.001454085866850191 1.210138165073737 -2.45364477996542 -0.497646272045308 -0.001405813069868751 2.503602703034676
4093 7 0.003888321900293934 0.006604273059534677 0.002466027758969575 1.210113671340521 -2.828589892505553 -2.960492014378731 -0.7894270261417239 4.169967479104336
4094 7 -0.002243665437301275 0.008997928014445048 0.003486777160558845 1.21003738860747 -10.40811191479498 -6.6711285434561 -3.999746481433866 12.99348766074584
4095 7 -0.007823725602812213 0.004170374744659295 0.001515958514675534 1.20965318511067 0.6538858050233384 -10.57452446077421 3.286882771803672 11.09286854574158
4096 7 -0.004315295499381699 -0.009264258046105025 0.003514152011474062 1.209942921433343 -8.212503364359542 4.299869034836052 0.4764248161082914 9.282298520935562
4097 7 -0.0007836070210205921 -0.008005886971027616 0.003479477196142793 1.210098553028199 -10.26855017645075 11.09116016027454 -7.677351838531411 16.95283715723565
4098 7 0.002371622381657105 0.008150435256651777 0.00350984695714963 1.210141200707946 2.949089594664828 -1.752435033207686 -4.828699330068957 5.92321662639333
4099 7 -0.003300776158902105 0.008527412436052878 0.00247036416045251 1.209964591884829 -7.664186457818085 -5.006795162070256 -1.852746298624505 9.34025806400439
4100 7 -0.008148253895965409 0.00330507956896941 0.00152808262617852 1.209618336028066 3.307856715092647 -5.863882999458643 1.645539987586894 6.930717259394664
4101 7 -0.003347964244187945 0.0003462291891617447 0.002461361444167694 1.209502920626973 -14.63703580741091 -4.317138280594839 31.62285283652432 35.11246675586437
4102 7 -0.007128480664757898 -0.00826778259477865 0.001508053775127873 1.209827146394189 -5.169117573900036 5.613702211033955 0.407385533784581 7.641949488193877
4103 7 -0.003813306291941695 -0.009266372960144773 0.003012374021154854 1.209962125736202 -7.131078683888656 3.176858195815565 -1.007228045393219 7.871417885461192
4104 7 0.005288585761637783 -0.009211331893785072 0.003076956543475807 1.210145603513057 -1.029586257128853 1.039136032361449 0.02721754532705546 1.463076330679342
4105 7 0.008422021440796035 0.002865820133709642 0.002465157123935096 1.210151798922792 -1.620120995972397 -0.2225814172547905 0.1346252873380527 1.640871261521938
4106 7 -0.000594162974193549 0.009616178464996093 0.00298994075820409 1.210164499060509 -10.98740410683047 9.591548402170153 -9.428172359682724 17.36695954396892
4107 7 -0.004533523296369928 0.004274974828984691 0.00349515430380515 1.209662174644095 -9.321262373706453 -17.60985829103949 4.917621387356435 20.52257394625131
4108 7 -0.002043154407330471 0.0007019349807927705 0.002964236455966296 1.209566114218801 -11.13971804539605 -5.415115445433718 27.03948483097321 29.74139427368407
4109 7 0.001060154240278744 -0.009831472215100702 0.003490965497770762 1.21017771658924 5.981567375045977 -3.40044033636863 -8.82982918837657 11.19410676379871
4110 7 -0.004233592112382997 0.003821896397216081 0.002989664887242342 1.209655558583635 -13.44404967309748 -17.78362358736315 8.3299128342742 23.79889046439639
4111 7 0.0005903315950290477 -0.009607929806874436 0.003490965497770762 1.210205622392559 11.43118684426088 -6.024850742322774 -9.412465160630992 15.98641171544642
4112 7 0.004123923597932793 -0.01006709163089918 0.002583800456280979 1.210141743975895 -0.4468150759283793 0.6141104636968647 -0.5840013469146624 0.9580359841347305
4113 7 0.006558100398770638 0.005590664036571647 0.001474283220561127 1.210140384214994 -1.682106445847279 -1.500481246775552 0.5080192758168671 2.31062970890785
4114 7 0.004762441628239365 -0.009871949830683114 0.001073669327786093 1.210141546253754 -1.115740778830094 0.5006041986317402 -0.02717982716813429 1.2232010432619
4115 7 -0.004486428430173187 0.003603860607489853 0.0009896648872423411 1.209674466403255 -7.050831514447685 -14.03125982524071 3.718732686618562 16.13751685120942
4116 7 -0.00585926054791776 0.00662343806220695 0.002994549470226701 1.209792999540075 -4.981759495296014 -9.408825358598879 -0.3361521351930509 10.65161586594166
4117 7 -0.0007928039833271158 0.008711967265503367 0.003684724317412645 1.210174150579237 -17.93171365779902 -4.828200513969647 -14.37076316989917 23.48141198892697
4118 7 -0.007483568538455101 -0.004826932683484893 0.002489100706455436 1.209686807340406 -1.182262484806408 7.766268160230908 1.179052850771496 7.943729057848674
4119 7 0.001838368674267205 -0.005556686001526091 0.003500184171939087 1.210050386746339 -5.486752618311996 4.707100251244793 -0.6681957969865409 7.260009138625986
4120 7 0.007633104176259155 0.002267013265485336 0.002973785488389346 1.21014272155245 -2.103894232806109 -0.3864442143178392 0.1952371289738272 2.147982218302675
4121 7 -0.009611553948137683 0.003136534055409901 0.003006985426766513 1.209621173771699 2.72788806817795 -6.023301753865132 2.137920736601491 6.94926200445868
4122 7 0.005919449975457946 0.009021620704853153 0.001461082376743346 1.210152002979484 -1.110541770504688 -0.4129968033253828 0.07831563977852202 1.187435355304275
4123 7 -0.002519586451693217 -0.01024799169921144 0.001577553932684781 1.210022116870405 -8.90530229323991 3.076259002276335 0.3187236000455584 9.427054848482435
4124 7 -0.004403923705895383 0.004301626060674107 0.00049515430380515 1.209732517750158 -5.988940940182747 -11.34681030785735 2.479957421584 13.06781185051133
4125 7 -0.001983813585930762 0.001238810857508635 0.003472879509169025 1.209560182017358 -31.96440167241919 -14.04097790809627 3.571068923812736 35.09450908831784
4126 7 -0.006802816117307391 -0.006941011310480167 0.003063240107357785 1.209787294695132 -3.521297354029074 6.729554436712148 0.5234451432275135 7.613174948083931
4127 7 0.000278939756913497 0.007799824795679339 0.003486741492695512 1.210141938832412 -0.9352585339494223 -15.78076263579115 -10.293811202277 18.86450971959332
4128 7 -0.008699333449542955 0.006715465939404253 0.002990746270084598 1.209745056882539 -2.925921650665778 -5.988378423362282 -0.4214131657490722 6.678269439270352
4129 7 0.004038227374322268 -0.009995179137711042 0.001583800456280979 1.210139360932214 -0.4695417877775033 0.5844531437483133 -0.1728162644462781 0.7693636519642363
4130 7 0.007051238385921395 0.004835412725113094 0.00148178044072624 1.210141721559175 -2.376022493578839 -0.3044877529216113 0.08576549038664778 2.396987985162445
4131 7 0.006259469623365082 0.002085199176357001 0.002476016223574797 1.210122658165476 -3.386550613448091 -0.1126137509542564 -0.07571580547706726 3.389268327758761
4132 7 2.787524885489029e-05 -0.006974894142004757 0.003484699105247369 1.210071668971617 -3.548727268806814 15.53767046192179 -0.6431820238085177 15.95074768552874
4133 7 -0.001400301945077693 -0.009270608674931119 0.003572030318278796 1.210110999754924 -20.16805372550138 8.901200660408113 -11.32164459922026 24.78227997385659
4134 7 -0.001617193612550793 -0.005680333977527072 0.003523877556210437 1.209913871949237 -9.855143663622284 10.42617657733411 -1.156304037280164 14.39326417735099
4135 7 -0.001143584355003013 -0.007744801401570417 0.00300335475235323 1.210054600864518 -2.222104477647449 12.30999355027819 -4.996334595692371 13.46985704859499
4136 7 -0.006508341559231976 -0.007401547215177626 0.001577392118831847 1.209813491523451 -3.446905046106603 7.288568414108526 -0.5154048051603123 8.078986696188945
4137 7 0.004237953870067611 0.007125695387391008 0.002977741826050862 1.210128491550708 -2.556813146461019 -2.656193384967846 -0.395815760111382 3.708008478983751
4138 7 -0.00249906489130773 0.002226197140706945 0.002435470083261703 1.209638836354698 -14.95463637609206 -6.13321471685484 22.65425949720809 27.82935402180625
4139 7 0.002095046934100704 -0.00836084584326223 0.001690977890164327 1.210110398821375 -2.037660046564613 2.160943713778291 -1.221660021327861 3.211571174237682
4140 7 0.0052870974626036 -0.009477747992429968 0.001584311588419139 1.210143828271516 -1.183992813171896 0.4947149428841206 -0.05689164300163239 1.28445261313875
4141 7 0.008669642215988793 0.002587283704410224 0.001465157123935096 1.21015418099318 -1.620836101214516 -0.2213330748296045 0.0853953533991812 1.638105724120385
4142 7 0.00641598924641254 0.002380212504876016 0.001476016223574797 1.210125219198264 -3.386651419466862 -0.1124089879075977 -0.0831012662691307 3.389535283485754
4143 7 0.0002873626770059925 -0.009228018800128936 0.002970442693913554 1.210173856538402 11.43088680444278 7.486342601108148 -19.0632600071845 23.45460255000436
4144 7 -0.004035217017423065 0.0008377786872405165 0.001440788097670912 1.209563680754312 -11.08115978906878 -3.634906588292917 5.220972676040263 12.77744903572106
4145 7 0.005835568842092971 -0.009881624984192393 0.002999722008576424 1.210149562111069 -0.421181327992571 0.202344142228732 -0.224082381297601 0.5182178852103335
4146 7 0.0002082938031676981 -0.009912594779431256 0.003490965497770762 1.210203503637334 2.048868146875025 -13.50697372253537 -5.597554066421731 14.7637668415298
4147 7 0.001481979615951943 0.008129341367800632 0.00350984695714963 1.21016822067824 5.721317403360458 -8.139813990132302 -2.347334041210375 10.22252521273358
4148 7 -0.0006712338973812139 -0.008864411331525757 0.003479477196142793 1.210168267151232 -22.30264288444706 8.901621888203783 -11.68703808999395 26.70643389126851
4149 7 1.717441627730609e-05 -0.008315424020697683 0.003479477196142793 1.210172834152128 -4.988965342394472 22.44296059396684 -11.75636069835154 25.82224374990884
4150 7 -0.0105780794880615 0.004115454772921617 0.003032943171534019 1.209656080819646 -0.5645843139045477 -4.627981306301049 0.6674771941314027 4.709829320014109
4151 7 -0.005450268436720133 0.006567588192705883 0.00149125265367617 1.209805130664335 -5.675326241356334 -9.719414616068365 1.235474332906622 11.32266511260234
4152 7 0.0004626568072142237 -0.007239679451754316 0.003172158439506812 1.210087521090208 1.14375916919861 10.64321002294113 -2.619122222494582 11.0202498086897
4153 7 -0.001566317275430305 0.008434049738514731 0.003684724317412645 1.210079860514162 -23.08975963304384 -4.30646612158353 -15.47032286043819 28.12496292929617
4154 7 -0.01039920960153668 0.001926514350505893 0.001492566308135963 1.209612858011492 2.199015073104376 -1.426640132243748 1.535183754979419 3.037722587765613
4155 7 0.001296326134642869 -0.006758415627113754 0.003172158439506812 1.210072212318426 -3.81392467395134 6.662158721669521 -2.273223242822361 8.006117920877752
4156 7 0.001487445430105884 -0.00596571491411504 0.002984883277186456 1.210049469647219 -5.477454927400055 5.569976329489533 -0.5527260275468724 7.83151676588262
4157 7 -0.009234258353685881 0.005676478351855267 0.002487545015949793 1.209707680249661 -2.218459852999879 -5.657621036409747 0.2457557348726738 6.081992748451872
4158 7 -0.0009315693756448545 -0.007575725097487836 0.00300335475235323 1.210056198233588 -13.46323134471618 3.923378551023764 -5.112095019643415 14.92598448966917
4159 7 0.003805279780612914 0.006650291272278614 0.001466027758969574 1.210111142119238 -2.834938952974563 -2.955524022532504 0.05088621000406419 4.095679494446289
4160 7 -0.002707488549427951 0.004786231480533131 0.00247210287450695 1.209814348054902 -9.20022112658136 -10.16699541038175 3.910330348624683 14.25842024517768
4161 7 0.004084123964164769 -0.006590424229150946 0.002548965516290006 1.210110733266329 -3.108980375204479 2.383641342124166 -0.7064633291094883 3.980778247612713
4162 7 -0.002673118541440178 -0.007807883778995587 0.003498222009680793 1.209968029158514 -10.14168984495302 9.900943638949535 -3.254754958250319 14.54221398863094
4163 7 -0.0007067823927512304 -0.009710862315962181 0.003572030318278796 1.210184165717289 -13.18614470370945 -10.02947310741638 -6.559445471828071 17.81827903747831
4164 7 -0.009997073134705431 0.00360747647100158 0.003509300095723848 1.20963682845835 2.734929696614443 -6.452842134731027 1.737953015839483 7.220768154874466
4165 7 -0.007234061107710734 0.004157618197017659 0.001006658418951685 1.209657944291258 1.173427862861727 -10.361247137405 2.758184868473105 10.78610026656519
4166 7 -0.003379266280292407 -0.01066055481131821 0.001498000263070507 1.209996300690809 -5.868842438173091 2.719819987997329 -0.3840705643710481 6.47983352638226
4167 7 -0.009693730296273875 -0.003704183009725966 0.001478103632098557 1.209648999359962 3.180807236366595 5.523752694132969 -1.233754488582098 6.492420861201144
4168 7 0.002938601805378723 0.006782206135823737 0.001484483319020966 1.210101742178554 -2.059331453600918 -3.297458621575708 0.1338512479515589 3.889986574960411
4169 7 0.001137244095995156 -0.006307629967255682 0.003484699105247369 1.21005392101106 -5.455124171701476 7.645218541696337 -1.073695343759576 9.453071880092216
4170 7 -0.002983890654677611 -0.000245386693513263 0.002966850860730502 1.209449891477377 -17.76549413247443 14.32685210567601 19.38225978859582 29.94233570617889
4171 7 0.000632260364526864 -0.008902610050062008 0.002657902028172998 1.210127827786571 1.711454265801368 3.924491643491068 -12.13646371382564 12.86951676795859
4172 7 0.005624574784880554 0.007704568989902771 0.002461122667735913 1.210146030716374 -1.196343551731621 -1.157248808413383 -0.1359134936316621 1.670010531731818
4173 7 -0.007376907242234063 -0.004588328178468475 0.001489100706455436 1.209684137363278 -1.18059576152757 7.766893490455025 1.267090255955781 7.957635236736325
4174 7 0.005585951729069517 -0.01042700080265754 0.002507077053519756 1.21014874734654 -0.529382795213623 0.1902427526140107 -0.3326669359838674 0.6535332731294091
4175 7 0.001545607865953939 -0.008784750290841838 0.001197590462754331 1.210105500859856 -2.255543564028929 2.039845491392795 -1.237019001376749 3.283087328682404
4176 7 -0.0005835559688140821 0.008673688115475602 0.002658242970667001 1.210127639892669 -11.60417021332458 -10.26165481176954 -14.01560827110458 20.89008379649966
4177 7 -0.003876642158709126 -0.008840010377414749 0.003012374021154854 1.20994966918868 -7.329688253164125 6.995478777221126 -0.1312891537538496 10.13302965815342
4178 7 0.001167755881055439 -0.01029126087507182 0.003490965497770762 1.210163698456117 6.125127726843529 -5.301060702129576 -8.415893393011322 11.68099721086952
4179 7 0.0004316098956595245 -0.008294680243187573 0.003166936530402236 1.210164824971906 -7.585094167851897 24.51318204899447 -10.67767997049972 27.79285154953944
4180 7 -0.002451733548083398 0.00208793831540392 0.001435470083261704 1.209711516834237 -15.61540123392754 -6.841335186509636 4.995202901943611 17.76504080666032
4181 7 0.007767808575933009 0.001554677843856478 0.003474896871125994 1.210142313001692 -2.128910098836789 -0.3614275075620801 0.1612626142626 2.165385342822522
4182 7 -0.0005172688356399883 -0.006891328638749675 0.003008576661457806 1.210038836737566 -8.937336465783954 15.15326340714837 -2.375697108361254 17.75221991018952
4183 7 0.001046377723802135 0.00697414982405366 0.003057357034359263 1.210090316123917 -1.108356824850598 -11.0759961515898 -3.48568173427769 11.66430978471946
4184 7 0.006860092541382547 0.006179589666205947 0.001000784105362959 1.210147508018515 -1.579255710284255 -0.9718884077532981 -0.02072956934685707 1.854466335805526
4185 7 0.009420900423196097 0.002043387114962943 0.001480467148876435 1.210159633768861 -1.455081001620183 -0.2810518131890561 0.08786113865050234 1.484577523289981
4186 7 -0.00150327447556771 -0.005162224465282272 0.002502924438695703 1.20989587515924 -9.735900985911394 8.564910075022134 0.9193300680609953 12.99963924017614
4187 7 -0.002314104609164236 -0.00999251840341818 0.003572030318278796 1.21004098356499 -11.20262741503758 2.609344873706666 -3.701890623380675 12.08352332134815
4188 7 0.007500727421487539 0.005880226853258558 0.0005093927082647207 1.210151393343121 -1.650307667529275 -0.9784986178301596 0.04415506428879085 1.91909473770937
4189 7 -0.0005885163671238496 0.006750317993289772 0.003232234394622278 1.210026057163835 -9.239797286647176 -11.0262820465249 -2.208747073483677 14.55442590082043
4190 7 -0.004984953452494494 -0.005294617481006241 0.002536395667840662 1.209756372747131 -6.064805618745159 9.988310037196879 2.292418751182811 11.90812278753899
4191 7 0.005274856880977447 0.01009079004969961 0.002500995720189455 1.210152869180334 -0.7725272238004941 -0.7683901236631786 -0.5221354477313902 1.208241333274803
4192 7 -0.0006205966951460104 0.007491540404699919 0.002203893830638985 1.210046951194397 -7.108274110755398 -7.660124005908638 -6.360578836753823 12.23364311062301
4193 7 -0.0008706833296093586 0.006178384499937381 0.001533279229967478 1.209976346467861 -8.152361288096287 -8.484010723874535 -0.02787723242704093 11.76606177421132
4194 7 -0.002052150759293385 -0.005417373074287289 0.003009357385403422 1.20987830606173 -9.12031910461249 9.003135494965345 0.1777799436873374 12.81671857454325
4195 7 -0.0003422385895835292 -0.009938881116091119 0.003062995816049558 1.210169041563159 -9.231190477072346 -10.93200265119642 -9.275490597436944 17.05163585738618
4196 7 0.01102234675225969 -0.00190058396455043 0.001290508043985622 1.210167136482409 -0.5227951147631985 -0.01339639316004207 0.06449225680310854 0.5269283125412056
4197 7 0.002909484211997091 0.007711106780006706 0.002996197386102254 1.210125258349158 -1.695354798537922 -4.260816072271076 -1.60564202075168 4.858689925633515
4198 7 0.001744765746727236 -0.005088321987629429 0.003044049193301889 1.210035836193329 -5.01230319933094 4.307172224578157 -0.2224355452561186 6.612442325343497
4199 7 -0.002802781151534228 0.005311847689100092 0.003004022883851462 1.209831979160211 -10.45827928220532 -13.48235010282696 1.580944130922419 17.13618260246142
4200 7 -0.009315707437128987 0.006574085524126432 0.002483429970770864 1.209732688121347 -2.124406774694341 -5.300577529286151 0.335341389502109 5.720286717976093
4201 7 -0.004622714703347105 -0.004136635790673669 0.002457788590286897 1.209682314906747 -4.709637196795295 14.90630716250087 6.842086376673157 17.06437287843064
4202 7 -0.002667685897445518 0.004900538399842061 0.00147210287450695 1.209836719958685 -9.156603809520181 -10.01853011833376 1.437152907525972 13.64843388583798
4203 7 -0.0002740196398931904 0.00931151349243927 0.002476682250899601 1.210142870767382 -5.564523801197149 -1.5798891377429 -16.42163606671485 17.41063197960595
4204 7 -0.001681362982982757 0.008203911975906721 0.002656419421292686 1.210031518200087 -10.98653906644022 -4.717186832042454 -2.791912600989935 12.27805637054898
4205 7 0.005670732831763043 0.008365210685696237 0.002969731270637676 1.210150177055502 -1.168616433507947 -0.9157301539277641 -0.09822832911473005 1.487909569872468
4206 7 -0.002450645018116898 0.004624277062862341 0.002968931200092136 1.209812850862922 -12.41718856376274 -9.183162584190834 0.5880930539526696 15.45519007698805
4207 7 -0.005314983375653909 -0.001127090198914089 0.002945295475614325 1.209347399180276 -2.496661845152465 5.885296671927632 29.97511995131534 30.64927166151564
4208 7 -0.001957174496500381 -0.00854892557656365 0.003498222009680793 1.210050887526237 -17.63296049449039 5.163748991966036 -0.6255298229774615 18.38414770969063
4209 7 0.001454181551406052 0.006683696990732453 0.003057357034359263 1.210082316356472 -3.01886118386218 -7.717451681466952 -3.425865886654899 8.967114384045328
4210 7 -0.005479292462501092 -0.0009186740817370853 0.001416079075914814 1.20952512118844 -1.578073434241042 4.357177853997209 5.050274769474646 6.854238824436542
4211 7 -0.002842470557220427 0.006962362258899958 0.00298808961773601 1.2099250080747 -8.564392258690932 -8.649952523708739 -0.1226940040421926 12.17314861659744
4212 7 -0.01161620544150324 0.001220535592106054 0.001500066027638222 1.209616866094654 1.137891023104738 -2.141853930696924 0.6683282142553233 2.51574975760188
4213 7 0.000313269014194496 0.009425038676655707 0.002989905090340756 1.210186327068631 15.41585246094883 -3.31581516502096 -14.27292555570563 21.26874564296259
4214 7 -0.0009665149502390715 0.004351522671573082 0.002443353437833536 1.209889075024418 -10.14557797651402 -9.728649335585454 0.6030085849758345 14.06922136174807
4215 7 0.001393842502565915 -0.005497350900218378 0.002528748298549258 1.210034919094209 -5.093170677390227 4.261214844754024 -0.3124154775863072 6.64800292815934
4216 7 -0.0001455992470554604 0.007756114399453959 0.003171465810108156 1.210111238715547 -5.899306511468172 -20.94410840727622 -12.70345140819618 25.1959356240722
4217 7 -0.01110059930396505 0.003827010586444001 0.002525626872220322 1.209652416894917 -0.4380727579472745 -3.468395041504984 1.870694699742693 3.9649931355347
4218 7 -0.004650434725473717 0.006142533661136471 0.001495029161669433 1.209812351121397 -8.07988765728985 -8.747002885452051 1.570795971407331 12.01091353795876
4219 7 -0.01050236379804797 -0.004100323536271492 0.001456010233791723 1.209662527161784 -0.7653512065927457 4.470463140745906 0.7054195171898319 4.590034842725386
4220 7 0.003659804580559658 0.009930558971285494 0.002508706616753896 1.210148320075716 -0.356514625943026 -0.8625163524539992 -0.9486836452534809 1.330803439856269
4221 7 0.001902895665505472 -0.0069296944469908 0.003687459334259444 1.210093051981429 -1.744679876704177 5.422696600144238 -1.677996752874987 5.938452609228381
4222 7 -0.003072234516661144 0.008360836322790138 0.00147036416045251 1.209963277283655 -7.63289378025586 -4.994165296687091 -0.4343142402591162 9.131888267526827
4223 7 0.003814001721279834 0.009792281311549259 0.001508706616753895 1.210145326334585 -0.3565583926169407 -0.9007903459387945 -0.05625689187518104 0.9704236047034126
4224 7 -0.008066566327262728 0.0072577199804626 0.001490141436506148 1.209776065119215 -4.261088069667493 -7.20066084150507 0.460647318991775 8.379652978754041
4225 7 0.001523787039358112 0.007634120132517583 0.00350984695714963 1.210141640572472 5.915005757932188 -11.01593633265564 -1.307983426012168 12.57175274352053
4226 7 -0.001677212595217629 0.008700435561043789 0.00317150147797149 1.21005497812072 -12.82693122449167 -6.220174941029595 -4.458924363701119 14.93662436483087
4227 7 0.002253096999616201 -0.006587779393850158 0.003187643506198531 1.210088600617587 -3.156775170236608 4.680836439346677 0.1873832477503357 5.648944302157306
4228 7 -0.001905185049375841 -0.007983175034549631 0.00302209956589123 1.210023486967238 -15.7476809936351 10.38132733873399 -2.535112141537406 19.03124293264663
4229 7 -0.009605647882395577 -0.00338071188715083 0.0009873937382996619 1.209639987816669 1.480918207996531 3.197327185948113 1.839458120694115 3.97487434399706
4230 7 -0.0006074644698225921 0.006772665812830976 0.001032428020530829 1.210009221308987 -7.151989046152837 -6.383802629579087 -0.9699536238506168 9.635595122364366
4231 7 -0.001869113563425848 0.002043564565048158 0.002940959499824512 1.20966120788365 -32.38042577296513 -19.67256677330539 3.665378462412316 38.06490320441364
4232 7 0.007727445436053901 -0.0004116891777048255 0.002462790639236426 1.21014040739892 -2.482844293864111 0.09757270092194875 0.05835134871263021 2.485445855261258
4233 7 -0.002387266054910605 0.008790782540567433 0.001460438137561887 1.210003458055799 -8.099749400828721 -5.311759676255052 -0.5314398518105312 9.70067830260373
4234 7 -0.008340362398788189 -0.00503820004556679 0.002490878058822065 1.209689940290884 -1.283534428321509 7.743476282855678 1.198781666024453 7.940148805572309
4235 7 0.00403885299933723 -0.006806962883974994 0.001548965516290006 1.210111140974062 -3.047599809342471 2.503876544054082 0.05344901204606304 3.944631686565576
4236 7 -0.005101599642625926 -0.005177679354744938 0.001536395667840662 1.209754009927581 -6.143670100286399 9.726425794807794 0.6321643487079091 11.52161762977894
4237 7 0.001646527468753597 -0.006416500573973112 0.002672342611445899 1.210067760954585 -5.661533348454419 6.186366558898548 -0.5405398700152286 8.403348999523692
4238 7 0.007071939623411638 -0.0009781777887168525 0.00247385658152717 1.210131550981096 -2.67384044405078 -0.07151831995764388 0.1061408370144855 2.676901841236128
4239 7 0.006208043356453038 -0.005889218022509176 0.002471720901079763 1.210134147038241 -1.761608671560166 1.252957803482082 -0.124821669682739 2.165351892474985
4240 7 0.006631173573823151 -0.0005103173416374925 0.002966263191877585 1.210126230084741 -2.191012135176342 -0.1222692280260856 -0.371593452241101 2.225660718609318
4241 7 0.004740341793315768 -0.005572199690233951 0.001484733830674436 1.210110642728435 -3.446420745084879 1.34567677300762 0.06018701912565425 3.700308690749307
4242 7 -0.00547209398541287 -0.0007262929250593911 0.002416079075914814 1.209421149985926 -1.833866559596421 4.443197237482083 30.99056209070978 31.36112253966227
4243 7 0.004443418305763971 0.006621549099147772 0.003491391397098238 1.21012541025103 -2.657622977277064 -2.622236881094731 -0.4778329333428663 3.76396206969617
4244 7 0.004071856952019848 0.005938713752273117 0.0009796773300169499 1.210106307623307 -3.362182775336692 -2.003398297128992 0.3238003838836784 3.927177668544333
4245 7 0.0005492693325786697 -0.008539002581458833 0.003166936530402236 1.210169794658056 11.43084843853461 -7.426372303550106 -22.94773621248008 26.69108275985174
4246 7 -0.0109817148698547 0.001564658998285327 0.0009948809770932981 1.209618458145183 1.2443858174663 -2.071320039504869 0.6607588206530552 2.505087820384056
4247 7 0.008037244574499369 0.002283490164704932 0.0009737854883893455 1.210147664655626 -2.088616928960581 -0.3716458685854441 -0.1251988453033399 2.125115544727544
4248 7 0.004643318032245069 0.005398932656463828 0.003473499115198168 1.210117432749521 -2.96418398612625 -1.328088519120727 -0.3276793771176908 3.264594858847853
4249 7 -0.004242565178514845 0.0006478704738396149 0.002440788097670912 1.209448222404742 -12.19509695070746 -4.266103072412711 31.56806905450229 34.10957356654329
4250 7 -0.0008043753484111611 0.01095208225380526 0.001498002406180887 1.210091829139699 -6.343429562828536 -1.055512974257504 -0.971844283860263 6.503667240062703
4251 7 0.004622451938011168 0.005520318957388051 0.001453176445215118 1.210112641037685 -3.686327434708811 -1.414096810754172 -0.02310930322622478 3.948317842571386
4252 7 -0.007222406879439526 -0.004151869835929759 0.002987843896313062 1.209641956211607 1.152702258073034 13.43058359478748 6.15777228489643 14.81983325496545
4253 7 0.001134251968399727 0.006308034471720022 0.003547510077209633 1.210066083065382 -5.615569725841756 -9.295405389865488 -1.270217093663792 10.93401281199023
4254 7 0.003299944611760866 -0.007107314864251738 0.001559885882191843 1.210105819074858 -1.81679827276462 3.285748685987078 -0.09220285009768679 3.755715878092011
4255 7 0.001401137302102682 -0.00925864129943307 0.002688555960525092 1.210141642372946 -2.372218529108902 5.214514202347301 -11.21682478927751 12.59506798193959
4256 7 -0.004618018713117975 0.009545959431061738 0.003488743033681845 1.209941634968905 -6.334135534908278 -4.577742102567423 -0.1660920865281716 7.816942005248181
4257 7 -0.001754682932263326 -0.009055055086311214 0.003070252327959589 1.210065013304607 -13.34440073388989 -1.160807807823528 -2.95337553093625 13.71652043122009
4258 7 -0.0005066783453150693 0.003206281450222106 0.001415381737565913 1.209876241028481 -12.36486521373697 -4.407456399404055 0.51176775583936 13.13687443429552
4259 7 -0.009399989911679897 -0.004147072238947581 0.0009896212486796905 1.209658950362465 0.03598334827067946 7.074415798572695 1.201041605552034 7.17573373465841
4260 7 -0.00516719368518518 0.003584049998169189 0.002510762086654348 1.209618329307546 -4.226207520869473 -12.37730805962452 6.11420316310127 14.43752281840542
4261 7 0.004720099719230569 -0.005366541778146283 0.002484733830674436 1.210109560602779 -3.451921371181621 1.360583010332734 -0.3448526006096337 3.726374994142929
4262 7 0.001979125804289671 0.01064644242281101 0.001495678492671656 1.210139360505106 -1.3208886958138 -0.2519999945182859 -0.6153424330194549 1.478816166343944
4263 7 0.006232918567684364 0.002697245965869397 0.002995715845113951 1.210124042865792 -3.069241717154285 -0.6627872145888659 -0.5630422506408279 3.190070247839276
4264 7 -0.004071817811219192 -0.004242407373868078 0.002968856048854631 1.209692737823237 -9.590424008472585 12.13982212556884 3.157871376030512 15.78998624224514
4265 7 0.003403599975496865 0.007701572630874445 0.003486350428952624 1.210132402860055 -0.9371636162528267 -4.536168053035019 -1.299761675224531 4.810870676019682
4266 7 -0.008023748908385675 0.007204390027694717 0.002490141436506149 1.209774317649214 -4.262458082674529 -7.181387775817108 -0.1992362958128245 8.353476784835284
4267 7 0.0003620721037981776 -0.007990015270630754 0.003166936530402236 1.210126805400297 -5.562901318969559 19.926697850904 -10.89629335816685 23.38265098899281
4268 7 0.007671456541989415 -0.0004834722616805752 0.001462790639236425 1.210140010119404 -2.482861551602029 0.09742920160407406 0.05552675232693893 2.485392756481924
4269 7 -0.0008869691744344892 0.006404585494514746 0.002733085604058926 1.209992509353855 -7.151243498246949 -10.06427519384673 -0.1470542244331244 12.34712694085638
4270 7 0.001429907976660851 0.005871800826647015 0.003035796010128345 1.210055804560435 -5.653872738490384 -5.69857863048189 -0.2419699923070496 8.031103587179453
4271 7 -0.001459546471456507 0.006649272833565542 0.00267049347017049 1.209978781713867 -11.04421997540928 -9.100355668095405 -0.1833712340574297 14.31170476080838
4272 7 -0.005035181491101332 -0.001633190037502602 0.002945295475614325 1.209388921421142 -7.950191024260729 17.63806528149408 27.97263344801629 34.01139671071393
4273 7 0.007712723069703444 0.005130042843750856 0.001008281325528072 1.210150461032913 -2.12521993813118 -0.4085664006043538 -0.03657057209935231 2.164445355253112
4274 7 0.005834080543058787 -0.01014804108283729 0.001507077053519756 1.210147786869529 -0.5213477923141755 0.1858904891878986 -0.1913413216609963 0.5856366586001578
4275 7 -0.001802668652102315 -0.005195804450986553 0.001502924438695703 1.209886195160475 -9.728596547936407 8.548096094616449 0.6707792773203942 12.96786345063055
4276 7 -0.006578151049738715 0.009123183042502321 0.003010156602608703 1.209865455181411 -5.598620594716489 -4.947634486008699 -0.5196400759864457 7.489570440238704
4277 7 -0.001923004563540707 -0.004146983517938056 0.001497903328522168 1.209824268852672 -10.45718946387565 11.29517281898483 0.8223367651088368 15.41460276002516
4278 7 0.008958420915566956 0.005421786727688073 0.001000764343810471 1.210161688346452 -1.174209114074475 -0.4103805774512325 -0.2549428433710515 1.26971458025451
4279 7 -0.005881121925270957 -0.00760254082435695 0.001076135308689473 1.209835663928042 -5.074218286765917 6.95300244426269 0.7450007864148623 8.639847243061149
4280 7 0.004925609598866474 0.01013035893668231 0.001500995720189454 1.210150089714333 -0.7517667207981958 -0.7942159180575118 -0.05090629476795855 1.0947710161685
4281 7 0.006673076435343941 -0.005751982240870222 0.002989253839571604 1.210138324152935 -1.994309997005123 1.045932674274967 -0.2475651018773487 2.265510097734746
4282 7 -0.002538217840215445 0.007484517090306252 0.003484917943321196 1.20996607965776 -9.899297982685933 -10.29905612759667 -0.8525699092644995 14.31060911071152
4283 7 0.004357943205118873 -0.002245268030810641 0.002458342093180272 1.210084060861411 -4.426268790974615 0.6884857476208663 -1.029952756161532 4.596375823902749
4284 7 0.008433606384454197 0.004953995435699752 0.001499652961073823 1.210156769926778 -1.606436648587595 -0.6273066885965518 -0.08307343327149967 1.726572785259524
4285 7 -0.008233701102567152 -0.004799595540550372 0.001490878058822065 1.209687270313756 -1.283958626443787 7.743408147701555 1.213770301202658 7.942427704448548
4286 7 -0.005135575569559216 0.01010176175885377 0.002999504469868997 1.209937809101749 -6.260365657803044 -4.744151693882843 -0.1184515534747075 7.855773942425518
4287 7 0.0001638933343003574 0.008281936385089339 0.003486741492695512 1.210184624074542 -0.4883615796107191 -17.73944727173874 -10.7173025286231 20.73130627889304
4288 7 0.001413208356769152 -0.01095903081244592 0.002507874333850939 1.210133000840779 -1.36279317980916 -0.03121901912885815 -2.461168181475065 2.813454939321938
4289 7 0.004530794048509369 0.009939733193931431 0.003009644614083785 1.210152167802677 -0.2364600711753029 -0.8970378627288299 -0.900372595558028 1.292772641751533
4290 7 -0.0007453729558320825 -0.009270608674931123 0.003051507514421589 1.210153846468775 -22.89925275254827 10.1409408214229 -11.24005737702026 27.45092616301676
4291 7 0.007286679386465413 5.617126937453447e-05 0.00295519724958684 1.210135086502564 -2.456482869316355 -0.5162791771816588 -0.4238914384435597 2.545689735144846
4292 7 0.001051410764102904 0.008186102954278693 0.002996588449845141 1.210153280746448 -1.895825131792819 -4.471525005122485 -8.343480051539148 9.654136324509023
4293 7 -0.009145241723116137 0.005652437309376259 0.001487545015949793 1.209709954524279 -2.213146431826253 -5.645143167663568 0.492811585811541 6.083462975249708
4294 7 0.007015950729347153 -0.001049960872692602 0.00147385658152717 1.21013115370158 -2.672008158999957 -0.07224725320427118 0.05352209854522485 2.67352050345431
4295 7 0.004263990089883503 -0.004829172365060996 0.001484263701179643 1.210094857332797 -3.79474109022361 2.135749655317649 -0.3128925247985381 4.365705929640215
4296 7 0.007310585330425164 0.001175402762335498 0.0009551972495868398 1.210136543845793 -2.461183433350543 -0.3092479795030066 0.2076288550518737 2.489210305875341
4297 7 -0.001458436721773393 0.006175361491286303 0.0009857691527578453 1.209950846272556 -8.11764179383578 -8.475783172617957 -0.003097537335006309 11.73605633409284
4298 7 -0.009539565517293796 -0.003113662038492382 0.002987393738299662 1.209621575182614 3.459145961233904 6.04163001810175 2.291631929778306 7.329294710838719
4299 7 0.00646512265569717 -0.005253059457770467 0.003502082597227189 1.210134753569513 -2.02426133014305 0.6417877623225828 -0.5523471140267613 2.194222595579863
4300 7 -0.00784302018376235 -0.004096759105918011 0.003498911354880796 1.20963255992763 4.780313114651847 11.58387715499271 2.634459478041027 12.80538871559605
4301 7 -0.001395553630648563 0.007166923091432456 0.003169642260733841 1.210010235751629 -9.311641910734517 -10.61321055197702 -1.663724731240796 14.21671176030822
4302 7 0.0005858294173914907 -0.007643418900346054 0.003687459334259444 1.210129007302177 -5.984630690114677 18.07906135140407 -11.57815447773298 22.28725925175958
4303 7 0.0005459311261617083 0.009075246034188678 0.003486741492695512 1.210208758188825 9.355070897376496 1.517663250508091 -16.32115821335906 18.8732842574466
4304 7 -0.001625402266686483 0.01143956410860084 0.001471195732725476 1.210068469254765 -5.702953416314794 -1.170477597169792 -0.8674470686235179 5.886098868605291
4305 7 -0.002016648354983223 0.01088289606876464 0.000963134084748679 1.210050087090933 -5.996550596627624 -1.318732472698073 -1.091200765547257 6.236055925277964
4306 7 -0.004971171801527336 -0.0004034688286610174 0.002946277514233721 1.209333551657346 -3.266892158432469 3.222590508638228 29.72657523071245 30.07867930791509
4307 7 -0.01087767680753629 0.004172592789644795 0.001525626872220322 1.209664675138468 -0.4681693978913858 -3.346900881835486 0.1818969567067613 3.384378022741005
4308 7 0.002449789158835379 0.008495327353447364 0.00300890895981974 1.210136187467512 -0.8150949460612734 -3.509709518703267 -2.310728169084586 4.280409483702693
4309 7 -0.0009800526691250877 0.008216749576696806 0.001458436596575553 1.210045114466622 -8.149700564501266 -5.298107575118046 -1.605019194534163 9.852088600057277
4310 7 -0.0006311795202285294 0.003792178044479106 0.002942502228396888 1.209881905866835 -11.0206444225869 -7.611230653149252 -0.2993648381516804 13.39683002993082
4311 7 -0.007888985928000594 -0.007839170199789147 0.0009939017636538116 1.209796430640127 -4.283853242912093 5.487925966821297 0.8329589533949231 7.011601146825217
4312 7 -0.0004592189180230536 -0.008424157690494705 0.003479477196142793 1.210157090296979 -17.1141331802813 19.67516338105879 -9.95832472375467 27.9136855303542
4313 7 0.0003810750921274091 0.002873623322423356 0.001438105467534359 1.209925403274006 -11.96102582460556 -4.618558339509957 0.4541334239381661 12.82978788129702
4314 7 -0.0009307038068558478 0.01078829496404849 0.002498002406180887 1.210099880968156 -6.271084499867543 -0.9865123885970327 -3.980427139998211 7.492897150913572
4315 7 -0.001628899150771337 -0.00433733991044897 0.002979046882485266 1.209841041657272 -10.92278629858258 13.04232708979527 1.084406906191593 17.04656841654375
4316 7 -0.009591826037570307 -0.003641834855519743 0.002478103632098557 1.20964384849959 3.100582425020959 5.510914264808561 1.762981230498183 6.564441349232104
4317 7 0.006874345745726597 -0.004827951798652386 0.001525046840816286 1.210137031580921 -2.599594961394839 0.4888923150168748 0.1321005458529708 2.648463745873567
4318 7 -0.004272381550653316 0.006261786212306239 0.003503171674414813 1.209826112385297 -8.495804422572501 -10.40966716009076 0.5562883510396383 13.44802289929553
4319 7 0.004105371115952781 0.005149453241191078 0.00296178504811688 1.210103737789386 -4.015579114280794 -2.571458875060622 -0.3819792615627322 4.783637164902893
4320 7 0.002372941577976794 -0.007055593533661894 0.002681030933608526 1.210099207482368 -1.647230899214368 3.273505468465268 -0.7410081178694687 3.738756573801915
4321 7 0.005632673518938527 0.00803207560657257 0.001461122667735914 1.210146940987568 -1.197351250894012 -1.160751360729128 -0.304389012405217 1.695183296969682
4322 7 0.01124779818001182 -0.001399493020679154 0.0008073680927548333 1.21016811279133 -0.5121848902169908 -0.08099721723678982 0.1331599125693908 0.5353741432700896
4323 7 -0.001106325023984489 -0.005293014338612148 0.001017444609502719 1.209924277920813 -8.469030873081612 7.724848913058636 -0.4003518216871055 11.46987603420023
4324 7 0.001892660094706596 0.01079840148722254 0.002495678492671656 1.210147052466797 -1.341164493028234 -0.2607266850088957 -2.434531294139425 2.791709731290056
4325 7 -0.006372437528522703 -0.0005626986726494674 0.001415347369735696 1.209518480634203 1.640010515063305 2.828101081768292 5.094837678611644 6.053524691418882
4326 7 0.003114449155218424 0.01097990874663479 0.001515809080157572 1.210146264181128 -0.7552143776441995 -0.4050502475201277 -0.6118430142648907 1.052979740223609
4327 7 -0.004664689575571147 -0.004621471750408853 0.0009744123706252502 1.209740268737966 -5.995500296470974 10.2766920528917 0.4062480088542252 11.90468230570009
4328 7 -0.003310603847535913 0.007206931804570189 0.002484792801185479 1.209915503558121 -8.325093077486686 -8.88341643918254 0.08047165257413358 12.174922507664
4329 7 -0.0104004595393444 -0.004037975382065269 0.002456010233791723 1.209657376301412 -0.7685425785823078 4.46996521888672 0.8356073494023264 4.611885340674259
4330 7 -0.0003808291526643813 -0.009498627475060063 0.002542473012192351 1.210138722314645 -8.331803613731489 -0.03056265930361662 -16.91545460565279 18.8560995449704
4331 7 0.002554045798213652 -0.008296178581043225 0.003493387427409996 1.210132787001584 -0.3666773438371004 4.313524569224725 -1.284904769164085 4.51574210397465
4332 7 -0.004765496837885684 -0.002041931159478679 0.001428671695275971 1.20957448908163 -3.998180439074166 9.569442950940958 4.344987908338177 11.24449221344894
4333 7 -0.00686195647407449 -0.006788549722472209 0.001063240107357785 1.209784471614726 -3.466684234834721 6.254920161882735 0.4203491000705977 7.163701500028383
4334 7 -0.0009575641883649084 -0.00627069702745655 0.003523877556210437 1.209980747393529 -9.795146333147777 11.68833486047349 -1.585529955171087 15.3321873435294
4335 7 -0.00514985498897973 0.01019174538481898 0.0009995044698689966 1.209936608971535 -6.000829564258848 -3.897755624651089 -0.5789697390683753 7.178973487034141
4336 7 -0.0009844487099630221 0.006980066221708516 0.003684724317412645 1.210024731436829 -9.463690720760692 -10.60534881656563 -1.70607724133642 14.31591998904185
4337 7 0.001780954933884132 0.005462729075080896 0.003488285932918712 1.210055527515796 -5.660812250396184 -5.047629026317458 -0.4458176477371308 7.597506663148899
4338 7 0.005294781350856924 -0.003150271991901685 0.002470042342657294 1.210106778865446 -4.384055352259911 0.6341349102637268 -0.2122949604650731 4.43476465737843
4339 7 -0.0005797168026088558 0.003038180081669453 0.002415381737565913 1.209863012074847 -12.37167660116927 -4.405213097455923 1.163643707989555 13.18401877414698
4340 7 0.003623591138631733 -0.004958857311950665 0.0009821811039524534 1.210081924650777 -4.046813162267367 2.224005910586319 -0.5807985596613826 4.654054794212035
4341 7 -0.004468603806471785 0.009027031395202431 0.0009854462171313139 1.209929604768681 -6.439280234977847 -5.332593094874281 0.1408334762038221 8.361860625966978
4342 7 -0.005537071597432707 -0.009894380216407043 0.003020109240060565 1.209913767784951 -6.107077275103208 4.679512507537101 -0.3844626938245699 7.703378590931451
4343 7 -0.002248537578346619 0.004514322399169195 0.000968931200092136 1.209839243168135 -8.722085716758034 -10.09387978420124 0.9912919992231272 13.37698950347592
4344 7 -0.002232915540598213 -0.007575045093631158 0.00302209956589123 1.209976046934546 -13.35631058557369 9.36802920145227 -2.591453473832311 16.51867533080688
4345 7 0.00518145662537834 0.009461464830374989 0.000977701535058294 1.210149027687342 -1.043706246559967 -0.484505704137229 0.1171931912352648 1.156634233680515
4346 7 -0.002975455683104815 -0.006712154945647477 0.003011215664094502 1.209904745452831 -8.221124580398365 11.2009420229363 -0.5678798580585281 13.90577143134458
4347 7 -0.008512073290848483 -0.004456989457021868 0.002989621248679691 1.209661800133957 -1.274560312163895 7.738914265036197 1.190247727994601 7.932968400600141
4348 7 -0.002744724538304563 -0.006217369545089276 0.003009357385403422 1.209888843702696 -9.327155866938361 8.716529643025368 -1.100470202025203 12.81346012010214
4349 7 0.0002388994936209106 -0.007586275822039016 0.002651635635649605 1.210085319188328 -1.616897584192222 5.803099990576928 -6.601047307352654 8.936674596980037
4350 7 -0.003649697172061378 -0.008013426040568946 0.002985560117564857 1.209928438655468 -7.756896313973781 6.754604057365385 -0.5577886690402769 10.30074000238947
4351 7 -0.003978459060205148 -0.006001512326393658 0.002972817937077048 1.20982248132669 -8.58352134334743 10.0738387767127 -0.08559253735232999 13.23504410394433
4352 7 0.004881033908290025 -0.002800201546508852 0.002967959745430105 1.210098783092257 -3.54541082995138 -0.3106535956817275 -0.8981592834501088 3.670576754148336
4353 7 0.004960094311537437 -0.003322540369835369 0.001470042342657294 1.210099259520404 -4.393033627733062 0.6419326330377688 0.09267799586685689 4.440654362891825
4354 7 -0.00327197247373386 0.006678935313239584 0.003503171674414813 1.209891796088863 -8.981609013411923 -9.165443413100229 0.3121131457385333 12.83635727316311
4355 7 -0.001775138452202344 0.006911237216536391 0.003484917943321196 1.20997762769193 -10.88303116012639 -10.5302875614482 -1.122296584922557 15.18508719051693
4356 7 0.0008522382506017262 -0.00843026891166181 0.003687459334259444 1.210197262975646 11.43110788658786 9.348761864946518 -5.48227298157197 15.75198060457044
4357 7 -0.0005355133197437282 -0.007345934030091926 0.002488053857600599 1.21004937620487 -8.127979679572842 8.089946356770312 -6.860998340929966 13.36355431616956
4358 7 -0.0006904181200510778 0.01129919399329212 0.003011225245622042 1.210117129551658 -4.042337700498652 0.3188559847915786 -2.107597692118965 4.569915891538412
4359 7 0.006661834579400037 -0.005463578024164592 0.0009892538395716039 1.210136765121872 -2.270773416733432 0.7824124553687368 0.2690219400643766 2.416806563359046
4360 7 0.0003007326039197373 -0.007508296015692269 0.001651635635649605 1.210061799794011 -4.351366392682653 6.710104302723948 -1.472542186385281 8.131929028679901
4361 7 -0.004339736767036109 -0.00408416445249594 0.001457788590286897 1.209710013738222 -4.740751468701641 14.87048125298791 2.38618167829379 15.78923051276682
4362 7 -0.001839131293010287 0.006393586958669477 0.002985769152757845 1.209946173654167 -9.74845581071477 -8.833217908013212 -0.4214169823194641 13.16190417746958
4363 7 -0.007963998137856296 0.007894530511876423 0.003004580216966471 1.209799969364422 -4.024190997089338 -5.962220609717734 0.3038770044015438 7.199620060378315
4364 7 -0.002611657309386438 0.009453882238967242 0.00297552019424069 1.210028232577605 -9.116488963791415 -11.28720396013983 -4.075138349764551 15.07043784481555
4365 7 -0.005575567141255246 0.008212002382996852 0.0009960983498710201 1.209869461773001 -5.917151402142723 -5.642615559532768 -0.5399303881531217 8.19410250684064
4366 7 0.002113971237542895 -0.008172487785993512 0.00318084676166944 1.210124521227298 -2.61663006109145 2.947234079725348 -2.193744730828941 4.510593923347757
4367 7 -0.002626099988822813 0.004179378354881329 0.003468079990655487 1.209773282260547 -11.54640788764776 -11.0928037529976 2.631306734746321 16.22632445573469
4368 7 -0.001195217861986627 0.006769642804179898 0.0004849179433211965 1.209983721113683 -7.298741316905837 -6.405239279284673 -1.086545361790623 9.771350769429388
4369 7 -0.008164655217335844 -0.005355238549332911 0.0009919667039412689 1.209711691837631 -1.911764563271283 6.896633309073237 0.2110987598375677 7.159815460722663
4370 7 -0.0007034262265766534 0.004132474660637285 0.001443353437833537 1.20989779311389 -10.12442241275109 -9.803674112776548 1.688969985531342 14.19396262195189
4371 7 -0.0005160603382766272 0.007437933474756154 0.001519169513226341 1.210039165912352 -7.398699001937139 -7.03078956954229 -1.243361453741829 10.28195976441754
4372 7 0.0006309303416252806 -0.005157905521998371 0.002522131179902452 1.209997123123224 -9.170545974061444 6.690537181619148 -0.01326271610143609 11.35175656630467
4373 7 0.00416507832910936 -0.006184638283308559 0.0009826512334472465 1.21010621545751 -3.211206379038377 2.00959451264768 0.306902314268675 3.800592788571791
4374 7 0.002960120054030405 5.480721832668104e-05 0.002416435052540253 1.210029748975239 -9.056737138782927 -1.040388487562228 -2.118965410193151 9.359322102356399
4375 7 0.004638323305043292 -0.002652594635503863 0.0009679597454301052 1.21008892450609 -4.639025905290762 0.9218279103347444 -0.05191349016956542 4.73001300808914
4376 7 0.003441867503417575 0.01031054227782883 0.001022356187801271 1.21014503468345 -0.8967473447603357 -0.2398991210114625 -0.5564462842571708 1.082284554015438
4377 7 -0.0005113789178688947 -0.00575936130159307 0.002502143714750088 1.209970109808849 -7.467156986287215 7.108640650417176 -0.4744506769647556 10.32067385394451
4378 7 0.001592723039936851 -0.005565053300683083 0.001528748298549258 1.210039617126583 -5.094549077110497 4.282734519156501 -0.5196757543163486 6.675800188013895
4379 7 -0.005244393228869224 -0.001591166923394053 0.0009452954756143245 1.209559436200893 -2.512610731852234 6.351234783115587 5.824601741322378 8.976490483763239
4380 7 -0.00625603438471494 -0.009420058311672124 0.003020109240060565 1.209879976340921 -5.654444925229391 4.390939652514906 -0.3762394736809381 7.169006527130231
4381 7 0.005960530473297193 0.00179089297035631 0.0009771276063114454 1.210116100773508 -3.514977856348897 -0.1890962470491623 -0.2411070401705355 3.528308281045033
4382 7 0.001082319477668873 0.005485171415685303 0.002510218247869746 1.210031552866318 -5.96237325840124 -6.308419239595067 -0.3369441490317799 8.686747350680701
4383 7 0.001749837559667176 0.006247463345659447 0.002545642967277975 1.210072037851525 -4.871371105150827 -4.034249488640126 -0.5643842544789993 6.350114563328392
4384 7 0.003926485632401293 -0.009394724036091507 0.003076445411337646 1.210140389667603 -0.5433501526105097 0.6988844956755685 -0.4632312630740325 0.9991256826479445
4385 7 -0.001084589025994471 0.008270356506640569 0.002143160913988198 1.210052899748667 -8.140069446496424 -5.283660403682633 -6.330859349710758 11.58695723479846
4386 7 0.00156441900112587 0.006495289442608831 0.001545642967277975 1.210069370440752 -4.877932224486329 -4.033225182956919 -0.63342736579404 6.361002939069969
4387 7 -0.002914638836096738 -0.007066001643493303 0.003011215664094502 1.209924272585014 -7.660643229484819 6.835904242103126 -0.5582143296510543 10.28234626602717
4388 7 -0.004197229507558901 0.0002402683001159145 0.0009462775142337207 1.209559653352425 -10.12865927846826 -2.81803888848457 6.563862026565802 12.39416663838699
4389 7 -0.001299270087161512 -0.003748605537009108 0.001012423499329184 1.20984216448083 -11.71572746661597 9.785209258847598 2.373251362854301 15.44800674335516
4390 7 -0.002544450273376516 -0.007477654071798006 0.00302209956589123 1.209954220824731 -7.666384727421701 6.842932351358672 -0.5600069685185162 10.29139377144346
4391 7 -0.008529286739116694 -0.007851133697545936 0.00150482198052527 1.209782301003811 -3.209566576884255 5.343677050201052 0.5591484046745768 6.258502134436646
4392 7 -0.001026925727051587 -0.009135020006456884 0.003051507514421589 1.210114229528096 -20.85134618398871 8.901224416861632 -11.20331440124064 25.28882534592938
4393 7 -0.01085585426152806 -0.00349559170710576 0.0009653003399928278 1.209649294973553 -0.3211680985170799 4.233162079097426 0.9123534889567986 4.342257365037817
4394 7 0.00216377506748502 0.008502518606463427 0.00300890895981974 1.210140717880056 6.154547171958517 -4.101046981629445 -3.754272029906126 8.294069912409109
4395 7 -0.005442191974438822 -0.00757629592625089 0.003076135308689473 1.209844263809847 -5.323684323384089 6.996453573317445 -0.3759572069785511 8.799620514551242
4396 7 0.00176637204711419 -0.006884314713784847 0.002165730038855895 1.210078367819365 -4.801621593354571 3.717246490235375 -5.628591750237522 8.279766692714112
4397 7 0.0115728824148216 -0.002434789670251857 0.001260076347435861 1.21016853793841 -0.4892931894078014 -0.05588008592209395 0.07483042162940629 0.4981264911694156
4398 7 -0.008989499401221616 0.0004862994255446242 0.002976959484161108 1.209528622414737 6.413351974744938 -0.9886470554030046 3.886201320427489 7.563799789458614
4399 7 -0.01152756689549262 0.001300432653654477 0.002500066027638222 1.209611361823868 1.150687747584811 -2.12183192926181 1.546644678126198 2.866768701666179
4400 7 -0.002951875690038063 0.00366830610759353 0.003468079990655487 1.209710905666571 -17.0177145379795 -17.93511406430609 2.909258532116554 24.89447147064026
4401 7 0.007534664689455581 -0.005028166812781771 0.001022964243589096 1.210145552838536 -1.977317098474762 0.5234219727336568 -0.2039231509486647 2.055562726105403
4402 7 -0.001751730725131169 0.01127577681884407 0.002471195732725476 1.210076521083222 -5.509506956575232 -1.120524667030734 -3.955657068203005 6.874406539854885
4403 7 -0.00276072510139958 0.01058074399088854 0.002451877118430524 1.210030186500105 -7.567872963229996 -2.109347204471166 -2.103433097108537 8.13304848200289
4404 7 -0.004937332054162493 -0.002168187032799937 0.002428671695275972 1.209499632324247 -4.32316770013931 9.914721409529228 24.09664814967521 26.41287435402196
4405 7 0.0002987256573405128 0.002212805759928357 0.0009636832297929585 1.209906179816965 -12.02869403794886 -4.243685741186186 0.8477534474491073 12.78346724625973
4406 7 0.01014194665263948 0.005176678288542658 0.001002291852417224 1.210166291887879 -0.6256276640249734 -0.02487594159065816 0.05458318149679871 0.6284967065670903
4407 7 -0.001455130010410614 -0.008083107200891834 0.002501576762034022 1.210040308965625 -8.753764263593803 7.654451637433392 -7.172460430855697 13.66247442027137
4408 7 0.0007564965316718608 -0.004732275327248853 0.001522131179902452 1.209987923032676 -9.165133282197301 6.692685047745736 -0.06758597825042956 11.3488443946164
4409 7 0.001505966304370675 -0.007492341475502409 0.001665545866916809 1.21008256634062 -2.181214262235634 8.165563220540777 -2.08116515280412 8.704330345274967
4410 7 -0.001047568202032351 0.006724695731448503 0.002218003547380123 1.209998040126248 -7.604941967684287 -8.522702302207341 -5.187530603420949 12.54520109943739
4411 7 0.006414918316919507 -0.006002015003816235 0.001471720901079763 1.210136742912439 -1.76383464326924 1.244996757194215 0.1000146578343309 2.161280293252719
4412 7 -0.001936182597483214 -0.003831480834495822 0.002497903328522168 1.209796413346889 -10.4522701329398 11.21368731757185 2.319416222597579 15.50407771529368
4413 7 -0.00767260136629986 0.008290645293620953 0.000991478186792205 1.209816674857237 -4.423212666706897 -5.011241943521251 0.3126427838154827 6.691420000395648
4414 7 -0.002361133374340176 0.00635935313821554 0.002488940827172659 1.20991911023829 -8.626186992684401 -8.586622899027461 -0.118439860012046 12.17190300829332
4415 7 0.01109162036934551 0.0004412295861563017 0.00251452280866814 1.210168108713708 -0.5518709237083657 -0.1054065714390242 -0.0431716383369096 0.5635031961701262
4416 7 0.002396197714663761 0.007663098066286131 0.00350984695714963 1.210130869581922 2.84454496333114 -5.909419832868583 -3.355102959599515 7.366776410277872
4417 7 -0.009091947256617355 -0.0064704247453077 0.003009340024627295 1.209734686096361 -2.735288461944583 6.075860514612827 0.2150349455205369 6.666642632605518
4418 7 0.004449919641191625 -0.001925392741871967 0.001458342093180272 1.210081721620287 -4.423077286722884 0.678392639462171 -0.2065181499822245 4.479562367449794
4419 7 -0.00700033184922675 0.008831866717736872 0.000991478186792205 1.209847660786804 -4.715208429058151 -5.241708799214949 0.3152914799625042 7.057486123441223
4420 7 0.008875458330538013 -0.002982096728326845 0.002526526342125056 1.210154176290639 -1.541439777392571 0.1160318077031865 -0.03427119973006837 1.546180611331634
4421 7 -0.006431154542190654 0.004295523870826302 0.002501812722756835 1.20965068105965 -3.821903655566444 -12.72838961511256 1.453742993356659 13.36907694784015
4422 7 0.0003080366348336228 0.002705521953870703 0.00243810546753436 1.209912174320372 -11.98617503786884 -4.606955198365809 1.202482413383559 12.89722420494722
4423 7 -0.009579921375358543 -0.006140993959022596 0.0009987931082838159 1.209720902340646 -2.367810848614499 5.547765026166367 0.7117720391181436 6.073783370852275
4424 7 0.009200908843577747 -0.00657695106001599 0.0009785512723438556 1.210159036078671 -0.718177837267158 0.002058102607254348 0.1208519183583059 0.7282779880642811
4425 7 -0.002463790236544573 -0.01085423913250699 0.001079331923003989 1.21003187283657 -7.153545957240603 2.044591394868245 -1.091563843332109 7.519646624569044
4426 7 -0.008809222525513785 0.001050824609482706 0.002474644815203773 1.209546521345579 7.082833444539127 -5.231172059031185 6.000840979463601 10.65559867745967
4427 7 0.006960330700467429 -0.004885574608019532 0.002525046840816286 1.210138604103966 -2.582125547955073 0.5143211695762784 -0.231773691217088 2.643031905750854
4428 7 0.009134734484471347 -0.003771062496835511 0.002506776661344121 1.210157111121303 -1.590761835352825 0.2611363417471393 -0.03247183046365109 1.612380174019089
4429 7 0.001096685340986938 0.01106500073752997 0.001014083849701872 1.210129458345733 -1.930559349179882 0.2546277426664134 -1.267535799367936 2.323476208339684
4430 7 0.001196993300744508 -0.005200693162374321 0.001028564126610171 1.210018573433475 -5.444932460462084 4.513755142196328 -0.7171964732515212 7.108842786554074
4431 7 0.01124177565033212 -0.000195583875530145 0.00300032416646345 1.210168457166223 -0.5723446520620964 -0.03902193682661012 -0.0891595187906709 0.5805605326654285
4432 7 -0.0002741179466311615 0.007335002224977571 0.003684724317412645 1.210095875457378 -5.411491851785247 -20.43648394590533 -12.92429737528466 24.77844996721899
4433 7 -0.005454933087856779 0.007285707718750896 0.0009960983498710201 1.209840063373931 -5.796338257761745 -7.757752057769784 -0.6248780603270766 9.704160281987408
4434 7 0.002483210757201557 0.0004998737026284702 0.002926052704790087 1.21001696009714 -8.65180737736511 -1.879241446460562 -2.551563758877164 9.213891519045569
4435 7 -0.002197492918422739 0.01075328462504147 0.002963134084748679 1.210063700473405 -9.43175339313926 -3.038913611613046 -2.75011940222934 10.28377969106492
4436 7 0.001433366434892154 0.005076099664119182 0.002962708170660113 1.210031275821679 -6.295190643797617 -5.582895361084872 -0.8591785527210457 8.457915442946677
4437 7 0.001681252889077119 0.01144257352910455 0.001507536742058174 1.210137436805895 -1.62900338778129 0.159774096367601 -0.9478425361345063 1.891450573654754
4438 7 -0.003403862219409719 -0.008546647138486765 0.003498222009680793 1.209958412490721 -7.498984044118745 6.478790449307717 -0.2984261983539337 9.9145622987529
4439 7 0.009622462597332068 0.005728256668119394 0.002511684560681945 1.210164991883304 -0.486939086743029 -0.08085405853978711 -0.01313011841904546 0.4937807742208972
4440 7 -0.00636523905143448 -0.0003703175159717733 0.002415347369735696 1.209414509431688 1.841964163558456 2.695961823200279 31.52962350139896 31.6982365482996
4441 7 0.002618476592977577 -0.0004815254515136937 0.002999145403423707 1.210021064493078 -8.549448078249617 1.312084866905067 -2.914431122955158 9.127351089505488
4442 7 -0.006479298908832115 0.004853022821388173 0.002980715523344829 1.209682925410054 -3.701460527502912 -12.41263180521423 1.72973150218083 13.06775456756496
4443 7 -0.006226152540852102 0.006046557616056331 0.001480110689766379 1.209762960787936 -2.003489146255918 -8.132620390545135 2.13483139126284 8.643551830410749
4444 7 -0.009120998816749021 -0.006306810357148104 0.00150004991842619 1.209730927456908 -2.717477059177169 5.85310920933289 0.2168872850061928 6.45682654853985
4445 7 0.001806170545837412 -0.006501231454391481 0.001478270704596452 1.210064774544374 -4.911445015372907 3.664782580014262 -0.4784206649100188 6.146690965911684
4446 7 0.002730018042346282 -0.008744428120153106 0.003003518555904883 1.210134201230856 2.915531199139274 2.286711558306123 -2.61888817676595 4.537394319039264
4447 7 0.004818998955288648 -0.003501940857023663 0.002984079529240556 1.210099716921994 -3.545413565847759 2.62881743558206 -1.75996705740208 4.751644189715608
4448 7 -0.006234736840113471 -0.006989543331651533 0.0005619832972154113 1.209806644019317 -4.808459616345464 6.485194711778478 1.006340129898289 8.135831536404156
4449 7 0.001526062259831507 -0.009807592457726267 0.003001096626265648 1.210159765321459 0.4700881346453821 -7.279146244796967 -3.574144190614871 8.122897241919423
4450 7 -0.005398393555746431 0.007682189800379276 0.00299609834987102 1.209856912537749 -5.796588961854481 -7.636579013040781 0.8461902300425809 9.624646514055861
4451 7 0.0007300228044292098 -0.00659800935122795 0.003484699105247369 1.210059224261655 -1.432026062311941 10.09793939460701 -2.574763563928553 10.51895841185956
4452 7 0.001469292345374056 0.005878199899459768 0.001035796010128345 1.21005090314475 -5.132178996842573 -4.504199005599469 -0.8629848953693183 6.882718421329677
4453 7 0.009393784111280067 -0.006071034618575747 0.001466394981212506 1.21015981177803 -0.7169879713104531 -0.1665745052714845 0.06303367441680539 0.7387774095901978
4454 7 0.00965260105222885 0.005662756642138638 0.001511684560681945 1.210164990419296 -0.4869323583826622 -0.08105662304408955 -0.006244328886799754 0.4936722489898126
4455 7 -0.001321975769615248 0.004147776827434611 0.000968931200092136 1.209867918694759 -10.76482647691689 -9.606571766934666 1.012786076602674 14.46352121125272
4456 7 0.0008891048430769233 -0.00704879501108602 0.003172158439506812 1.210077515569022 -1.326199760387258 8.187106300438623 -3.198983974009435 8.889376459859387
4457 7 0.0005748654098713881 -0.003162696394771114 0.001530003366347784 1.209932998366183 -9.253468272666547 5.901732497433713 1.794613804018449 11.12105032135388
4458 7 0.002790425248592836 0.008307697482450697 0.002495259388772365 1.210131085434263 -2.104837416649911 -3.393003192728203 -1.693565468360198 4.337162115025832
4459 7 -0.002998230571503817 -0.003343087564148675 0.001487712494891534 1.209723059548126 -11.0016611457649 11.34632823907162 3.526848175821269 16.19303463005872
4460 7 -0.004122477111360785 -0.008306789279496933 0.002499712129038918 1.209919695353427 -7.338113746765496 7.142137763488022 -0.1405154637821315 10.24098578207549
4461 7 0.01132646240659159 -0.001965248188136354 0.001760400513899311 1.210167718729455 -0.4878468843747917 -0.01720487624850735 0.1788894215987362 0.5198961584017026
4462 7 -0.003301767871337759 -0.003475348235549123 0.002487712494891534 1.209684015258185 -11.24634914689229 11.22437951606715 7.470854589716382 17.55792507545237
4463 7 0.0100773574175863 0.005217898997351763 0.003002291852417224 1.210166154878646 -0.5683434982972455 -0.04551176450563679 -0.05906618839089284 0.5732141548986697
4464 7 -4.517215352481938e-06 0.007412760424124951 0.002718975887317789 1.21007900609627 -5.817147594698868 -7.323796837082831 -4.408668994225049 10.33990176694231
4465 7 0.0009235617060387848 -0.003686019517710493 0.001037432074655083 1.209965961339692 -8.821096008823819 3.993231718781411 0.05197378500021359 9.682992080503665
4466 7 -0.0002875733922334962 -0.009617781639720201 0.00154247301219235 1.210089988466072 -5.246497006722056 1.49446688001631 -1.969965758111963 5.799993722853743
4467 7 0.002011045715327301 0.004417126543825411 0.002411084775445764 1.210035329423479 -7.397022745612859 -3.290742670986137 -0.7859811799910078 8.134045687175787
4468 7 0.01064558011598782 0.003922459764722996 0.00299911005444434 1.2101673667571 -0.5063814880695691 -0.02809794814350723 -0.08166591993179843 0.513693516240699
4469 7 -0.002839348615556951 -0.0002446445451834943 0.0009668508607305023 1.209638692772765 -14.20404105951532 -2.565916362682898 5.034632963868981 15.28679947803192
4470 7 0.0007021762363079052 -0.004635794072861531 0.003037432074655083 1.209981876875981 -9.197004243368415 6.808467253568097 0.09279462206684233 11.44328293093072
4471 7 -0.006499561298388166 0.006263328946490224 0.00248011068976638 1.209763748912914 -1.946552275191662 -8.094733136756947 0.01311122918314598 8.32549951772838
4472 7 0.003741831153980668 0.003922486426704768 0.003448376604785651 1.210082677553573 -4.557888845877941 -1.022926272862303 -1.037254425619167 4.785041863406951
4473 7 -0.009950409763150583 0.002254710567498724 0.003497685331042665 1.209600033201019 2.671687394024981 -2.581220638719291 1.141822978275259 3.886434513903432
4474 7 -0.006589165514316105 -0.005805210508707665 0.001552172648790051 1.209746240891532 -3.773709549831116 9.955607103461716 0.2321505455694994 10.64936103439038
4475 7 0.005610312725595717 -0.003037405443883875 0.000988045410643928 1.210112389242008 -3.733380605731445 0.5755827606242166 -0.2572450585143053 3.786238407933329
4476 7 -0.0004565490883359153 0.006188434202842251 0.003547510077209633 1.210003114998238 -9.125049227704638 -11.24146102963432 -2.140291859004629 14.63618183579794
4477 7 0.002049022467076844 0.006854179442409229 0.00350984695714963 1.210102547266105 -0.4203039176061762 -6.138393928183374 -2.319284453686996 6.575379515877985
4478 7 0.007391295417220305 -0.008433519648133162 0.00248973028823301 1.210152549331966 -0.7270919726546535 0.0702540142299745 -0.1264939087506695 0.7413494939401278
4479 7 -0.002445954357398512 -0.009683257795378262 0.003070252327959589 1.210023175810526 -8.494895971657103 3.047417129343786 -1.376578293952677 9.129346993562883
4480 7 0.004243748015798304 -0.004623514452973328 0.002484263701179643 1.210093775207141 -3.794796739355629 2.135865149101607 -0.3102389968523353 4.365621429228476
4481 7 -0.003453622720157994 -0.003699253177607175 0.0009688560488546312 1.209727229612413 -11.13118528925253 11.27283000024418 3.395956142162048 16.20223750836794
4482 7 -0.0005539461348441553 0.0049468524390894 0.002975273447178049 1.209939463342772 -9.970164287111324 -9.296758295941135 0.7009863704144067 13.65010156067152
4483 7 0.006741142885864904 -0.001034790919847569 0.003485962813416739 1.210128259890663 -2.166955708344446 -0.08655750945903513 -0.4064357553854148 2.206440406543091
4484 7 -0.008930648754517448 -0.0001748198188070641 0.002413113628383117 1.209544722989965 5.805564291782588 3.508171901463611 4.383820614403862 8.076492432703205
4485 7 0.001834465244979255 0.008492717912306833 0.00300890895981974 1.21015569819771 10.9959469316615 -4.480779319043714 -3.260282336560702 12.31331284195994
4486 7 0.003512320193465972 0.00517213597266577 0.003488285932918712 1.210091714595985 -4.293577324956169 -2.900232157873105 -0.1409420913290456 5.183243915546254
4487 7 -0.001668270978115974 0.000684088726150776 0.0009642364559662962 1.209740504577302 -13.21190886634199 -5.407931883346757 1.847086803848104 14.39485994403538
4488 7 -0.004973502950665626 -0.0003746959309118335 0.0009462775142337207 1.209533640755459 -2.845097437399567 3.310909256838752 6.730948348785776 8.022615858268429
4489 7 0.0006757704863847155 -0.00792692009790707 0.001166936530402236 1.210078881156128 -3.648261748725919 5.534440660089238 -1.931111928649857 6.904276970707323
4490 7 0.008503091852903464 0.001614965633151225 0.003474896871125994 1.210150197590506 -1.867387860516539 -0.3614298623402786 0.2266538810469202 1.915500182403928
4491 7 0.002926755433157404 0.008717996579974756 0.002985412431622735 1.210145288028033 -2.843459575096879 -4.456663166199257 -2.134692726879045 5.701229864718455
4492 7 0.007461556445590749 0.0001720859821182621 0.0009551972495868398 1.210137518905 -2.472991627706895 -0.06989398088702441 0.2242598236924984 2.484122627366698
4493 7 0.003484691532575222 -0.002024581185784835 0.001464433118672405 1.210052247297102 -7.574878662426771 1.008577739637996 -1.104379395378758 7.72111842004245
4494 7 -0.005175117512642876 0.0035191603412241 0.001510762086654348 1.209638792896377 -4.387989193896316 -12.46949205812205 3.286670190019992 13.62148605297108
4495 7 0.006897346384009342 -0.005434822316696 0.002989253839571604 1.210139649449801 -2.745799987079302 0.3643073531646471 -0.152197078670057 2.774040621074289
4496 7 -0.002068109415413338 0.004318382960997 0.002968931200092136 1.209818269894904 -6.869272137993229 -10.66970383572167 3.050889390463225 13.05133731541197
4497 7 -0.004490077339502452 -0.005986072623621145 0.00253480123429246 1.209806011181003 -5.466558243937213 8.629798148704509 2.460386576981235 10.50762471874263
4498 7 -0.0005048053910463754 0.010689127822181 0.003503163597645245 1.210146161874053 -13.55894066173103 8.383668135870856 -11.28969920266752 19.53427939207052
4499 7 -0.004234101707932279 0.00667106104041245 0.0009998748578642824 1.209854842472437 -6.689215211660406 -8.114443924516092 0.2038537797283605 10.5181441668925
4500 7 -0.0006371366408590128 0.0003438862632473811 0.001472999511639836 1.209806840388533 -15.81165949039528 -4.267503770863407 1.783540264867013 16.47425810623782
4501 7 0.006226353611169008 0.003108124967704718 0.0009957158451139514 1.210123394120998 -3.058391728155521 -0.6859682724493366 0.1921872591511015 3.140262469322788
4502 7 -0.0002393061148389498 0.005406949716143096 0.002522783524387682 1.209974901400961 -9.087527814792994 -6.959585353220386 -0.2158613265273383 11.44838792955961
4503 7 -0.007498231218683456 0.002805279276406056 0.001018782530454672 1.209599309598478 2.787360762022179 -3.740749919858598 2.858999417008511 5.471422817424913
4504 7 0.007189702991537672 0.006879198969630556 0.00248416494704801 1.210153369986839 -1.518911965301947 -0.6138709155373917 0.01339233575451244 1.638325490840297
4505 7 -0.0002796794416045744 -0.0001068484196574952 0.001000120002470811 1.209829629785168 -15.65791823917849 -5.333514791503275 1.282848286048181 16.59103623469611
4506 7 -0.001833026600132864 0.002109581325647054 0.0009409594998245125 1.209765960467563 -12.40920217653611 -4.439545426839131 0.7083066407849429 13.19846811385688
4507 7 -0.0004934433777775312 -0.01058770779606266 0.003062995816049558 1.210127882419002 -8.833093044535556 -8.960164202138419 -9.384263458777234 15.69625674887
4508 7 -0.004894822246665926 0.01073763789517757 0.001507558788897939 1.209955405899637 -5.650014017255416 -2.830991178658726 -0.3677773892269789 6.330278797719167
4509 7 0.00635462037641821 -0.003073551312438553 0.00152383841188861 1.210124954577561 -2.586139086638684 0.4794809608850925 -0.02592490652781835 2.63034018105456
4510 7 -0.003740105764049346 0.006923504858909815 0.002999874857864283 1.209882291572285 -8.946678162971587 -9.171362973434277 0.3177441299335504 12.8163142234568
4511 7 0.003209552084782962 -0.002568157522653134 0.0009740507709222384 1.210043981491859 -6.817963247763605 1.722688719237538 -0.1122341141041746 7.033127026267353
4512 7 0.007322153523129021 -0.005663793038293979 0.0004871712423444145 1.210145286379487 -1.838171552023254 0.843276206296691 0.0775249317162352 2.023857586346264
4513 7 -0.002919886279015023 -0.005861358851522549 0.003485479829192984 1.209862973912854 -8.536892243875455 10.49073905376203 0.1711477009243664 13.52639739964786
4514 7 0.001307122404923384 0.00524374439154867 0.001510218247869746 1.210029318861405 -5.955149029858687 -6.335675776187793 -0.1359942610875955 8.696153284518875
4515 7 0.0002051406592522956 0.009898779953295109 0.003503163597645245 1.210214274397575 -1.487231327158876 10.16415167017186 -7.499023124743362 12.71837977181747
4516 7 -0.006364889775138211 0.008440102863819089 0.003499395166421551 1.209853357450147 -4.845614095463953 -5.9083332727605 0.06661130778778251 7.641519161167689
4517 7 -0.003884697654985418 0.008278707172834134 0.003496703183449469 1.209936938805398 -8.079653601909953 -7.740385530475314 0.05581407880080915 11.18916823086687
4518 7 -0.007248480285479314 0.002065653230166699 0.001493544738208785 1.209563596039394 3.63390480881611 -7.521041392600341 2.940903452514269 8.855520363352731
4519 7 -1.954598484239849e-05 -0.0007521132627046271 0.001492691294163512 1.209850263034739 -16.80873161647426 3.381341912665283 1.068368073586049 17.17871770609396
4520 7 0.007091529546956398 -0.002211065613415292 0.002529349204311007 1.210133761205661 -2.599039034447247 0.4465834826361312 -0.2835791656716278 2.652330645441271
4521 7 -0.006485591341302475 0.004529193994214025 0.001501812722756835 1.209676949274598 -3.82197038379339 -12.65513029506784 2.939380166903049 13.54251587281036
4522 7 0.002590680899036457 -0.007788941836864307 0.003493387427409996 1.210121008667274 -0.3499599429434737 4.505802085947187 -1.250473210807385 4.689179848367725
4523 7 0.00207140635506345 -0.01143269784110537 0.00251095159633068 1.210138066325616 -1.514956538990078 0.05902580266728997 -2.49183260255406 2.916814543223592
4524 7 0.002167885894180466 -0.01091514696908328 0.00100417388874539 1.210127721901419 -1.891582439541668 -0.03954834179852458 -0.5956358139380782 1.983539820565017
4525 7 -0.003941154794292276 0.008832052419189476 0.002985446217131314 1.209949414458693 -9.066472737106427 -4.590427606329327 -1.324275121851714 10.248251465494
4526 7 0.01105020123291672 0.0004471498378409892 0.00151452280866814 1.21016802227964 -0.5511216309289914 -0.1076791027138378 0.05326971114767989 0.564063385945982
4527 7 -0.002706208996404751 0.01054656814485493 0.001451877118430524 1.210024624946088 -7.557962712539897 -2.082778416249993 -0.6332631362727491 7.865226538066292
4528 7 0.001633663900608202 -0.01026738111769739 0.003001096626265648 1.210145747188335 -0.3477666822068649 -3.938698892816043 -3.871721434144701 5.533942310608143
4529 7 -0.007571161075927368 0.00470150248666887 0.003485561219539678 1.209660830414789 1.185333592719299 -11.32600251730105 1.247450955218432 11.45598021269302
4530 7 0.001180568016201367 -0.00475561321799535 0.003543865021362802 1.210007707105224 -8.119134015244251 6.926007220061878 0.7877505936800423 10.70095622679061
4531 7 0.004334882076467477 0.003899803695230076 0.00292187571998382 1.210094700746974 -4.880264131569514 -0.8689866899178167 -0.8808094632485625 5.03467388930867
4532 7 -0.006948205725809984 -0.005367217759241634 0.0009901893515746399 1.209722978557173 -1.463131739087763 8.01174908377094 1.419126221019217 8.26697024903409
4533 7 0.003723496867214716 -0.009226970940673235 0.001076445411337647 1.210133780473645 -1.082096886061588 1.297673649832491 -0.7587758574757341 1.852196364908915
4534 7 -0.0005454622058788036 -0.006346077086362346 0.003008576661457806 1.209998501366048 -8.391730581525477 11.73091370141681 -2.588927992235939 14.65394235596624
4535 7 0.004311588168222477 0.007213425651124723 0.0009777418260508621 1.210126420555258 -2.505679057490308 -2.600889235388256 -0.4587966022758627 3.640542085481763
4536 7 -0.007927607008399007 0.008517461639534115 0.002496663237337124 1.2098178666991 -3.743767527271049 -4.482767679372727 -0.2212962962284346 5.844653404283469
4537 7 -0.0005144829194494849 -0.001088026992912903 0.0009839282384899719 1.209818682915803 -15.83014896670883 4.324377770156314 2.356327002607075 16.5784841391012
4538 7 0.0001039518568480305 -0.005548917433682088 0.00297826615853965 1.209987761484941 -7.506187463260542 7.099517011956278 -0.4836380464223526 10.34310871047064
4539 7 -0.004532922744136213 -0.005595196067550745 0.001047463126408396 1.209794028326848 -5.819455783096362 8.873256881616634 0.2889777773884371 10.61528433224447
4540 7 -0.007172286616630671 0.009162574788179421 0.002502239622979357 1.209850142637425 -4.345943196909385 -4.95759421937178 -0.1870905360680603 6.595450370020055
4541 7 0.008502705257416632 0.004358863129510426 0.000990260252809102 1.210155757753246 -1.614043606733168 -0.3640244756732008 0.1552661945139845 1.661853836678851
4542 7 0.002718029385324934 -0.0001913293703059423 0.001416435052540253 1.210013190750229 -8.879601500624798 -0.5715691102142184 0.6411034443294467 8.921044091583692
4543 7 -0.0002606456696686 0.00823822598886396 0.003171465810108156 1.210153923957677 -7.299966556696697 -16.18429005577219 -11.74132600328121 21.28566401721084
4544 7 -0.01019211614307442 -0.003235610620201901 0.0004884823834188663 1.209644066653636 1.019584240468418 4.435179355828493 0.4397403499709973 4.572060751692984
4545 7 -0.01085470691187669 -0.002924439459016074 0.003013201435703267 1.209630815145968 0.311722427991483 4.043594993418246 0.3637357209175558 4.071871193638303
4546 7 0.00341900869804419 0.01094555193279511 0.002515809080157572 1.210151215826684 -0.7428609477809486 -0.4101317593275568 -0.8341135282381192 1.189872188824064
4547 7 0.001594787179494044 0.01159453259351609 0.002507536742058174 1.210145128767585 -1.671036036394499 0.1905098572720651 -2.26923937849801 2.824553557214466
4548 7 -0.005820882342946098 0.00560175100163561 0.00349515430380515 1.20973743426916 -4.596456612392185 -11.02401367252568 1.276784540042243 12.01193030296663
4549 7 -0.00408338754378254 0.006796346190904095 0.002999874857864283 1.209862022033532 -6.627478027713019 -8.081631235019145 0.4800784914243996 10.46263369255487
4550 7 0.0003289426408027181 -0.01150623067739775 0.002997743205356052 1.210126415011246 -3.204178571208007 -0.5762005130930671 -2.096867571170739 3.872417973115089
4551 7 0.009027519788529391 0.004826654421498747 0.0004913716355457505 1.21016067617292 -1.181649059194123 -0.1745034143003799 -0.04088722269295078 1.195164300703627
4552 7 -0.0004926953039760156 -0.00572008496515424 0.001502143714750088 1.209967868354789 -7.43721956837701 7.109394153964488 -0.09004714646030812 10.28901494960815
4553 7 0.005784621429897409 0.003550185072965493 0.00146921496031212 1.210118884070847 -2.689131426571655 -1.327888609770849 -0.07476214555462043 3.000050894192029
4554 7 -0.001052306738099947 0.002728734176833166 0.0009409594998245125 1.209831162019241 -12.21851929925161 -4.293539692651285 0.7057198726023387 12.97014793659432
4555 7 0.01167136904737862 0.000945305671881822 0.001333748833021321 1.210169911217188 -0.4424427241049481 0.03849838390435956 0.01984370943944113 0.4445576031078218
4556 7 0.006427104118471396 -0.0007026256999461122 0.0009662631918775845 1.210121999699437 -3.106343008991291 -0.03548512583003544 -0.3591919491408965 3.127242385871597
4557 7 -0.003922438281069275 -0.005415828766973165 0.003485479829192984 1.209783265809308 -6.254747356402106 15.39561134870993 3.715986703237909 17.02807301110687
4558 7 0.003110158840566064 -0.007619256270602327 0.003493387427409996 1.210120047746831 -1.708800110020338 3.978521288305342 -0.9760895430519966 4.438623689113527
4559 7 -0.007083881987335765 -0.003545173466275425 0.001457645457994155 1.209629465260493 1.039061741652796 13.41620507349225 -0.5912602817807777 13.46936511487372
4560 7 -0.009355850019310377 -0.005953426285347188 0.00250004991842619 1.209715225339912 -2.716957905926952 5.856498378490268 0.301607538086045 6.463079809724496
4561 7 -0.003571776056841263 0.008730170374688742 0.0009854462171313139 1.209953245885281 -7.025259167517434 -5.162159602556702 0.1412393352271918 8.719065700112113
4562 7 0.0003346248839014096 0.0055667097710972 0.003021932314951034 1.210007807316527 -8.345157623833446 -6.855472971344016 0.1084827787655815 10.80050618909792
4563 7 -0.009020439224828241 0.0007864559079582622 0.001474644815203773 1.209569745084227 6.94178594296518 -5.149283521640679 2.504211403921173 8.998588090346066
4564 7 0.00320006988611354 -0.008500994918029662 0.002569832838747642 1.210129246970238 -1.847439811626452 2.164828146008655 -1.306030921941302 3.131330632239352
4565 7 -0.00684317412063202 0.009432358570525309 0.001502239622979357 1.20986622814387 -4.378614763632258 -4.970368983668811 0.7053943970736031 6.661412488169317
4566 7 -0.006588236452862426 -0.008989348722589503 0.001006796964985499 1.209862963603702 -4.943740680831022 4.861245063784565 -0.01626662832784261 6.933436384122272
4567 7 -0.001943690815431261 0.005877288483610991 0.003500851209436649 1.209912082273917 -11.67815640960994 -11.7200323804237 0.992956870599258 16.57481401018919
4568 7 0.01119490956794535 -0.0002151286128157549 0.00100032416646345 1.210168384478131 -0.5719722748866806 -0.03991297434825472 0.1027034937785461 0.5824889152547787
4569 7 -0.008270764029473465 0.008246023997764085 0.001496663237337124 1.209802966275977 -3.745971839511057 -4.487141497800895 -0.402961918268952 5.859105917396588
4570 7 0.007010479106013955 -0.002441280731372157 0.001529349204311007 1.210132384992933 -2.606510771963086 0.4640370479925152 -0.0223207635898807 2.64758890365488
4571 7 -0.009177296727290415 -0.00709084570658754 0.001520260241498754 1.209751895593308 -2.627488911638947 4.768563924109134 0.5979517755311866 5.477266307653994
4572 7 -0.002693804149407937 0.003996775014647452 0.0004680799906554873 1.209789334932138 -9.418479762066056 -11.85473135325442 -0.2424210252979927 15.14269409450602
4573 7 -0.004090669559555864 0.007221110000477241 0.003496703183449469 1.209881461933431 -7.677136025729824 -9.389556196785042 -0.220800433145605 12.13057855015252
4574 7 -0.00199288781652725 0.007399158227488749 0.003484917943321196 1.209991635859112 -11.07041873964067 -10.10513392142362 -1.045754681829379 15.02536207535318
4575 7 -0.00058565232534863 0.0002839132830715498 0.002472999511639836 1.209788241649074 -15.95373174398025 -4.044922212269356 6.247742852808877 17.60446656439829
4576 7 0.004123928501979244 0.004851871118946822 0.0009617850481168804 1.210096235938361 -3.895597870493335 -2.142876572416916 -0.342676013661884 4.459263349875703
4577 7 0.006962599951900456 0.006996168212549805 0.00148416494704801 1.210151986839077 -1.518863376175859 -0.6140486562110369 0.01013614657187725 1.638323670448009
4578 7 0.0009530461325394296 0.007257668018882303 0.001544098527054774 1.210076818001536 -3.368301793482809 -6.658261082272321 -0.4913575830626928 7.477922832318805
4579 7 -0.00158625287293673 0.00822870948642127 0.0009716951038800418 1.210017959407221 -7.052003974468222 -5.52396731614754 -0.7830245574727981 8.992113345781808
4580 7 0.008737533539329009 0.003412102780070984 0.000990260252809102 1.210156139632825 -1.616973538152569 -0.2918476819088293 0.1577387294329966 1.650654415462041
4581 7 -0.0048816174253986 0.01065866626411557 0.002507558788897939 1.209956129550755 -5.646655295922862 -2.835684059091833 -0.2054578318932522 6.322027604704642
4582 7 -0.009168182929820048 -0.00710420005027578 0.002520260241498754 1.209751522026396 -2.63456089762821 4.757263759761624 -0.2903992731617153 5.445805848642212
4583 7 0.009333029085503422 -0.00606242974293982 0.002466394981212506 1.210159677769993 -0.7161469468989933 -0.1671572158623926 -0.09318536783025291 0.7412769368766814
4584 7 0.002594040851113743 0.004472596910495283 0.002936662537704363 1.210058135663195 -5.565609490186873 -2.950043291547859 0.1114897117104571 6.300094790960053
4585 7 0.0002482016607874896 -0.00508401090249374 0.0009782661585396504 1.209976319940334 -8.842398226294684 6.766301420445101 0.1761629139320979 11.13561290082148
4586 7 0.009817360308654934 -0.003888014212584703 0.002970983660099439 1.210162118775292 -1.042782842104938 0.04104437649066391 0.1253662248518873 1.051093424469763
4587 7 -0.002465692896761149 0.005843054663157055 0.003004022883851462 1.20988501885804 -9.787660647791142 -11.70121199177337 1.814891192586739 15.36263301239957
4588 7 -0.002482088367951441 -0.003755909596569779 0.001004336275229886 1.209779341313222 -5.19942628651597 9.292257917855931 2.984178036715277 11.0582733496547
4589 7 -0.003658472283686208 -0.002127487029141316 0.00147772657963178 1.209618935109633 -10.96266649408705 10.70844567690545 5.254416054909004 16.20060966611749
4590 7 0.0009002490697734148 -0.01131719265739733 0.002997743205356052 1.210134652622901 -1.961616834680116 -0.2013966883653628 -2.096753623842485 2.878346225053819
4591 7 -0.005291424400684465 -0.01044501721540569 0.002512585888725087 1.209931226989972 -5.131496978048847 4.07465088564195 -1.400388986174453 6.700457476037429
4592 7 -0.0111299430509729 -0.003500964089657456 0.002490019392277228 1.20964411832795 0.3715464786341492 3.8803932724576 0.1952697611532494 3.903028185183971
4593 7 -0.007063577630876471 0.003392387926003455 0.0005210971994120068 1.20962530521265 0.2699685037085227 -9.190971877509583 4.1284475904355 10.07923243868993
4594 7 -5.284942112031678e-05 0.0004089299622929726 0.0009816425648425651 1.209860441046841 -14.84661968201834 -3.281736830956144 1.00983545182875 15.23849337204694
4595 7 -8.571667952332249e-05 -0.0007254893322001671 0.002492691294163512 1.2098343108931 -16.84268438366534 3.35307478814174 2.569005637595079 17.36430009383135
4596 7 0.01115579599484934 -0.001452080171812124 0.003112600375959656 1.210167682825691 -0.527204172953405 -0.09697966996277392 -0.1123126400237584 0.5476891686665701
4597 7 0.007615747151388122 -0.002562734478537272 0.003043386390894268 1.210141158657804 -2.021040066179095 0.2888176779087795 0.2508420152093808 2.056924966246489
4598 7 0.001861082283660007 0.003848581424181467 0.002922798842527052 1.210023479095623 -7.022026244887456 -2.45994322645795 -1.12379922401114 7.524832088304204
4599 7 0.000545931126161707 0.008586601357646158 0.003486741492695512 1.210197933808575 9.35498722617028 -9.889829352559246 -12.56318968704877 18.52453091814527
4600 7 0.004314550546560035 0.009194934754869906 0.003486350428952624 1.210150713621465 -0.2205254909294721 -0.8519303002996238 -0.9407696011037087 1.288201913940172
4601 7 0.003587806218709334 -0.004669336228209773 0.002982181103952453 1.21008083161692 -4.224470021446594 2.315598438881276 0.05549932530163031 4.81780274267838
4602 7 -0.0006731368294479431 -0.01119824562700005 0.002539701644227577 1.21009960327979 -5.455444867531377 0.8338228068784822 -2.342564150041236 5.995393729606387
4603 7 -0.002177775434497012 -0.004592488519453988 0.003485479829192984 1.209823472559762 -11.10245347941923 12.84276195876915 1.318008825313688 17.02757044489557
4604 7 0.002141567296148728 -3.645896721190461e-05 0.00350876305567354 1.210008275614978 -7.525791631613489 -0.2071874936600038 -4.05302634218963 8.550291741834064
4605 7 -0.000133035914928183 0.006991648249648563 0.003232234394622278 1.210063642838101 -10.05576064534434 -11.62752089384773 -2.423094665437597 15.56242115003297
4606 7 0.00473004092881822 -0.009312361117973228 0.00356631428284276 1.210144010408126 -0.7362591130350655 0.6356989462872181 -0.5378714544275778 1.111528827033244
4607 7 -0.01007296287997168 -0.002933277934396526 0.003488482383418866 1.209621799802455 4.43211864833486 5.216319273606447 1.41673290722808 6.990049685627324
4608 7 0.001783776408965245 -0.008477238068912981 0.003687459334259444 1.210149453714972 8.863292560435013 9.918386657591354 -5.154724856822248 14.26546659772788
4609 7 0.000855566794230505 -0.007414446979518311 0.001172158439506813 1.210064863261748 -2.999557622574579 7.458300590465416 -2.103611674004095 8.309559296610642
4610 7 -0.000676099180792075 0.008775323175292895 0.0009735186532543568 1.210067080090231 -7.359246252691342 -4.161711079626135 -2.273945904658591 8.754951427355154
4611 7 0.003566309649175615 -0.005263436200222335 0.003500184171939087 1.210088482059643 -4.14632024238352 2.884898978712531 -0.2561338373671208 5.057689018951279
4612 7 0.004722191472451936 -0.004338905209360438 0.0009840795292405558 1.21009938623489 -4.086499456628331 1.441699358233905 0.2242228816136088 4.339153229513196
4613 7 0.005288541719101572 -0.002367459709552368 0.0004859628134167387 1.210102054227694 -4.07081794734698 1.006516616515478 -0.506255725816195 4.223852426362186
4614 7 0.006521923374793753 -0.002493265749088856 0.003021755814661421 1.210127716542894 -2.420943788519958 0.5792974606557904 -0.3423129205839641 2.512714172104407
4615 7 0.003745640441828126 -0.002233457263655092 0.002972379279763533 1.210072242086908 -4.682721931785209 0.7140155710115006 -0.990513592534517 4.839299546738631
4616 7 -0.004155988286069275 -0.00605422586701365 0.00153480123429246 1.209826227416283 -5.76848325781998 8.762667077815005 0.3228738699731359 10.4959030553966
4617 7 -0.006684273107604851 0.001677566652123335 0.0009958594071661202 1.209552417503093 -0.4115232086484248 -5.238522146739359 3.979802221389845 6.591683499267435
4618 7 0.00712104146151419 0.008855037585448115 0.003006675013507022 1.210158630759077 -0.4893509063092135 -0.2546837599024317 -0.09927057028732651 0.5605200916906183
4619 7 0.009066468619268438 0.005206110982661762 0.003000764343810471 1.210162203990377 -1.053666080428085 -0.3648836158666179 0.1988888376348438 1.132655742892924
4620 7 -0.006329183709209141 0.0001636125885201034 0.0009455458080546029 1.209522044732176 1.718362627709645 2.010852913098609 5.899573043414943 6.465389520594611
4621 7 -0.0003788056413731203 -0.0102335105848988 0.001062995816049558 1.210088836680373 -5.053075372071294 2.128238524510861 -1.650362424010185 5.725964203837672
4622 7 0.003256194728779999 -0.001980976842445981 0.002464433118672405 1.210049829707175 -7.57991291445094 1.014049890406321 -1.522643162975873 7.797552126959484
4623 7 0.0003426576834157826 -0.003542167224400836 0.0004935670532922815 1.20993417111517 -9.59127965405512 3.879481155130302 -0.5269042389583971 10.35956792112177
4624 7 -0.006407772440207291 0.005615280403583914 0.002980715523344829 1.209731174040996 -3.082179256257834 -10.85173872339868 1.876369049529405 11.43594434660506
4625 7 0.01068769519183953 0.004955418344273558 0.001510030271315813 1.21016761646195 -0.487710192771813 -0.08367128951380587 0.09506776690593138 0.5038849046428188
4626 7 -0.004459446643824208 0.003080607865937309 0.003494510583437191 1.209520761549501 -21.791981863945 -37.39679907965404 18.11716277757603 46.92166495417344
4627 7 0.004081792521200166 -0.004468590156250106 0.0004819969320133665 1.210086453552871 -4.375234610430724 1.399128057381852 0.07021082051695771 4.594036000792949
4628 7 0.001403896393130217 0.008549479498784894 0.002495650452515251 1.210140758265918 -1.43546381657192 -3.596068998982676 -8.877438402916969 9.685100991301869
4629 7 0.008760687528382313 -0.004156489456020573 0.003023636710113332 1.210154805546453 -1.532884762511367 0.3563579529743414 -0.1189230541887964 1.578248832917416
4630 7 -0.005635993368120616 -0.01051287454842672 0.003505957228586504 1.209924926519653 -6.570888289839055 3.833221467084771 0.3573720579253503 7.615633560055877
4631 7 0.01010271299597197 0.002866705053455695 0.003005570277750441 1.210164910578134 -1.151585483042665 -0.175476515226823 0.1687302749738191 1.17703484988487
4632 7 0.006576964507667761 -0.007062003220671258 0.001480280564485621 1.210144074830435 -1.777891129299274 0.8112302734451734 0.04510561303092465 1.954744469367256
4633 7 -0.001613302994973469 0.007654844102384814 0.003169642260733841 1.210024243918812 -10.24542142558055 -9.049590332723882 -1.298191888806776 13.73131630828007
4634 7 -0.006857307888214171 -0.009451560645965968 0.002512754193572002 1.209864957430221 -4.644728825811218 3.730046536470385 0.6841838450051685 5.996237200388459
4635 7 -0.003141563596988048 -0.006269470806031615 0.002496695493287486 1.209873123268677 -8.077249811900293 9.838062597604145 -0.07038716244414203 12.7292731352131
4636 7 -0.0001728470049726979 -0.01130355635108139 0.0009676713259487805 1.210098419366149 -4.142755675652875 0.02594152445311795 -1.674925113630653 4.468609592156795
4637 7 -0.001858353891572246 -0.003357531615640831 0.0005188564460369022 1.209797236941381 -10.68114691195852 8.481327649844383 3.744115293764265 14.14348674803549
4638 7 -0.006667998577987387 -0.004602666777295213 0.003488932541432266 1.209661276859912 -3.28729353973213 15.69094113560717 3.868056924665714 16.4916280854835
4639 7 0.002257871002503607 -0.0009791056130575067 0.002491199242332579 1.210002272088791 -8.345228832137346 2.188402327316769 -2.628934497015079 9.01904904058836
4640 7 -6.038612751614157e-06 -0.003018844101461457 0.0009861383449849825 1.20990120814166 -11.24607137003348 5.966738648105125 0.6736541620292422 12.74872155491276
4641 7 0.0001751977515306551 -0.005026805984545249 0.003493567053292282 1.209972515237698 -7.534694345913846 6.989421859436664 -0.5570284501324498 10.2924203912284
4642 7 0.007863760439025142 0.004853199758822802 0.003008281325528072 1.21015173769434 -1.684091641774028 -0.5960588809453269 0.01319749517477931 1.786511970664016
4643 7 0.003638134753679107 0.004306143773118723 0.001410161652902531 1.210079790184481 -4.013053190005803 -2.579790396451161 -0.1554204385062312 4.7732661677454
4644 7 0.008571792543052462 0.004672819664692684 0.002499652961073823 1.210157284106696 -1.605534545819261 -0.6287443780515438 -0.02019729706179147 1.72437484369237
4645 7 0.002297305495526406 0.0002504628846154017 0.0009260527047900864 1.209996057626629 -8.968607054076051 -0.4462806033435892 0.5266573942746579 8.995134622577229
4646 7 0.007181908935453392 -0.001502651366926929 0.002993556203066325 1.210133580787019 -2.543196068349571 0.9151405879749115 -0.3118067358753507 2.720763124265879
4647 7 -0.001921369885190611 -0.007236739294309741 0.003523877556210437 1.209990338833439 -14.90177866889858 9.111924001161592 -3.186798359279586 17.75516404549652
4648 7 0.008007597445666051 -0.005385848184107343 0.002510807952457747 1.210151551732218 -1.403011582010272 0.5198704817314019 -0.000784413721291751 1.496231075848745
4649 7 -0.0002459398175466791 0.004743376987090001 0.0009752734471780495 1.209949429939454 -8.79542622531528 -6.247448646495419 -0.005291753500578031 10.78842736816708
4650 7 -0.001381306714237221 -0.008919466417836979 0.002549729524102382 1.210068243077778 -8.165039197826266 2.13251008812359 -6.976411073085445 10.94923631303378
4651 7 0.001832436925953001 -0.00501129048287156 0.001044049193301889 1.210031456274337 -4.646197158331025 4.632512174056744 -0.8988523622787572 6.622329850289952
4652 7 -0.006473414636338686 -0.009646193297435034 0.001512754193572002 1.209880471038463 -4.629037732449322 3.728508054061904 0.1720687750703788 5.946374551018315
4653 7 0.007887263909267889 -0.008114991538346751 0.002979088027599964 1.21015469272054 -0.7425939141986078 0.0672256168494036 -0.1325685422092787 0.7573238563184744
4654 7 0.008223109437541341 -0.008496842062946701 0.0004919167852555493 1.210155432389115 -0.6763509332170006 -0.1300080175170441 -0.1557313428594789 0.7061196220407957
4655 7 0.008246902991364812 -0.004853199356019801 0.003023636710113332 1.210152179961377 -1.481916760040009 0.4281510345473326 -0.1200126623294696 1.547188944890325
4656 7 0.007294359631613729 0.0009426310543440823 0.00295519724958684 1.21013519549019 -2.419867127245524 -1.13611934548019 0.2092561207131537 2.681475751289532
4657 7 -0.003096504957968199 0.007654838741532412 0.0009816211267706654 1.209940476176377 -7.815340547500121 -5.952054711459307 -0.8956498021441733 9.864516801632268
4658 7 -0.006314519944904833 0.001186725278487791 0.00146664300746661 1.209521617341894 2.519436899072852 -7.058524587352101 5.336329373945483 9.20036645063105
4659 7 0.00879612719395614 -0.003760128685532509 0.001506776661344121 1.210154320815115 -1.582482590753921 0.2586000191885111 0.05566652632000643 1.60443880597425
4660 7 0.005677042823852473 0.00536314848174199 0.000964890512296406 1.210129580022367 -2.703477540854418 -1.441804408250163 -0.2492933765331461 3.074042607566973
4661 7 0.00734029019521769 -0.008312160970270977 0.00148973028823301 1.210151992042238 -0.720962031638433 0.07228423758701327 0.007035108966986486 0.7246107609095589
4662 7 -0.002941289332060001 -0.007529755332740345 0.002509437673775294 1.209938500390711 -7.66142909826592 6.840600846468723 -0.5566067143961138 10.28596747044123
4663 7 0.004702691692397123 -0.001650610059735035 0.002976345161166905 1.210093284220346 -4.496989787368777 0.5189475198135693 -1.211377277956194 4.686113377370237
4664 7 0.009092446748134987 -0.0002776413596095782 0.002975221037589444 1.210154838045951 -1.770748671083276 -0.1558478056586542 0.03459191072858468 1.777930255932346
4665 7 -0.005938189097487967 0.007411560156445255 0.003499395166421551 1.209827869608912 -5.533877186208032 -7.375386250075548 0.6769736114378976 9.245453602740129
4666 7 -0.001586732177013861 -0.008239461966083541 0.001501576762034023 1.21001613319013 -8.524959309700888 7.276387644407785 -1.85610774498568 11.36071671791626
4667 7 -0.002937480516605618 -0.00411207521002828 0.0004854798291929843 1.209783511377509 -9.102597770240127 8.714776700649049 1.001915674639434 12.64153685783672
4668 7 0.001545764803093897 -0.007109258216109042 0.000978086532657365 1.210068973065629 -4.799677053864396 3.853147572688658 -0.3827464069996843 6.16685826417148
4669 7 -0.005261668521443726 -0.00261898358713639 0.0009531777813427402 1.209602878895336 -4.18532481177287 9.023247306294547 4.055210413224279 10.74153933224266
4670 7 -0.002516418740572308 0.009836661469927961 0.00297552019424069 1.210040167432566 -7.250830155770532 -0.2040970723631069 -2.883425126194717 7.805788494517996
4671 7 0.01083131099992803 0.002783976209659499 0.00247504006843 1.21016775924936 -0.5135124811901789 0.03128462633918842 -0.03873683032160816 0.5159208642869966
4672 7 0.00874029696468121 -0.0007454412239360145 0.00248281442723903 1.210151858787833 -1.623136147277092 0.02215098574589426 0.2132435441009949 1.637233773127036
4673 7 -0.003215252700268234 -0.002047457709013468 0.0009943503599701335 1.209648966639133 -7.930943680044259 13.6296286720995 2.936755458484043 16.04029856387613
4674 7 -0.003415658683946781 -0.006944993631011906 0.003487338107884064 1.209896727676799 -9.276001512311073 8.831609894199408 0.4895056225317636 12.81722095987303
4675 7 0.007001815968048617 0.00284885578935133 0.003498888617263351 1.210136174371707 -2.16657709225589 -0.3237478819300495 0.2386543609201463 2.203593631259717
4676 7 0.003104572014264221 -0.009060266289508588 0.003510131128494887 1.210141961968868 1.514557494463817 3.151862085546313 -3.00919269747042 4.613389177258967
4677 7 -0.0002943658207751155 -0.0001401974693288664 0.003000120002470811 1.209795078904071 -17.42610910580909 7.794757662495138 2.363270162578325 19.23571083807204
4678 7 0.00464315202803565 -0.007301474547100549 0.001048781344350919 1.210125676957182 -2.492608233333675 2.003211416708119 -0.501186818754128 3.236841054516804
4679 7 0.005404847946417614 0.005922834251225449 0.002964890512296406 1.210131416346679 -2.317880257474646 -1.462438186242544 -0.01370024197762774 2.740708308667918
4680 7 0.006970786948215882 -0.007495861843682223 0.0009978135029774613 1.210148856343626 -1.381073823139419 0.5238834793455399 -0.1791299792032506 1.487920143805264
4681 7 0.001141220279651814 -0.002587125818147767 0.001528490151964375 1.209951048678777 -11.97124391571641 3.140258930795247 0.4444644703637751 12.38424223388061
4682 7 0.0006043454047909788 0.005340855305896964 0.001021932314951034 1.210006821818824 -7.35161317500673 -6.512426241976029 -0.8808305309562073 9.860718749481457
4683 7 -0.00500377354652054 -0.007306565251904773 0.002563473416573538 1.209848880702499 -6.762788078616803 6.736103516545022 0.2329824130545831 9.548019375068554
4684 7 0.000625769014194496 0.009425038676655707 0.002989905090340756 1.210170856917928 1.403925451468649 -2.311313027206983 -10.8162187984111 11.14915977453547
4685 7 -0.007161628145863347 -0.001057708510571616 0.001380717913657215 1.20954036194803 4.882743454429354 3.82120509894342 6.426670009786172 8.929998850204232
4686 7 -0.006022321447128472 -0.00551153599332649 0.001050915838647677 1.209744936363018 -5.056346400679072 9.887602691619731 0.8177818836197984 11.135532906878
4687 7 0.001338509823131055 0.008515468745880914 0.001495650452515252 1.210111967155506 -1.715652866419574 -3.419094308177061 -1.443089411809809 4.088542245928254
4688 7 0.009338464446436498 -0.00247054559173022 0.002990733340880374 1.210157761397047 -1.553326245895458 0.09661834897580461 -0.0407831097121963 1.556862483838661
4689 7 -0.003238800109580439 0.002657608997274806 0.002962590574092678 1.20958297259066 -5.346813626057182 -28.9790164995503 12.44823921305472 31.98953692597679
4690 7 -0.007020325560008539 0.004964597450734053 0.003485561219539678 1.209678229598336 -2.040689597318716 -12.97153566008624 0.6423244684783901 13.14677649221663
4691 7 -0.007483552715092613 -0.000613954167805988 0.0009109163519761218 1.209547795866514 2.282095467826037 5.49036670631844 3.094431925583907 6.70280502746388
4692 7 0.000766515345241651 0.005975310813808061 0.000547510077209633 1.210028406102169 -6.645750121448257 -4.728075097207315 -1.648479226181137 8.320947816247392
4693 7 -0.009414661749794079 0.007151863755804871 0.003505185050544919 1.209747679653436 -3.388901587576362 -5.680408188123557 0.04443226213747253 6.6146553485346
4694 7 0.01163697558747379 -0.0007341527028200673 0.001307368092754833 1.210169258954676 -0.5275785600901608 -0.1839686489116577 0.1362214524935336 0.5750998912959697
4695 7 -0.0007550018956465549 0.005842701704067225 0.003048361286646282 1.209969567188258 -7.872585749583258 -8.838177650335478 -0.5995957768413538 11.85118161446515
4696 7 -0.007869618966231147 -0.002374110375839612 0.002404867060783897 1.209558108881745 5.872326633575735 5.784092906623489 6.665066981181725 10.60014474936517
4697 7 -0.007774414811119673 0.001721880563050919 0.0009724475387967784 1.209567954502234 3.57132577878623 -7.561845412387808 2.870459538341299 8.841686028146903
4698 7 0.0003224044105795119 0.007316526757809365 0.001034251569905144 1.210060553636007 -5.857653406692706 -6.992392569296852 -1.775532573749421 9.292909834736466
4699 7 0.00105598222039326 0.003225300207826695 0.000965225958365334 1.20997142000603 -8.958707430232124 -3.672333542783226 -0.8636717899316118 9.720617337940565
4700 7 0.01065324441168314 0.004931139027101907 0.002510030271315813 1.210167477988709 -0.4835776665422949 -0.08033870187845363 -0.07932587580796094 0.4965825824278436
4701 7 -0.008546792345964761 0.008222215676797019 0.003505185050544919 1.209795794704894 -4.456063973668926 -5.562798339320294 0.7988860729036807 7.172130120044825
4702 7 0.0006886984298601366 -0.005552428737619209 0.000484699105247369 1.210006970341132 -6.869252833218857 4.302035301106872 -1.663468411345964 8.274132545119208
4703 7 -0.002920121932537226 0.00971532403477776 0.003488743033681845 1.210024509723449 -11.42127121395616 -3.049515028647824 -0.08963730888249784 11.82171784893534
4704 7 0.001995331631789679 0.007400905974579791 0.00350984695714963 1.210123291006838 -0.2939354350312317 -8.36861618516412 -2.711321181814713 8.801783764982812
4705 7 0.01115061586303353 0.003574404146826002 0.0024685798451239 1.210168549467423 -0.5230098513507763 0.007498297624825036 -0.04928092214509353 0.5253799942562548
4706 7 0.007393219552945449 -0.00529316611779153 0.003022964243589096 1.210146081192917 -2.36173292484404 0.5120177187321372 -0.1401546252375183 2.420658561541366
4707 7 0.004595103813562395 0.000536795333098958 0.002387972375327558 1.210084560457003 -4.762466318701907 0.2513226537482935 -1.559118805652647 5.017479443226142
4708 7 -0.009710675367377873 -0.006743615553868416 0.003508083214484921 1.209732673146452 -3.195962635914577 5.769393594123862 0.7041858803155026 6.632944848867298
4709 7 0.00629915044963818 -0.003206815826759217 0.00252383841188861 1.210125696029944 -2.556610734512019 0.4680007444465304 -0.4120614340607715 2.631554249880631
4710 7 -0.006779754494758389 -0.009778235886534198 0.003505957228586504 1.209873501209881 -5.681697884299409 4.356363915957071 -0.342605709716706 7.167773440130184
4711 7 0.004345639744504096 0.003286849935346661 0.002418702947834419 1.210089833157021 -4.884525680852236 -0.8610536240143054 -0.8780358839075393 5.036958554898229
4712 7 -0.0033010041789019 -0.002578234439835991 0.001002232665698549 1.209673862124077 -10.17260926364501 7.963776343736492 3.726522874406928 13.44584268899987
4713 7 0.002386940211223979 -0.0009751816189372063 0.001491199242332578 1.210000771752149 -8.293098260275247 2.12225930019848 -0.05507060521293695 8.560519614101576
4714 7 0.005730339660380132 -0.005753704628600279 0.0009845496587353487 1.210127470507032 -2.363499809597186 1.294299350061681 -0.2869440875209033 2.709922335953418
4715 7 -0.007376025233758471 0.002397512158428114 0.003018782530454672 1.209484505357949 9.120917025322692 -33.43721338550108 12.37330507655656 36.80131852105158
4716 7 0.004797095184774328 0.000860529322790094 0.0008975900275773922 1.210084766964291 -5.034925685750641 -0.316167782477865 0.06608037720256661 5.045275546881435
4717 7 0.001402487152381302 -0.002781443414549124 0.002528490151964375 1.209971289238397 -11.9668868384998 3.02812849706272 -0.6560023985166419 12.36148380846906
4718 7 -0.0008644893605852741 0.004758679153887327 0.0005008512094366488 1.209919555520323 -9.475990037153872 -6.347869173024705 -0.4818083282534286 11.41586481556484
4719 7 0.0003275259221155729 0.01146750859327904 0.003014083849701873 1.210136963011446 -3.924993701406425 0.8681480048101804 -2.375526348150516 4.669302083298246
4720 7 0.007046140979225478 -0.002844934614210835 0.003535793001244682 1.210135113995037 -1.919056182582737 0.3907900241176408 0.1852038392957113 1.967179182725551
4721 7 -0.007456103518899798 -0.002970813772808453 0.002968712916561889 1.209559896064833 1.476972642865941 13.35156299246679 5.859593855493969 14.65539227318484
4722 7 0.00833964761572807 -0.002987166165980402 0.003043386390894268 1.210149240818881 -1.867606248617947 0.2383664152499165 0.243619950581224 1.898452614135285
4723 7 0.006811027798667099 -0.0001165361855956901 0.0004803003784608457 1.210127872730142 -3.171539408485918 -0.1854733280069908 -0.2722807017413479 3.188604609468216
4724 7 0.01079416659561649 0.003481553772369449 0.0009608414262253103 1.210167894077685 -0.5302426055991789 -0.02345967074675644 0.09257703097311065 0.5387746129950342
4725 7 -0.008546593653376582 -0.008222448425510171 0.003510920216871459 1.209794029798624 -4.497171647590963 5.411850988186895 0.5716692447812328 7.05970889425791
4726 7 0.0009782546432218074 0.009299770544619388 0.002488967093010866 1.210147510057148 -2.294659089783453 -2.077283651601175 -8.919288516087544 9.441095028689547
4727 7 0.002289943481675525 -0.008620737325103394 0.002690977890164327 1.21012593545657 -3.053017023564222 2.076684572709584 -2.770696279387459 4.616306925813581
4728 7 -0.003391331428149825 0.007054279469667806 0.001484792801185479 1.209905178104138 -8.32517856341024 -8.883501903937038 0.07424117745970088 12.17500373479815
4729 7 0.004447711121131813 -0.009103741633645307 0.0005663142828427598 1.210135965795185 -1.507552077638399 1.132332830085076 -0.5622979955059598 1.967503479191422
4730 7 -6.753580029085791e-05 0.0003755809126216014 0.002981642564842566 1.209825890165743 -23.03025552391676 -12.24067740509206 0.4274991304164839 26.08466231981807
4731 7 -0.006971427710215129 -0.00335332899292215 0.002457645457994155 1.209600191286933 1.273142183324879 13.73451643806935 6.113094194490281 15.08733751982997
4732 7 -0.008944864909481411 -9.933039892374935e-05 0.001413113628383117 1.209563036240851 5.726154171308759 3.68005359801504 2.886575915556087 7.39350773274287
4733 7 0.009180121928931754 -0.007146337180674313 0.001501733315769899 1.210158658912904 -0.7182351706857933 0.01605340881231697 0.1179631969782308 0.7280348811601481
4734 7 -0.009790758038048502 -0.006729017264034588 0.000508083214484921 1.209735132560917 -3.155762587893615 4.868349445637553 -0.05870518732039411 5.80199191097392
4735 7 -0.004441996912596613 0.005319598137179333 0.002998325978219964 1.209762737345727 -5.675032542939046 -13.50127169241696 2.376270973302036 14.83701436996118
4736 7 0.006507357459484477 -0.003781680934712676 0.001037875598471871 1.210129210590988 -2.641204004499604 0.6392949798774108 0.1123794163784348 2.719795175726797
4737 7 -0.00282489403851616 -0.001737879647405859 0.0009943503599701335 1.209661359914737 -15.97272701296498 5.410438413730244 4.68273778872878 17.50225371937733
4738 7 0.006946214721575729 0.009477682919156927 0.002498026119612691 1.210158866464709 -0.4554958389622624 -0.2784685437871572 -0.05536687218169947 0.5367370675908827
4739 7 0.007760128330784695 0.0001682180588869297 0.003474896871125994 1.210141247673691 -2.08334114830837 0.03758348472547123 0.110465553880355 2.086606215162085
4740 7 0.01107073378778553 0.004025920079002436 0.001468579845123899 1.210168445086697 -0.5226285317377901 -0.00431169873320012 0.1001308724500127 0.5321516368009827
4741 7 -0.0004119272574043355 0.01174628509975043 0.001011225245622042 1.210103032337301 -4.726224888527518 -0.09116369333366894 -1.592317393579216 4.98808452191962
4742 7 3.057451192863719e-07 0.01129114494917745 0.0005031635976452445 1.210108363320586 -4.527865208335841 -0.218635024429244 -1.769524223703723 4.866269679851252
4743 7 -0.006782099403608495 0.009774433134296087 0.003510761436187152 1.209876945302226 -5.86176122591695 -4.611987671766475 -0.1891397792301032 7.460995162193616
4744 7 -0.005673029626010353 0.001548973638180154 0.0009918807997124962 1.209546877797968 0.06761165466840424 -8.158042251271599 6.89548773082922 10.68203986864849
4745 7 -0.004226763320075162 -0.007633320436059301 0.003487338107884064 1.209891577323198 -8.174821540375746 7.201522004601232 -0.3080944905832682 10.89883244273784
4746 7 0.003208509228573845 -0.001368786780033704 0.0009824361866590384 1.210036558744839 -7.143749980060341 0.3462684798078092 -0.6857618970327917 7.184938066340067
4747 7 -0.005137961687292851 -0.008196414349333403 0.003514152011474062 1.209878217128506 -5.982431775618332 7.636879502501999 -0.7545703964486568 9.730405693950265
4748 7 -0.007454552396073746 -0.00718840289872523 0.003501256810142374 1.209783459349988 -3.208051523833638 6.603924419810461 0.2925391560868645 7.347720155257975
4749 7 -0.00241886643116498 -0.005982366864003946 0.003009357385403422 1.209890518821069 -7.282447058486174 10.47569028329133 -0.2470499600670504 12.76068790284707
4750 7 0.01084594332765065 -0.003452955748917153 0.003483139951230789 1.210166139000544 -0.4619624906829522 -0.1113887277292225 -0.03550582258064905 0.4765264472201517
4751 7 -0.002798803701727891 -0.003572667584527994 0.003004336275229886 1.209712441517498 -17.75738378014136 13.77688679906885 3.432289050607833 22.73560856270418
4752 7 -0.0007746163762116608 -0.0004427621498657711 0.000491356946797271 1.209798049666232 -13.16588257040963 0.9652823687588001 5.079471824473844 14.1447257988579
4753 7 0.0007264481407958101 0.006598487305041229 0.003547510077209633 1.210074082832827 -1.157520326532364 -11.97339019704233 -3.151819160464969 12.43526799619691
4754 7 -0.008200858018491278 -0.0001965545372075763 0.002910916351976122 1.209465068676109 23.81552989516283 -7.293758824908628 18.71038218188462 31.15215535682102
4755 7 -0.006744116772321014 -0.0009860079691915889 0.002944563769435207 1.209363876614035 19.94862527672 8.361359493933191 22.58340817738155 31.2709179258301
4756 7 0.004364167654392377 0.0002924469513791529 0.001387972375327559 1.210073988481893 -4.844791650464722 0.4268863425277949 -0.2503739058820513 4.87000258507078
4757 7 0.009418657156822809 -0.006867402342949296 0.002501733315769899 1.210159659430355 -0.7166880490292031 -0.006146046837279569 -0.14898974538652 0.7320365276018346
4758 7 -0.001184221129262285 -0.006702342832933612 0.003523877556210437 1.210000565067876 -8.14723641468589 14.78744672162478 -2.920264513117439 17.13400089203477
4759 7 -0.009097726990567852 -0.003613644298195489 0.003498911354880796 1.209628008493955 1.254568761480219 7.911683920155043 1.240764144757265 8.106058283323474
4760 7 0.003573333515987924 0.005270265913831888 0.0004882859329187122 1.210089902523982 -3.574945106307825 -2.529316259133417 0.01741880992219801 4.379266681394276
4761 7 0.007210455048831039 0.00877362742662785 0.001006675013507022 1.210157548015176 -0.7519386510300846 -0.1111452349550568 0.00785980058601397 0.7601491791953801
4762 7 0.005009133943580092 0.001395691943955198 0.001394417255427992 1.210093232632915 -5.201937044877273 -1.267378701759745 -0.3588723419843023 5.36611471647616
4763 7 -0.003688377825912858 -0.0089190480115461 0.001012374021154854 1.209951446591025 -7.203487477010269 4.439969863440429 -1.016917928989634 8.522774565480631
4764 7 0.01025990906540679 -0.002127195327788751 0.0009834641176942383 1.210164279442475 -0.9278448167326213 -0.004234958126401909 -0.1436016093646658 0.938901145499379
4765 7 -2.265134345245365e-05 0.004712600180423561 0.003474422237741401 1.209955844015011 -10.74338213309273 -8.861643928054729 0.04332710817274732 13.92662450142129
4766 7 0.002727693443900536 0.01075468382035533 0.002992514895026412 1.210154061230509 0.9116436268508205 -0.8660025160436364 -1.877854403152787 2.259953897674007
4767 7 0.002933369780781583 -0.001912363116902003 0.0004920538389088719 1.210028292939596 -6.670542490488595 1.536323811180782 0.03633597400396078 6.84527196488362
4768 7 0.0004059944916459953 0.005044555482983187 0.003474422237741401 1.209991408223997 -8.300589940059426 -7.026121659583184 0.2320449241518446 10.87750080556671
4769 7 -0.004699543259374569 -0.007926683674987287 0.003001490119358126 1.209882834021158 -7.572163523917613 7.321158851288017 -0.05755673503956854 10.53282204048325
4770 7 -0.008632412563223852 -0.002635458492624996 0.003498911354880796 1.209566658812824 11.26098837570571 6.000469332732264 5.110906373104847 13.7454303448631
4771 7 -0.0007463043963924879 0.01019259309989837 0.0009899407582040897 1.21008502081339 -5.926062159155628 -1.909598232242692 -1.585626838894718 6.424872807689187
4772 7 0.002999435866868712 0.007507359276135548 0.000996197386102254 1.210113850828777 -2.333536464344567 -2.761072168215106 -0.3484574190047158 3.631850013612517
4773 7 -0.0007212926453357668 -0.01102955922373287 0.001539701644227577 1.21008826923513 -5.271213567413041 0.6929402940147146 -1.184236100859657 5.446859082712513
4774 7 -0.004286871764550194 0.001556002456020496 0.0009652941837376807 1.209582300656149 -9.11088210125069 -5.268403774402686 7.082018041839222 12.68539437849556
4775 7 0.005977255922860662 -0.005215267648948636 0.0005020825972271893 1.210127492716465 -2.580423522191684 0.7388441811285266 0.1371102205141112 2.687615205053924
4776 7 -0.002144454452040625 -0.01098344792266246 0.003079331923003989 1.21005720229328 -8.258760239330174 2.819268180560099 -1.285948551287549 8.820944248844237
4777 7 1.00377475307217e-05 -0.01089570354697977 0.003490965497770762 1.210146045007516 -0.7866884095963596 -10.86968171136401 -6.752219937133699 12.82034840554578
4778 7 0.007878867830446452 0.005486414525411256 0.003509392708264721 1.21015405315231 -1.690287445169254 -0.6897450708205507 -0.07267203959910704 1.827047108138579
4779 7 0.01014612176443646 -0.002039122775174465 0.002983464117694238 1.210163618855521 -1.128578373529539 -0.01230172313770544 0.1561344975476215 1.139393899806026
4780 7 0.001128615322698639 0.007871676213864151 0.000996588449845141 1.210093569244435 -1.920958875807983 -3.85413206084704 -1.651765668043355 4.61223880204844
4781 7 -0.005050414960344089 0.002973141568997132 0.003015607782849198 1.209512595656071 -8.658700795961316 -36.17600371067493 24.81556795486874 44.71564331273179
4782 7 -0.006042782788710371 0.002039815011815697 0.0005210971994120068 1.209577677959168 -2.071719061878138 -5.473962868921308 4.512502228778771 7.39046451357503
4783 7 -0.007436746207221007 -0.001997487805281385 0.002905955705903102 1.209471878386049 16.05958103834131 27.36718109731293 18.45928784967277 36.70991762803686
4784 7 -0.005465977996256301 -0.003003845718383377 0.002442110322775006 1.2095373434645 -3.209211287684598 13.03266324103202 23.68420122190757 27.22298175738575
4785 7 0.0009996696973775259 0.003067636141619879 0.002965225958365334 1.209963339585289 -12.60714838313164 -4.820666603822541 0.7964774508918055 13.52085031310116
4786 7 0.005287740938208424 -0.00590957284166189 0.00348246706150816 1.210124310755732 -2.412767943648528 1.373076890908734 -0.02612520210259314 2.776233387961185
4787 7 0.0002758807005197746 -0.01173860817735184 0.001474449033534071 1.210110260404091 -3.20233923083386 -0.5514273133627462 -1.251836384198542 3.48226118550337
4788 7 -0.005592630883630318 -0.001520821375562806 0.003469801561681093 1.209294792822835 0.3365280775843879 15.67846491124905 21.33420818561123 26.47783888513698
4789 7 -0.0004710992087405665 0.009466755482200329 0.001476682250899601 1.21009009624699 -5.872976159957867 -2.025305423553905 -1.570127540811543 6.407730606737866
4790 7 0.006589133949425427 0.001380261173310644 0.0004803003784608457 1.210126063261863 -3.324438241297621 -0.4257987972239596 -0.4032609492882556 3.375768598281028
4791 7 -0.006664251355422461 0.006430950406904287 0.0009849563859612293 1.209775311851213 -3.848239296971658 -7.356520701016922 0.252943998035811 8.30610156315162
4792 7 -0.007502300987243338 -0.003076777402400992 0.0009687129165618889 1.209610582346607 3.828673098729381 9.031089640741765 3.777987495273861 10.51154162387672
4793 7 -0.009151568780590992 0.003639407294747292 0.001006985426766513 1.209644600425509 0.08089590169946428 -6.680525893792556 0.7479269285140445 6.722749813501991
4794 7 -0.009210188585587951 -0.002462880723023838 0.002987393738299662 1.209591124439605 4.562220512422344 7.625204460427241 2.472796026576991 9.223465685757262
4795 7 0.00244407741944645 0.003904051790851339 0.003448376604785651 1.210046285335339 -5.459536248008709 -2.186884633623551 -0.3460374846144197 5.891412596725686
4796 7 0.001513526879456878 0.0116011185764525 0.000510920252056628 1.210131217152657 -2.084503519481899 -0.3308971451126271 -0.7175855375046828 2.229254773912572
4797 7 -0.008184149111887942 -0.008491206862588549 0.0004926449535114375 1.209809364734862 -4.689490747449961 4.99054557135587 0.2281346708192501 6.851927757808622
4798 7 0.001880304585936059 -0.002800916366931754 0.001035918860271674 1.209994115556441 -8.781105889266653 2.462854282844512 -1.237970905059518 9.203588638070094
4799 7 -0.0001943885212038917 0.005422522275079493 0.001522783524387682 1.209976149908172 -9.086213710534524 -6.941472610444116 -0.3407138076361435 11.4393796813361
4800 7 -0.006381361658622351 -0.005073543243860459 0.000488932541432266 1.209721674028659 -2.962518785887069 7.688643692968928 2.368056992518943 8.573182216305829
4801 7 -0.004913871916456923 0.008510625960713739 0.000496703183449469 1.209899245019959 -6.610778523045393 -5.79076262449933 -0.1303793080672437 8.78933007788584
4802 7 0.0003375108093276995 0.0007185059954440241 0.0009816425648425651 1.209892059503 -12.99582953872688 -1.307301051684304 0.5271418552120245 13.07205033554023
4803 7 -0.006962241180839379 -0.0004361353139167379 0.003474762207754114 1.209299799332471 20.24292129422782 8.212674009692467 22.32468719786469 31.23484489150352
4804 7 -0.009615420639818514 0.001208684917012317 0.00299988260744966 1.209569783307413 9.252202014163498 -6.944572220721836 5.162439158704963 12.66811365227842
4805 7 -0.003571971612174959 -0.0001226464799334446 0.0004754939139332312 1.209606361640482 -10.73602758331982 -2.052784688145775 7.155038676492263 13.06410317273214
4806 7 -0.003353207784957195 -0.001601195249147117 0.0004754939139332312 1.209637381376256 -10.88453729293969 6.163128989636554 7.794000647176097 14.73783420698153
4807 7 0.008235027536917015 -0.00517847168846473 0.001510807952457747 1.210152595900882 -1.404749870245239 0.521652282490087 -0.02705714986259126 1.498724588154815
4808 7 -0.004491461037328437 0.009700637125788955 0.000488743033681845 1.209945580866453 -5.938292384285979 -3.99488209613378 -0.6318661678682855 7.184821101278419
4809 7 -6.807789836692271e-05 -0.01184282905504373 0.002474449033534071 1.210112988752051 -3.15334062929404 -0.5599393221420499 -2.064363426867359 3.810339292900958
4810 7 0.001681132137903924 -0.003351572183466346 0.0005438650213628018 1.209992817521724 -8.13644237460969 4.094343975391219 -0.1037080263348597 9.109121936767167
4811 7 0.004325086742449 0.003853464326791086 0.0009218757199838193 1.210089808369485 -4.486986578775514 -1.70481284668069 0.1850681434518006 4.803507636929477
4812 7 0.007286679386465414 0.0005561712693745344 0.00295519724958684 1.210134987056244 -2.513095891558922 0.6757848186876009 -0.0964565974586999 2.604158204973783
4813 7 -0.002673595072272838 0.005694742735765632 0.001004022883851462 1.209876669888929 -8.313010978397099 -7.76165055311051 0.4527879150653636 11.3821960856234
4814 7 -0.001109366867093673 -0.01125926302009471 0.003048736146456816 1.21009285041256 -6.353802861744343 0.6464489572124851 -2.078881957010355 6.716431883922811
4815 7 -0.004416067790298964 -0.006527844550746918 0.003487338107884064 1.209831469984272 -8.448582456123308 10.38248086654048 -0.2229520807929761 13.38746286987656
4816 7 0.00181594454654249 0.003127767703374188 0.002413602563150985 1.210007468260238 -7.363462935560074 -3.164432131970346 -1.369604364916289 8.130807662072147
4817 7 -0.007111956562905876 -0.009347526297451579 0.0004926449535114375 1.209857233658338 -5.224170741432405 4.474873370859552 -0.4657867733299534 6.894447689197117
4818 7 -0.007457154925894039 0.006816023647034325 0.0009849563859612293 1.209773724320716 -4.041654715169571 -7.281019734244499 0.2632690959523522 8.331718419629521
4819 7 -0.01129545682820156 -0.003141185975024907 0.001490019392277228 1.209639700718382 0.4331003593997978 3.837692471320858 0.8149194685280953 3.947094268690722
4820 7 -0.005650820140239689 0.01046027408344607 0.003510761436187152 1.209928159921176 -6.621290281875193 -3.929537928781183 0.5726183253080057 7.720793034207259
4821 7 0.001003534311135522 0.01131820326383162 0.003014083849701873 1.210146626186637 -1.495961829345557 0.1399353081804046 -2.411187118981461 2.841004577271316
4822 7 0.005003283754626437 -0.0001143504100411681 0.0009706827262110122 1.210090254049964 -4.725095566377664 0.2263425053860815 -0.3457156967432342 4.743129598073509
4823 7 0.0009128680732226457 0.009265759791715409 0.001488967093010867 1.210118718946736 -2.344117028164932 -2.311121309265826 -1.404875105280485 3.57908373879576
4824 7 -0.002813562434581508 0.002935173429284789 0.003468079990655487 1.209624071065762 -15.08536736528296 -32.16224563005565 4.826769215897473 35.85074690403413
4825 7 -0.00511345485252053 -0.00731065675320731 0.001563473416573538 1.209847071638721 -6.724251653926861 6.722970913603632 0.4950487658972282 9.521500485276203
4826 7 -0.0030937480004063 0.002496584141297356 0.0009625905740926785 1.209683160683648 -16.06805200231797 -5.916280514291869 4.247371905924727 17.64156564424549
4827 7 0.000283228689589395 -0.006503364704636576 0.003484699105247369 1.210045368484028 -5.852787692153764 11.15316352744348 -1.857874906087779 12.73184509825629
4828 7 0.01123974692296557 0.003918261485916677 0.003507738418898589 1.210168758504499 -0.3123877540234372 0.02381686800472435 0.07044049492038106 0.3211155794881186
4829 7 0.004682555164941283 0.003402715608662968 0.001418702947834419 1.210095967096692 -4.929378811276509 -0.8242690288783996 -0.2807742215304297 5.005699657441101
4830 7 0.007556510251992893 -0.002842967840356737 0.001043386390894268 1.210140631190509 -2.530789959762125 0.4354157686972164 -0.09063690915137336 2.569571902353285
4831 7 0.008105135897839585 0.003108309240365692 0.0004988886172633515 1.210149623295271 -2.07124266333701 -0.3340421514460228 -0.1488816687579813 2.103282216123704
4832 7 -0.005626036341225197 -0.004796645214021733 0.003488932541432266 1.209686338615889 -0.5868441601062953 17.63217566560237 5.003686637479047 18.3377993428055
4833 7 0.005947706009460221 0.003434319399649186 0.00246921496031212 1.21012209384843 -2.672860477568466 -1.353470845895359 -0.5667577023601772 3.049144266252552
4834 7 0.003548251920250713 0.01163045897963696 0.001016747077487462 1.210148149585017 -0.8036021358988693 -0.5275187072388871 -0.4756836510319869 1.072533130102438
4835 7 -0.004877535426158161 0.007916119309334156 0.003496703183449469 1.209881549756946 -6.429080715551225 -8.265343507159569 0.4748639115784682 10.48210274100274
4836 7 0.002293587584791252 0.006435296986881986 0.0009981328900683416 1.210083942259812 -4.354919885922481 -3.88244212400472 -0.8425964453189106 5.894798794591162
4837 7 0.00941215806441521 -0.003847873536700542 0.000970983660099439 1.210159101996891 -1.377922099448451 0.1739859443812201 -0.1523174580533178 1.397190405427433
4838 7 0.01054545473467819 0.005632770889268942 0.0005109202168714735 1.210167325834708 -0.4124567022007525 0.1241158897604204 -0.1444208126278218 0.4542935795291647
4839 7 0.008536851040022804 -0.002971162917023843 0.001526526342125056 1.210151385984452 -1.537239520243324 0.1179876509765499 0.02357038487271309 1.541940981822565
4840 7 0.0009736327856063639 0.002564482645331696 0.0004908037206239333 1.209952196548989 -9.00783778371437 -3.796827614091439 -0.9421573515423507 9.820626351913853
4841 7 0.003170499663889361 0.008889486250780752 0.002985412431622735 1.210147307933332 1.40905630974529 1.752291898423543 -1.582617242627176 2.749662509831824
4842 7 0.00209809442754706 0.01197869136802708 0.001004373144412929 1.210139195612818 -1.678401923065432 -0.2462987589348014 -0.5259250058344866 1.776032996811875
4843 7 0.001998807500451775 0.004456629296760832 0.001411084775445764 1.210033498614002 -7.39042463015424 -3.354901652532296 0.04250109976296549 8.11637527814205
4844 7 0.001959748653097875 -0.008925487608022864 0.003197590462754331 1.210150867944245 8.850949972483855 9.78490466501373 -5.295001225407982 14.21691642712622
4845 7 0.0020846736108267 -0.009474438766316061 0.003510131128494887 1.210168990892757 7.745854101157564 -2.158731783238254 -0.7060481338655615 8.071981332716119
4846 7 0.008937829506070211 0.003684799798195396 0.003491371635545751 1.210157328930751 -1.612747597255411 -0.598480051564401 -0.03311715377048176 1.720531874289891
4847 7 0.0008388873516344834 -0.003038658231330264 0.003036436313055503 1.209940771210269 -12.20622246960877 2.813971148882253 -0.4972230143877296 12.5362486945003
4848 7 0.003792338010669695 -0.01066321832152565 0.003017486173438219 1.210145051864681 -0.0254140310798275 1.1197600228519 -0.8328016262866026 1.395731682845462
4849 7 0.001832118134506429 0.00387764687477105 0.0009227988425270517 1.210016499753253 -7.453276059238813 -3.482458644535388 -0.02678318380734469 8.226758752088003
4850 7 -0.006427591665665667 -0.003534930408484602 0.0009587341031133591 1.209634322008668 -3.839698369228433 12.06068278551627 2.52309317164013 12.90617495512443
4851 7 0.002221089231024035 -0.004699537884614359 0.001044049193301889 1.210036331657034 -6.33369138267828 3.421351075007932 -0.4460655358343831 7.212507481571873
4852 7 0.002572986571294316 -0.006611802279721918 0.0009935715993490829 1.210083892608841 -4.220124139201513 3.586664339988558 -0.9039413684783121 5.611659187411805
4853 7 -0.003965129115337018 -0.01124806926594498 0.003492476648664522 1.20999334788456 -7.390906914830418 2.600299024112183 0.2108256089518645 7.837825430301238
4854 7 -0.004738603717033759 -0.001047188772568801 0.0004754939139332312 1.209567955767911 -3.445055713117969 4.069062499881568 7.315932003897803 9.052543265849952
4855 7 -0.002540611371168479 -0.007280384557473055 0.001509437673775294 1.209942898844028 -7.664173928876348 6.839382677262608 -0.5112117603516954 10.28484588518611
4856 7 0.00933378526732594 -0.0008926619456353225 0.00350032416646345 1.210156932307388 -1.887685722989578 0.04142234737023287 -0.07024041272803259 1.889446192729645
4857 7 -0.000794622777304285 -0.003098590222800297 0.001504994791021885 1.20984463108905 -15.03090815837255 6.09553292337133 1.463142020657365 16.28571479112746
4858 7 0.002845805888647769 0.001959814574629953 0.002356469974526131 1.210035673959427 -8.588811324996323 -1.780004850392533 -1.32432771640034 8.870735096046561
4859 7 0.008981635483872163 -0.001360461809961759 0.003007917556113036 1.210153953049269 -1.767740850707628 0.2684476825986699 0.08386189054697897 1.789973376963813
4860 7 -0.006041607556406535 -0.008741060340023071 0.003514152011474062 1.209869259724187 -4.70557009014148 5.592519124743372 0.280829538415283 7.314200247703162
4861 7 -0.001622833184029053 -0.009635493031299604 0.003572030318278796 1.210095595282395 -24.79930259957424 2.071033631473842 -8.364353243785413 26.25370440366024
4862 7 0.01048086549962502 0.005673991598078048 0.003510920216871474 1.210167196209217 -0.3788113839823802 0.05654144202047598 0.1095372276208213 0.3983634063706866
4863 7 -0.004479587037948876 0.005481064060718206 0.0009983259782199634 1.20979118784393 -7.598757339192895 -9.680190918764279 1.164182222394017 12.36133203059454
4864 7 0.001679989368848578 -0.01218298288390664 0.001000820467835793 1.21012424485846 -1.546438826703643 0.5635367431091065 -0.6215060349551567 1.759351146603838
4865 7 0.009623628768889171 0.0003490526795467354 0.001489419679794134 1.210160105561335 -1.612700244740208 0.02493525535998922 0.08541943393003193 1.615153344434491
4866 7 0.002176538094591041 -0.00523197431178193 0.000500184171939087 1.210045702935055 -5.93282407032041 4.441368721968675 -0.0202466613131174 7.411111084118847
4867 7 0.0008457225314436217 -0.01064632289269379 0.003490965497770762 1.210155729224814 2.099652630018848 -9.509450413479218 -6.545148529953046 11.73359099390769
4868 7 0.008031655049937202 0.001508913122548475 0.000474896871125994 1.210146043427682 -2.033068102484734 -0.2514466650518197 -0.03482366213931608 2.048854319406666
4869 7 -0.0006543735656266274 -0.001029245208525393 0.002983928238489972 1.209777892153698 -18.05741229918117 2.190248171137709 4.016574470927248 18.62794128384283
4870 7 0.005253035264841355 0.005416591454539517 0.003473499115198168 1.210126037564514 -2.282927725871627 -1.266146326035942 -0.1685446976780719 2.615968813958436
4871 7 0.003939712635307519 0.0003989027053642768 0.002907671996866713 1.210072954001341 -4.569808839521133 0.2847615738069038 -1.695303066014538 4.882447590022934
4872 7 0.008862194178254575 -0.008479823935976528 0.001015098828681592 1.210157697808065 -0.4768929069807661 -0.0849144795707949 -0.06822358579311774 0.4891745815430474
4873 7 0.01170362036914178 0.001023404861270623 0.002626474851700691 1.210169952870471 -0.4445512569629979 0.03691620185546299 -0.01645882299761457 0.4463849447296374
4874 7 0.001989504339723107 0.0009719086996163194 0.00241685642541402 1.209991751667911 -8.760073023026422 -1.702212332916296 -2.604056965869017 9.296102348650136
4875 7 -0.01131345052038019 1.396280769328827e-05 0.0005021972764069947 1.20961155640967 0.9379674167327734 0.04154256013677937 1.516891068451244 1.783947076766076
4876 7 -0.004096012677081434 -0.005038988463214661 0.0004854798291929843 1.209780287137233 -5.495205149670245 9.662611579425976 -0.1749443608694931 11.11728148880019
4877 7 -0.001699644294723091 -0.01144764043503131 0.002556037751182008 1.210071123038377 -5.209321525079293 0.8268105515822327 -2.020491289647577 5.648276860371125
4878 7 0.006813240071706621 -0.007910728542602252 0.002997813502977461 1.21014902493432 -1.211279218290402 0.4210132054804665 0.1502079958959642 1.291128152385435
4879 7 -0.01022889947501197 -0.000695891897311954 0.002990679659825861 1.20957956580343 8.308470542793341 2.165017375964995 3.085072457069388 9.123357663933994
4880 7 -0.005097323527022 -0.003498038539682244 0.002972308761093913 1.209558260725315 -18.93958476924502 35.6680196006781 11.83724746300942 42.08367760743229
4881 7 0.005092207238201791 -0.01066387496991165 0.0005073550449433327 1.210144450792555 -0.8755380916186049 0.1133190484251982 -0.394067699819407 0.9667975530854943
4882 7 -0.007257604843665824 0.001843004879794525 0.002493544738208785 1.209483308146423 3.195983636990194 -8.93334802267659 24.08429697262607 25.88575629507112
4883 7 -0.005016026985925803 -0.009355189084676828 0.003514152011474062 1.209918411997726 -6.147077256527753 4.606574844650261 -0.4200565849349175 7.693083785559113
4884 7 0.005979034966464384 0.005952074111376288 0.0004913913970982377 1.210136703825889 -2.536925625506568 -1.060940695669979 -0.5677357554652932 2.807830243642649
4885 7 0.0021506063383657 -0.007665251041814594 0.00318084676166944 1.210112742892988 -2.014142601497962 5.798888454298467 -1.572819199823063 6.337005441049984
4886 7 0.007180197909516281 0.009445713352246837 0.00352329417182197 1.210159457343343 -0.3855122482900666 -0.1078223486225701 0.05205375174338226 0.4036767834725087
4887 7 0.003279285431951151 -0.002535910358144192 0.002974050770922238 1.210055170412227 -9.80741043581396 -1.21081591057392 0.5112022251963966 9.895084756628275
4888 7 0.001799218612264438 0.00311733040102835 0.001413602563150985 1.210002319727345 -7.284728722966418 -3.107597061491035 -0.1949149459888854 7.9222739096783
4889 7 0.01007113466728108 0.003526017408490578 0.003491371635545751 1.210164953770146 -1.165483431487476 -0.204480533457044 0.1571212531125705 1.193671230203009
4890 7 0.002791954255283359 -0.006159158527560482 0.003500184171939087 1.210087980428653 -3.859086888536588 4.311877419686675 -0.1194388416890112 5.787841059720181
4891 7 -0.006190082342809392 0.0009083756748291798 0.002945545808054603 1.209353052697186 3.513703382549755 -16.38398195850241 28.47724827675108 33.04140804646188
4892 7 -0.003702018376045088 -0.004012618802740773 0.002968856048854631 1.209685920376506 -0.8551063535554531 17.0724002560578 5.252567589245423 17.88260393954205
4893 7 0.0002830867688059305 -0.003361748386744499 0.002530003366347784 1.209917579213509 -9.169749667485679 5.897383921695146 0.993827732959997 10.94765452720456
4894 7 -0.01003103573738011 0.007010483340527049 0.002997868751231186 1.209735310892245 -2.35944047734132 -5.13767003811797 0.5802427496107027 5.683246821594811
4895 7 -0.002532629606893006 0.009552177253234201 0.0009755201942406903 1.210013849841885 -7.886912366336727 -4.025717739427132 -1.368737356689 8.96009106780782
4896 7 0.005770894838053662 0.002518805433185012 0.0004968272278505997 1.210114275696242 -3.077276118600333 -0.7327490485000427 0.1629709410910347 3.167508327664783
4897 7 0.0001684623122671033 0.009301947575241526 0.0009899050903407561 1.210100898935619 -4.520616635743232 -2.110316101145978 -2.281582358101248 5.485893443270045
4898 7 -0.003653974615909874 0.01072255759963866 0.000488743033681845 1.209991846367459 -6.305272809833132 -2.609505418332481 -0.06460858423526873 6.82423314401585
4899 7 -0.009786911040580567 -0.007377390858836496 0.00301900343135638 1.209749509076487 -3.004805806906589 4.491459154876009 0.09712815459217052 5.404766151791726
4900 7 -0.0006960115911533166 -0.00298810534830985 0.002504994791021885 1.20984267447526 -15.05969926663457 6.09547379160149 0.9010579869416762 16.27148574167109
4901 7 0.006282853260550709 -0.006676696070174758 0.002969638303852574 1.210139923623273 -1.769571846558046 1.033812763287816 -0.05385261557089527 2.05013498430505
4902 7 0.001100027437662509 -0.002168794676207539 0.002984625130601573 1.209941432011733 -12.02845314850913 4.279790021282598 -0.03508184561544032 12.76720480402978
4903 7 -0.008824449923004039 -0.008503170360345338 0.001003565170382896 1.209795235098546 -3.856204562003616 4.73495395418377 -0.1686433085054207 6.108890499735748
4904 7 -0.008463919611778925 0.001132779894320472 0.0009724475387967784 1.209566158818282 6.677876228258938 -5.352446040375716 2.806977220803934 9.006765826487978
4905 7 -0.008510401216507472 0.008845146804454709 0.002997268070915573 1.209813692039571 -4.064201712521065 -4.148359370807996 0.1415300504694373 5.809186843665432
4906 7 -0.006997134746382135 -0.01000437087229711 0.0009986021820979408 1.209874741093099 -4.728594748120221 3.584135510498743 0.01101090453165279 5.9334439316123
4907 7 -0.007996262664735441 -0.001830074991021432 0.003436154144222008 1.209471674244688 25.01930957456633 16.51322207840428 9.616167198344661 31.48210645089055
4908 7 -0.005665099559660204 0.01055025770941128 0.0005107614361871515 1.209925970235342 -6.050176513009077 -3.821076044043467 -0.6454035018377262 7.184831497892901
4909 7 0.01033837632496194 0.0004412295861563024 0.00301452280866814 1.210165110918957 -1.102326033611684 -0.04055731918575028 0.1467958219841631 1.112796744185392
4910 7 -0.009664437073464651 0.006772967946639405 0.000492683700686266 1.209738561117492 -3.074010141698677 -5.55216745180711 -0.3605069612632785 6.356576675640109
4911 7 -0.005740564912427266 -0.002168219351051764 0.0004698015616810932 1.209587826014599 -2.360941351458294 6.722755466289917 6.052056810043863 9.348629672660854
4912 7 -0.0009065534882411736 -0.003828477055029574 0.003493567053292282 1.20985698067164 -14.66966468182425 8.888434374940942 -0.8567301186538896 17.17373908067204
4913 7 0.006208942312122594 0.006763624346337496 0.003491391397098238 1.210145587206184 -1.565227546557762 -1.156350205537092 -0.07047997548644237 1.94731879703696
4914 7 -0.004448884254686029 0.0009584920688958944 0.0004707836003004895 1.209578273254262 -8.80291253825866 -4.489968585100287 7.658117616977239 12.50191395294641
4915 7 0.01048536049315892 -0.001626104383917474 0.0005003241664634497 1.210165255751396 -0.9663167822200499 -0.1074589354063117 -0.06567652653195913 0.9744890725585754
4916 7 -0.009685663629737181 0.001254980357337063 0.0009998826074496597 1.209601281569613 2.929856016128195 -2.006111930382934 0.9835138407369329 3.68454078921491
4917 7 -0.004005753161449345 0.005646931153511871 0.003503171674414813 1.209795496453284 -6.60370429463619 -14.73356788022597 1.432819421478235 16.20925366532303
4918 7 -0.008192849884780329 0.006000951444473902 0.003485561219539678 1.209725669209045 -0.7064312565329383 -7.464719473725935 1.665184685066622 7.680750092081524
4919 7 -0.009829888281498422 0.007430551765510479 0.0009978687512311852 1.209754083023264 -3.036295076869076 -4.630677377091028 0.0476445720235005 5.537556389759416
4920 7 0.003378346978061446 0.008537402900969103 0.003486350428952624 1.210147790761222 0.4784932516130644 -2.905835467973021 -0.4981812337276498 2.986807677171001
4921 7 -0.007226672062104445 0.006822613766589936 0.00298495638596123 1.209776049374108 -3.447377519584456 -7.518364624653866 0.4212827297330991 8.281768985558237
4922 7 0.003556823604270475 -0.005769495938787275 0.000500184171939087 1.210089982801234 -3.811621611856271 2.814839123414365 -0.3337533891903082 4.750070518157595
4923 7 0.01194205427588591 -0.001606694065160883 0.001889536772164729 1.210169437892039 -0.5427195846405169 -0.06508956482173207 0.02678721024318814 0.5472647929783813
4924 7 -0.001620174536647613 0.001425240188768561 0.0004728795091690252 1.209766644480232 -12.689330114162 -4.086329058184439 0.9825270892925129 13.36721898523155
4925 7 -0.0004490944441666798 0.002353969073105725 0.0004728795091690252 1.209863464488069 -12.23440491621814 -4.27403477861149 0.7209702986777304 12.97951598151251
4926 7 -0.0002303445234050209 0.0008754381160698827 0.0004728795091690252 1.209852879099285 -14.13198606372698 -1.475407303753859 -0.1717580259674564 14.20983313191355
4927 7 -0.008215262370140667 0.004947929157698229 0.002994861315263527 1.20968233944915 0.8540173268895161 -11.1188934863237 1.245548574399172 11.22098610666758
4928 7 -0.005684502171837935 -0.003187166969392372 0.001442110322775006 1.209618339635647 -2.985019601960913 12.3254541219684 2.71995027900374 12.97016926863683
4929 7 0.0006376502254562741 -0.001179903096603627 0.001001334347366241 1.209910435416052 -12.47337708555212 0.6739776212341104 0.3171765199641914 12.49559853296822
4930 7 -0.001384421220540458 -0.01119223426827958 0.001048736146456815 1.210067162905107 -5.333074951612488 0.6847573021802226 -1.19815382564458 5.508734300391736
4931 7 -0.008255395574408325 0.008618330458541549 0.000492083020370654 1.209812103244991 -4.563079122659448 -4.837474108447694 0.1340383367987139 6.651376782688234
4932 7 -0.006027942489120383 0.0003475337751760977 0.002945545808054603 1.209320476443162 2.320866961942524 -2.937235598044571 28.60840364824556 28.85228822319655
4933 7 -0.005032869766292636 -0.00362888845251351 0.000972308761093913 1.209666955727938 -3.689262598139324 13.35790660947801 3.219115551762537 14.2269825487053
4934 7 0.000549140132564557 0.00125345044583885 0.001472446285466499 1.209907314076519 -12.54058537398226 -0.7844193594621798 0.8477369720666267 12.5936592469165
4935 7 0.003875670268449863 0.010961092510831 0.0005232941851311605 1.210146920087339 -0.9555707329842251 -0.3962123158042095 -0.3860521033637377 1.10414485075216
4936 7 -0.008514996480136148 -0.008841292216866132 0.003003565170382896 1.209811520014507 -4.208480031708929 4.36976789964208 0.08228955537627722 6.067367406458848
4937 7 -0.009796024838050933 -0.007364036515148255 0.00101900343135638 1.209750514891106 -3.077940347989403 4.438747191523777 0.1426810732440413 5.403383320171114
4938 7 -0.001282299384603718 0.008787283085017358 0.0004867771605588453 1.210039925030831 -6.427699680598969 -4.026811727055917 -1.893314319703548 7.817619521460586
4939 7 -0.005915003025440039 0.004467896776203815 0.00349515430380515 1.209652496722541 2.36486501908772 -14.4539992983452 4.312540423150073 15.26789727422777
4940 7 -7.802176013970905e-05 0.01182140528196191 0.00252214549767867 1.210122156148947 -3.392341288086365 0.7036203226253598 -2.030137148920487 4.015534561760598
4941 7 0.00546000230936473 -0.0005759091002721516 0.001456645539627751 1.210102809176238 -4.654752194416723 0.1118259203239767 -0.290815371896115 4.665168443734339
4942 7 0.001544180759653292 -0.001362126858923286 0.0004920538389088719 1.209962644457636 -9.297155502587023 1.143971377438597 -0.7968456880216302 9.40110280776684
4943 7 -0.005032346026952511 0.00277020685748074 0.001015607782849198 1.209609334810027 -3.564736075196445 -9.261371549425169 5.292267735195836 11.24670814253236
4944 7 0.01183050698363732 -1.932977707217142e-05 0.0005 1.210170129559741 -0.3585276103565894 -0.02076407531447725 -0.0832558655057913 0.3686525916805551
4945 7 0.0094433133525659 -0.004273441171769764 0.00348784370886865 1.210159813200443 -1.035783714659916 0.04717906031529201 0.1195950141010876 1.043732118258687
4946 7 -0.002830124027714861 0.006702386576853373 0.0009880896177360101 1.209913910126708 -8.434738667199575 -8.767669274076395 0.1560704169493171 12.16721820543142
4947 7 0.01021158540175388 0.0004054050448157256 0.00101452280866814 1.210164530120153 -1.18306522103488 -0.02474614772315776 -0.1042146151776805 1.187904194397039
4948 7 -0.00720428020309653 0.00948311680953064 0.000492083020370654 1.209859545049646 -5.299105264879353 -4.516521694718103 -0.4301915104272373 6.975998105129834
4949 7 0.0007651300850163475 0.003675367325879268 0.003474422237741401 1.209963228372783 -12.61793428706414 -6.080750267594392 -0.01394781992296739 14.00671210638666
4950 7 0.001185518969655806 -0.001152570403008414 0.001000816894582412 1.209944696424278 -10.52128162726247 0.9628387812514494 -0.09911537136007635 10.56571102461602
4951 7 -0.004589791715658788 0.001047117933063923 0.002965294183737681 1.209355972326634 -7.934133674854955 -7.39097051802975 28.43443809393534 30.43179574206382
4952 7 0.00457816533962941 0.006501848131119226 0.0004913913970982377 1.210121586059326 -3.27720554689657 -1.793301305572675 0.1498471465430653 3.738777866697273
4953 7 0.002003816738049594 -0.01158061486957601 0.0004940427602505031 1.210124866393878 -2.008387847852375 0.1521805293120626 -0.352384899565377 2.044738559900628
4954 7 0.001575855051105666 -0.0008429640052894701 0.001000816894582412 1.209962029479009 -9.063531004244693 1.734621348285787 -0.4387488708002668 9.23845257921813
4955 7 0.0009823803756976121 -0.001614573804740463 0.001493388186275113 1.209932106014511 -11.82679480380063 0.2535148179092082 0.7059836707866997 11.85055939766231
4956 7 -0.001519564606950147 -0.005887641551281031 0.0005238775562104375 1.209928959290431 -8.479128797243327 7.699820633170729 -0.4225577635980791 11.46130088632262
4957 7 -0.01106012525455461 -0.001852486246919186 0.003488482383418866 1.209610935504623 0.9520347830439025 3.42640592061179 0.3299219630735515 3.571480962100636
4958 7 0.009076681133518366 -0.0005371860169612789 0.00148281442723903 1.210155522772113 -1.621213224601753 0.01541927510379566 0.08594591058249403 1.623562987140996
4959 7 -0.008429135423745579 -0.00220669756157966 0.002935065499102804 1.209557904740385 10.50609775253294 5.423686400404655 5.474867063379762 13.02952928993955
4960 7 0.004849297116369293 0.001330251993918814 0.002394417255427992 1.210092873647857 -5.095910864888241 -1.16650561546066 -1.273790081493052 5.380667622655887
4961 7 0.009948903693455472 0.00253973010154403 0.001005570277750441 1.21016396359442 -1.176526302554363 -0.1948313324262065 -0.1031115885946134 1.196998491394085
4962 7 0.001134504643221809 0.009713169186973231 0.003002225600315355 1.210180783609286 -3.613847735147302 -4.727769740902656 -10.16781188254631 11.78117569068019
4963 7 -0.0009633517103599326 -0.002397933347559166 0.001011427737729603 1.209815387428626 -14.75834387746177 4.998798710885232 2.157661778428596 15.73061368502364
4964 7 0.003574623858031479 -0.008816833087385144 0.003076445411337646 1.21013700770825 -0.6421450227548027 0.7978255266788541 -0.4336164194898652 1.112159611081237
4965 7 -0.001419838584402932 -0.007737144254312329 0.00100335475235323 1.210003371299798 -10.17718572991805 5.886541245280153 -0.3517465279862081 11.76223630240365
4966 7 0.0003560830988055774 -0.01049119920527949 0.003490965497770762 1.210167628602712 1.104541945945391 -9.369476015397566 -6.359376848550525 11.37755543231249
4967 7 0.007044869600446464 -0.001804649568859543 0.0009935562030663246 1.210131807294775 -2.648054072802076 0.1506453374053982 0.1117131292552409 2.654687215740047
4968 7 0.003492789292568322 -0.007860026614823379 0.001059701710252756 1.210117994232176 -1.940111694503716 2.215732984310812 -0.645893860732298 3.01507627171265
4969 7 -0.002268059264220697 0.006252029791071339 0.001488940827172659 1.209918337744282 -8.622941715384647 -8.580405839256104 0.06628400513826381 12.16482148502797
4970 7 2.203430485277081e-05 0.004067251100939745 0.003474422237741401 1.209930956899853 -10.50118634933707 -7.356319754811857 0.08966177049064385 12.82179372442194
4971 7 0.0002899333044345527 0.0007022339089540887 0.002981642564842566 1.209872861264089 -16.10990706170446 -4.503132521687348 2.828699128747454 16.96492990865598
4972 7 -0.0007837193620044423 -0.009274940267834495 0.001051507514421589 1.210068162621383 -5.321720161546865 1.528957122865453 -2.019903017706992 5.893931078857064
4973 7 0.01163251425693234 -0.0008005499046194254 0.002612600375959656 1.210169141841999 -0.5413354040428171 -0.1397153632370147 -0.1078154862735538 0.5693756066737087
4974 7 -0.005390346171372374 -0.01106351154742537 0.002998433877251025 1.209942385724674 -5.819045241790141 2.657823192036985 -0.263607653686118 6.402718222849733
4975 7 -0.004214848321967312 -0.003793087028323062 0.003483376219661647 1.20963717272375 -7.490374517413623 17.65818666323504 7.105670870288427 20.45501955906268
4976 7 0.01039028754791004 -0.004292008284824653 0.002495009117081474 1.210164246512342 -0.5696082838728341 -0.151862923214742 -0.04962768620749889 0.5915901044998909
4977 7 0.008030209136673438 0.008142998894289653 0.003483380841685051 1.210160602558916 -0.5507398290624306 -0.05777065421649573 -0.1367041909493204 0.5703856972500497
4978 7 -0.009840500787981861 -0.001100086456727364 0.003488482383418866 1.209563784629777 7.148344176032553 4.106582178604707 1.607915721716055 8.39929965037526
4979 7 0.008783273022084965 -0.007050022371475397 0.003010353285770457 1.210157689931211 -0.7045334772358318 0.00745481788491645 -0.1644575087029727 0.7235117601148567
4980 7 -0.001705612615975552 0.004129896819950993 0.002968931200092136 1.209830650856954 -14.21599576665136 -8.849455969564808 2.091021773522442 16.87541936225765
4981 7 0.003543575583510518 -0.007883059812657802 0.003059701710252756 1.210126871820522 -1.564089772245656 3.81644662359147 -1.049704799426137 4.255998333212135
4982 7 -0.002164444037543191 0.0001070368488288194 0.000491356946797271 1.209701703381455 -11.95568017041731 -2.23327826389517 3.760526901120691 12.73056882921375
4983 7 0.009517446198682106 -0.001855392372308201 0.002491057507343824 1.21015910081896 -1.611184543351236 -0.004231077652089574 -0.0008909316833975443 1.61119034521415
4984 7 0.001296958602138781 0.001112290404207581 0.0009995667762974733 1.209951712622694 -10.0083671752178 -1.367569965402313 -0.5705131480834373 10.11746738944009
4985 7 -0.004743108972997599 0.007132764661852246 0.000496703183449469 1.20985639827691 -6.91390573487973 -7.820818132801224 0.03621612261005127 10.43880263175294
4986 7 0.003266209809336665 -0.01060713160927912 0.0005101311284948868 1.21013496078325 -1.294816464535814 0.1859170755543544 -0.7388950197160236 1.502358374681903
4987 7 -0.00225444675317394 0.005308526735092766 0.0005008512094366488 1.209879193098378 -7.970490669536639 -8.193588436371746 0.1196931206581942 11.43144520263944
4988 7 0.009847079587696057 -0.006780162886425543 0.0004913800299994412 1.210161218539126 -0.5154422685374689 -0.2223978398562922 -0.06739081911269727 0.5654052120987898
4989 7 0.009709000555668435 0.0003907974725719998 0.002489419679794134 1.210160599926071 -1.606515000063997 0.02604285208855912 0.001987747482476155 1.606727303158687
4990 7 -0.006096613212963398 -0.003159764684122332 0.002958734103113359 1.209524051863959 15.50776659604947 18.17063199835981 10.0485662309489 25.91594828122506
4991 7 0.01004907900840554 0.002328185974526137 0.00351419864220469 1.210163717796607 -1.129414295748355 -0.129208911799989 0.1428507648840182 1.14572157846365
4992 7 0.009205638280961079 0.006678576007783606 0.0005093927082647207 1.210163783372628 -0.5317517558213822 0.02178761381372429 -0.0610194115552796 0.5356846073216698
4993 7 -0.00188064975816564 -0.001324920439881365 0.001010213392834173 1.209719677403483 -12.75830750189341 4.82085575218751 3.320781846136599 14.03718820013108
4994 7 0.004090388929106376 -0.001638799292579486 0.003490382347750167 1.210081465445843 -4.778661219864562 0.6780003035262001 -1.025399481775921 4.934240728120732
4995 7 -0.002475041052455766 0.002518227151540489 0.0004680799906554873 1.209737604316974 -11.74485015723737 -5.276790250174874 1.249377604585323 12.93626549507773
4996 7 0.008481289655145852 -0.0006631702651934444 0.0009824902607755799 1.21014993472113 -1.985925015577707 0.0420893423569158 -0.08335560810078273 1.988119170884685
4997 7 0.004981883610188873 0.007935801914720883 0.0009777418260508621 1.210140801618344 -1.361516254571713 -1.344557729145944 -0.5419433969852029 1.988784715348784
4998 7 -0.002077071062376767 -0.00187904410422768 0.0005188564460369022 1.209731970808207 -12.31070226201615 5.952722558547255 4.17523400010698 14.29758283762316
4999 7 -0.005779968471968979 -0.005300381480180088 0.003050915838647677 1.209727778636978 -4.229670303028012 10.09586357915622 1.523759466341735 11.05162500234767
5000 7 0.002504162427594941 0.002423481904789578 0.002939180325409585 1.210029960231171 -8.27646352847303 -2.176635470567 -1.689076606814369 8.722990902985181
5001 7 -0.01214732518686663 0.001695480300208259 0.0009978687512312277 1.209625335130622 0.2791284081433337 -2.022576553666887 -0.03089061242379472 2.04198012076797
5002 7 0.009203003861017276 0.006785448949632072 0.003509392708264721 1.210164039876362 -0.4902838342182539 0.02358860268318163 0.008125361029471815 0.4909182027223644
5003 7 0.005082410409134076 0.003221983978020327 0.002970326343048768 1.210107565109607 -3.53114807477 -1.139497654305479 -0.1725285372453357 3.714461969960601
5004 7 -0.001213836934953051 -0.003322617979076427 0.003012423499329184 1.209812352361257 -14.27793325039763 7.010887032445956 0.3212380336958566 15.90959172194
5005 7 -0.0005807890039689605 0.008271713624472307 0.003684724317412645 1.210168623602008 -13.1002586792065 -14.86062805049086 -8.72511457379162 21.64677037904158
5006 7 -0.002824122647472004 -0.008393206137855744 0.003498222009680793 1.209982282559748 -11.58483481351867 5.285105366543775 -1.600207282472336 12.83360431596913
5007 7 0.001085329278901923 0.0005773459538127555 0.00050876305567354 1.209936458049176 -9.797202135995063 -0.8340641599111837 -0.1549521953632999 9.833862054108877
5008 7 0.007269611496833131 0.009364303193426571 0.0005232941718219705 1.210157895444556 -0.7123545252733565 -0.00388461467650332 -0.06758491592744309 0.7155639599431581
5009 7 -0.003908021499243936 -0.008207286813577882 0.001499712129038918 1.209922867216466 -7.343070073630801 7.131191380425044 -0.3873168586777768 10.24327013016433
5010 7 0.003699455028336122 0.002086109171407247 0.002362493481752797 1.210067474849904 -4.98612890796882 -1.232034784567801 -1.553598648494008 5.365916506792645
5011 7 0.004769377357807781 -0.006679149946434116 0.0004824670615081595 1.210120751440629 -2.746396727834227 1.386213074718487 -0.1290175412326182 3.079111430449496
5012 7 -0.003089227364014645 -0.01135323489681299 0.0005073016047251925 1.210013406402942 -6.110805701937822 2.747305961025593 -0.3292357840737114 6.708057287459401
5013 7 0.005503222625828464 -0.005435249735205551 0.002984549658735349 1.210123792507178 -2.494635143824905 1.291090300069366 0.01698473673827791 2.808986853835663
5014 7 0.009521363439522673 0.004695753311894131 0.003491371635545751 1.210163366985719 -1.10543862568442 -0.3347095793789366 0.1619519466853693 1.16629905715398
5015 7 0.01227257300316576 -0.0005383538670764838 0.0008070439262913836 1.210171004036286 -0.3420046942502629 -0.04879999004878033 -0.08325592566509149 0.3553592535397497
5016 7 0.008472519120447759 -0.005911181174169307 0.002975014951213065 1.210155710053229 -1.125253942095278 0.2417769864711971 0.12452256896128 1.15765211336082
5017 7 0.002809617175750552 -0.003879340188455554 0.001025861953376168 1.210044612634337 -6.38281668809182 2.405223733246655 -0.06479957697511243 6.82126447705501
5018 7 0.009331846959773901 0.001016315085990901 0.0009890955133306841 1.210158153754311 -1.549430694919175 -0.1114913493810601 0.1730426174588359 1.563044959942462
5019 7 -0.003950807203881601 0.009426686518713999 0.003488743033681845 1.209966114207583 -9.194063630758041 -4.183571552892848 -1.123957962616219 10.16348161243628
5020 7 -0.003724461479027713 -0.011510124170701 0.0009997782533897144 1.209996625801717 -5.884053825518482 2.666969423177898 -0.4470076776513693 6.475695421315289
5021 7 -0.001926542832282052 -0.01154929808648336 0.001556037751182008 1.210056769575584 -5.17960700799783 0.7214161551545563 -1.274728907090419 5.382722713719344
5022 7 -0.003143350158921927 -0.006190673582267561 0.001496695493287486 1.209870242470185 -8.121672308761147 9.861220775990216 0.5838892856149754 12.78851684057126
5023 7 -0.01156664877845974 -0.00146940396518663 0.002981216425394833 1.209610471136054 1.539781521290927 2.550791317462183 1.013635990742785 3.147208509183745
5024 7 0.004862588840748742 0.008575718022583785 0.003486350428952624 1.210148636235588 -0.23436713007573 -0.8213371866087557 -0.9472500139711748 1.275462784535367
5025 7 -0.003007846926649483 0.006092217085995648 0.003503171674414813 1.209870858996983 -7.860795142692585 -11.68215829243496 0.8249709427445575 14.10480413551564
5026 7 -0.001540921640351561 -0.002555097309219023 0.0005188564460369022 1.209786670584809 -11.89069047583878 5.422694653714613 4.170323785598352 13.71808068850579
5027 7 -0.006392839910978349 0.001452228410834661 0.00246664300746661 1.209454717989219 2.800100071035813 -8.701055472507411 24.07434223626242 25.75117241704064
5028 7 0.008039426083621782 0.008134079388499067 0.0004833808416850515 1.210160088569042 -0.6005647865374221 -0.02020786547868517 0.05386776194854566 0.6033143098197565
5029 7 -0.0100629880715615 0.005069732594436164 0.003509300095723848 1.20968193692996 -1.490951456023517 -5.293753736726816 0.05743836642904998 5.50000582138472
5030 7 0.01037702013814657 -0.001512566842332891 0.00350032416646345 1.210164581418467 -1.122676763644292 -0.002909990856318751 0.1628236117362412 1.134426336177207
5031 7 -0.00487171663603293 0.001558343233526258 0.002965294183737681 1.209377919811743 1.203287904920348 -14.47785308123512 28.47017646410974 31.96258874874664
5032 7 -0.002628472734305034 -0.001183755983059544 0.001485707306767405 1.209649066510013 -15.73676919707132 5.674528580581779 4.847184402465571 17.41669819469918
5033 7 -0.002241316415393347 0.002524859067482326 0.003468079990655487 1.209643191366684 -32.5634520246071 -22.17189440920932 1.85765835317083 39.43884131169578
5034 7 -0.001114100815462386 0.002356357222378592 0.002940959499824512 1.209785860961233 -20.03737541796772 -10.1958292932505 7.209363955515099 23.60987668880891
5035 7 -0.007502975903713007 -0.005674497567889267 0.000501256810142374 1.209733222006328 -2.776055561979511 7.728903331421085 0.7569055043598493 8.24714114903944
5036 7 0.004277802960101715 0.002835410890070747 0.0009452038326362507 1.210081709757902 -5.013473672113531 -1.035619916731425 -0.4124831813290787 5.13590977800289
5037 7 -0.001800905218081829 0.004655513028517954 0.003500851209436649 1.209848281962263 -12.25395006830835 -11.15748834481089 0.7237320369068201 16.58832802009987
5038 7 -0.00137027718596501 0.003570552192857016 0.003468079990655487 1.20982348169937 -14.01779694233245 -9.082415972991873 2.139171607809832 16.83938734605812
5039 7 0.006998907326991259 0.009363819350259539 0.001498026119612691 1.210157913625157 -0.4293683698280027 -0.270369442097544 -0.3107390829944289 0.5949921091318038
5040 7 0.002915805799673623 -0.00289938999042172 0.002974050770922238 1.210042656547712 -6.526536567371819 2.030201489789687 -1.039104635193337 6.913547287555503
5041 7 0.008475343427978505 -0.007976614733514395 0.002502270071026006 1.210156400849762 -0.640999421726255 0.08667783974704256 -0.1553754379324199 0.6652329165557719
5042 7 0.01187737306602409 2.149602134384734e-07 0.0035 1.21017012028262 -0.3250962077996641 -0.03560146084569312 0.1142335000675111 0.3464163692404617
5043 7 0.00763252509864421 -0.00476051728970399 0.003535793001244682 1.210146709422076 -1.828059949757251 0.7172560555132411 0.1750918307763756 1.971526458935188
5044 7 0.005003460352509566 -5.674977729664129e-05 0.002970682726211012 1.210099287549399 -4.541693369124791 -0.1060618897170242 -1.324979286699122 4.732208564062256
5045 7 -0.005929219285368094 0.004079178292084581 0.001016251503217157 1.209666984175916 -4.33660759344989 -12.48433218984929 3.301534790216339 13.622218894772
5046 7 -0.0009296734154232608 -0.01064872518915732 0.003572030318278796 1.210121129551772 -15.30921958114868 -7.423366168789684 -4.931746603426109 17.7144205104249
5047 7 0.01108100966105117 -0.004016371609130007 0.003007165408212824 1.210166420959688 -0.4720819340916374 -0.06549829768559434 -0.005062535370986064 0.4766308936271277
5048 7 0.003315053896841448 -0.008617960157252764 0.001569832838747643 1.210126708648464 -1.948217990669842 2.182739526667334 -0.635399364235982 2.993933454924652
5049 7 0.0002442803898345034 0.002001808374381308 0.002963683229792959 1.209889704766057 -12.11452351620478 -3.595345028300329 0.5322944767797322 12.64798495046593
5050 7 -0.007920839665858388 -0.003432757896456582 0.003498911354880796 1.20958642801069 3.765801949586681 16.26180038262164 4.44512492965463 17.2738690410684
5051 7 0.008610915135548586 0.008120301675536339 0.002976833723795458 1.210162180897991 -0.6352821442241162 -0.03697607210213848 -0.0757795368051435 0.6408534706752359
5052 7 0.00849593176386962 0.00746334650325314 0.002486226432060179 1.210161777101326 -0.6549442752703849 0.09941985550214558 -0.02533223490163793 0.6629313942653712
5053 7 -0.007381027998257621 -0.009809738220828043 0.002998602182097941 1.20985848229918 -4.33489122270649 4.138186445894759 0.2834943506855913 5.999686493522434
5054 7 0.006522047729133089 0.008377526360195491 0.003483380841685051 1.210155302721949 -0.9404478615001086 -0.8926805027645224 0.05560566258761806 1.297849240061362
5055 7 -0.005727958743729097 -0.0036539575054212 0.003488932541432266 1.209544969124775 5.301054159476803 33.45676439535076 1.843781297961526 33.924265481841
5056 7 -0.004216982654794591 0.01105013163232109 0.0009967973527107879 1.209979314276844 -5.623902654370985 -2.814905207415735 -0.3720387445271532 6.300030572942212
5057 7 -0.0117053374889894 0.0004735121790538891 0.001007382326951919 1.209612579238004 1.531905243508636 -1.173662263913253 0.8951122696699908 2.127308806952342
5058 7 0.009541401616053335 0.001033404465332803 0.002989095513330684 1.210159360371908 -1.543559858023908 -0.08496582951793384 -0.06838489860493888 1.547408388837823
5059 7 8.534853358611798e-06 0.01085698825330738 0.003503163597645245 1.210156907348244 -1.100149593777516 11.43809688164911 -7.266555067215227 13.59570564360494
5060 7 0.00700537116957782 0.01006835868595565 0.00301464527792764 1.210159693048975 -0.3692815334604478 -0.1460040475061261 0.07107180008521954 0.4034070321777056
5061 7 -0.003695285899637377 0.01067776181461026 0.003488743033681845 1.210001367544602 -8.977254191040531 -2.75463748215937 -1.265458965464564 9.47525761454256
5062 7 0.003920334537609433 0.003286159608198864 0.000448376604785651 1.210075551030695 -4.485542478657977 -1.70127597078112 0.187246023223007 4.800988682533549
5063 7 -0.0002264377127877849 0.0007991930494041159 0.003472879509169025 1.209815082120914 -20.82897138182135 -4.370771348946962 5.543063789895236 21.99261801578785
5064 7 -0.005716906040030081 -0.007046065900443013 0.003561983297215411 1.209817250230501 -5.546263044076947 7.212783853304802 -0.1397722472684969 9.099715432347027
5065 7 -0.011312008435599 -0.003964886145026362 0.0004768179565739615 1.209659834811145 -1.152705761924308 4.107896330312383 0.3826893454266395 4.28368929420313
5066 7 -0.007210207633245211 0.001333793985007555 0.0004747622077541135 1.209556775965934 1.469821157354935 -4.971860498090145 5.006986328888019 7.207612860354592
5067 7 0.00871182466614652 -0.005378532346081766 0.00348784370886865 1.210156338282389 -1.120004083618513 0.1258760990384222 0.07268858753067581 1.129396994147089
5068 7 0.01138833340259425 0.00347735549356313 0.0004694697906795598 1.210169364244795 -0.3179164494487752 -0.004113703115098626 -0.1049107714690544 0.3348045121465166
5069 7 0.0005364276369156899 -0.002426009492988679 0.003492571291692701 1.209910913983605 -12.21676489152696 4.080592580775397 0.07630628310358196 12.88046594164847
5070 7 0.002215747501948541 -0.004025645172150204 0.0005438650213628018 1.21002539186808 -6.754323118816497 2.35102445809798 -0.2779363781056892 7.157195360350898
5071 7 0.01018675972047595 -0.0032827788469423 0.003483139951230789 1.21016370198119 -1.049104550155343 0.03550305171784603 0.1225138285735658 1.056830384702142
5072 7 -0.009795697515526345 0.0006441597330742359 0.003502197276406995 1.209551884376572 8.73476763128377 -2.334215347327516 2.677216940989638 9.429327516283646
5073 7 -0.008551752509442141 -0.0007037209639588042 0.003436154144222008 1.209473287999404 23.81569173640834 10.28226600788091 8.696230888418199 27.35939690134142
5074 7 0.005229242748077842 -0.0007626568492474298 0.002456645539627751 1.210101270700563 -4.666421059863768 0.1032035186876827 -1.212096378869215 4.822376396122297
5075 7 0.003102924988852867 0.009373390403220636 0.00349906200267011 1.210151967927753 0.9419012941193916 -0.5861692629287862 -2.004525485420257 2.291046676601238
5076 7 -0.009149987510844363 -0.00414181711522285 0.002989621248679691 1.209650281810931 1.329530675622409 6.42819999647671 0.6681236532727027 6.598166126143433
5077 7 -0.005080212780230017 -0.006125619793206541 0.0005619832972154113 1.209801207920651 -6.086616715858653 8.222802266264642 -0.02669543840213845 10.23044929620827
5078 7 6.986856883812152e-05 -0.006135633218451363 0.003484699105247369 1.21001615304214 -6.285654574401465 11.79472180544403 -1.921505781218428 13.50248496995152
5079 7 0.003857811567283294 0.002549776501566871 0.002945203832636251 1.210077495694837 -4.637699277938466 -0.3376129335844132 -0.9223987785960883 4.74057555495849
5080 7 -0.0008630227068784206 -0.0004439533456540923 0.003491356946797271 1.209738660164668 -18.74195299372307 3.08678394324165 4.552744513230966 19.53244786845556
5081 7 7.414064406234666e-05 0.01210470909866345 0.00152214549767867 1.210116110763047 -3.398658875527053 0.6901474260744225 -0.9098084258004184 3.585378221830076
5082 7 0.01166490059476329 0.004021721800196118 0.0009772082095781491 1.210169915253807 -0.2916051655808 0.08297583077551232 -0.06221432570615172 0.309498276908553
5083 7 -0.01103552903309635 -0.0009509898202833672 0.002483413701801828 1.209604232506384 1.159618455597783 1.653262303624565 1.447237420693126 2.484449105738228
5084 7 0.000231000279033547 0.006651259095884185 0.000547510077209633 1.210030609032643 -5.521993001539562 -6.144548891488401 -1.421685626208361 8.382665316515428
5085 7 0.0005677333223523342 0.001210554428844454 0.002472446285466499 1.209904067979245 -12.5379832713699 -0.7873506648298838 0.7799686392058373 12.58687001047934
5086 7 -0.004703278322163079 -0.006584649592669446 0.001049321405099475 1.209833407010087 -6.088287292755381 8.224923356230066 -0.02785028143794411 10.23315112822838
5087 7 -0.00536481165644808 -0.01043817130037072 0.001512585888725087 1.209926908670955 -5.098705007850261 4.021163260904645 0.5747841043135545 6.518966443731562
5088 7 0.01222981523984517 0.0005268668397002432 0.0008195501908166308 1.210171085190143 -0.3576519768564151 -0.01898598029011169 -0.08325593124804195 0.3677049824041781
5089 7 -0.004409444996600612 -0.0001707939677118652 0.002946277514233721 1.209348077107256 -6.749840809970993 0.278809754976304 28.53144249819679 29.32032225040048
5090 7 -0.005866858658798577 0.003910397825641946 0.003016251503217157 1.209620252372137 2.353789331152508 -14.41887790816257 4.327278592049335 15.237116011869
5091 7 -0.008259708665195447 0.0004645647071441119 0.003474762207754114 1.209448968100881 23.81521286941055 -11.07590679077298 17.81211915846403 31.73502267477606
5092 7 -0.007376234970500451 0.009813824879973187 0.003002844456557806 1.20986163275824 -4.751402440650908 -4.432102654985347 0.3320986657869001 6.5061239322018
5093 7 -0.01131086108594763 -0.003393733896936675 0.003524719052284401 1.20963948491081 -0.1592846622686416 3.909564547710933 0.8179995256648076 3.99739787616145
5094 7 0.0004595340114631328 -0.000994019587531071 0.003001334347366241 1.209882953733388 -18.43951190798058 4.377437247353507 2.01367274835735 19.05865772284482
5095 7 -0.008014793917821852 0.002025538907957372 0.003497685331042665 1.209468806270112 25.21428493124828 -13.63287233475991 1.638861065758611 28.71064677576762
5096 7 -0.004868565575181462 0.004871968117845677 0.00349515430380515 1.2097022283922 -9.137322631382009 -18.09463810033384 4.706006681650514 20.80992772067597
5097 7 -0.00684601066557324 -0.003066534344610169 0.0004698015616810932 1.209615439094782 -0.2413124349086625 8.090009544543042 6.149938414629923 10.16504936661794
5098 7 0.005701195045450889 -0.0105505120362426 0.003489079747943377 1.210150174431089 -0.2965850582330845 0.03097618399677262 -0.06961656138783472 0.3062167310281889
5099 7 0.0004863736465859684 0.01164956894809047 0.001014083849701872 1.210121441746332 -2.562106517916679 0.4448520070479782 -1.322972782167214 2.91762576415842
5100 7 0.0009489215973207628 0.01064734028957439 0.003503163597645245 1.210171896746629 0.634041754690251 11.76204730956638 -7.650476506211578 14.04555291297796
5101 7 -0.00413095361804562 -0.01101035690930249 0.000492476648664522 1.209975617078029 -5.940079101530634 2.686806660960952 -0.4771861790688623 6.536908781321601
5102 7 0.00177390464904473 -0.009422983129552948 0.0005101311284948868 1.21011149899623 -2.502436138880689 2.290177698672764 -0.912680784455983 3.512845959473509
5103 7 -0.001303961467369561 0.00344695669768675 0.0004680799906554873 1.209841695250609 -9.846265753570432 -7.28499381129961 2.63875680137718 12.52929054565429
5104 7 0.01079129414415099 0.002797962100162915 0.00147504006843 1.210167712412432 -0.5078181038362745 0.03732368373185517 0.06356254422221148 0.5131398259531074
5105 7 -0.004927686069596269 -0.006512404847974405 0.003049321405099475 1.209814999838585 -4.532901396282382 10.94205983871909 1.391565822279228 11.92528087804491
5106 7 -0.01151283461521809 0.002039603706387533 0.0004926837006863033 1.209626927181151 0.5572174417969092 -1.667340801860014 -0.2396413396571819 1.774244796712837
5107 7 -0.001250354463926018 -0.01187456482655315 0.003476705828178019 1.210094021654471 -6.658466273186921 0.3719148267717526 -1.882065465989681 6.929333602000364
5108 7 -0.01171785168585439 -0.0004438049469956404 0.0009949313183829616 1.20961272404809 1.466970583817305 1.051259976672528 0.8725483111292996 2.004617366879126
5109 7 0.002010716753207483 0.008478243309919255 0.00100890895981974 1.210116628244944 -2.877376929117963 -3.311715937250413 -0.7771967002453346 4.455423117071031
5110 7 -0.008431800253559992 0.005370148576379258 0.002994861315263527 1.20970305273794 -0.8198654405895998 -8.067110488481081 1.556697191923624 8.256740102569388
5111 7 0.01134363513883399 -0.003107594328124609 0.002953032421144478 1.21016754315538 -0.4893934158795784 -0.1381304886095381 -0.02205092621282504 0.5089913464260813
5112 7 0.005225782395568275 -0.002205543575433246 0.003485962813416739 1.210108006451192 -3.545437852173213 -0.01832788596835088 -0.6981753775086934 3.613573623545821
5113 7 -0.0004736802094449015 -0.00726795422374518 0.001488053857600599 1.210025856810553 -7.679321426732022 7.878498798654759 -1.56741476449196 11.11303333655656
5114 7 0.01105675249372185 0.005387231627828191 0.003018658635770063 1.210168519319279 -0.3069895588383786 0.008358938036429781 0.07017098896135469 0.3150181403866986
5115 7 0.01109120327387825 0.005411510944999842 0.001018658635770063 1.210168650408778 -0.2628697268837575 0.03176935117808111 -0.06934791028606352 0.2737132032753653
5116 7 0.0004633150736398016 -0.003916722878358561 0.003037432074655083 1.209943456792022 -9.262391701834821 7.280697396951608 0.1248475404213558 11.78202196282734
5117 7 0.002814958904826047 -0.004553232900919709 0.001526046125315255 1.210055552423291 -6.632031142544224 3.227939014294374 -0.5562645485601544 7.396814017106624
5118 7 -0.01118396907047978 -0.001892418729998242 0.0004884823834188663 1.209623754806558 0.397354873390343 2.227887406875168 1.358358699334989 2.639415001317349
5119 7 -0.01110630195102057 -0.0009556394662154963 0.001483413701801828 1.20961037614306 1.162693228314708 1.673044853973989 0.687194291196042 2.150155952583476
5120 7 0.001970795429543822 0.00890301700983089 0.00349906200267011 1.21016990079148 8.775370775124641 -6.021292528465981 -4.667436982493672 11.62101819720723
5121 7 0.00346668580743203 -9.158226498815164e-05 0.000907671996866713 1.210045823801221 -6.925804586496067 -0.2382433846060978 -0.7795987569029306 6.973614794523937
5122 7 -0.006128619214275812 -0.001735714554927923 0.003469801561681093 1.209317910810832 2.730907517109549 17.00251545191415 19.68473931928353 26.15401211339729
5123 7 -0.006994919852564979 -0.0001162544389673409 0.0004747622077541135 1.20954332617359 0.5835004344504288 1.83259527200412 5.278154372644739 5.617632220913404
5124 7 -0.001266935434586605 0.01183531183221465 0.003508061647976797 1.210106396361425 -5.08286433363159 1.200682373668153 -1.400303840652735 5.407217291980071
5125 7 0.006747886339441614 -0.006539460288535804 0.003487171242344414 1.210144100737967 -1.995148997788246 1.034747439503316 -0.2442992159608528 2.260752948434039
5126 7 0.009919803592638604 0.001072667451259892 0.00051419864220469 1.21016257831313 -1.168550638982356 -0.04561459763474358 -0.09344559979261907 1.1731680900468
5127 7 0.004536636437686222 -0.003960978919339084 0.002984079529240556 1.210096441928482 -4.44369998409087 0.4068385964595733 -0.9442066069150105 4.561086856081602
5128 7 0.006522531864364788 0.007227948354960155 0.002974772238783289 1.210149982898688 -1.353492390904608 -0.8973496296159988 -0.2199237435682195 1.63876308934321
5129 7 0.01086688922854716 -0.003437558935002383 0.0004831399512307885 1.21016625166138 -0.4935259259465918 -0.1830493925240451 0.05169017337058032 0.5289109506409784
5130 7 0.00260210789310035 -0.01090065300382656 0.00300417388874539 1.210144330804472 0.7022647500803983 0.3164828518839218 -1.276845515652855 1.491198057128854
5131 7 0.0009263168508110746 0.0048373813084754 0.003474422237741401 1.210006192986553 -8.039267969396109 -7.054496223020803 0.2475467132762774 10.69845903948914
5132 7 -0.0002558380369208815 -0.01186494888247822 0.000476705828178019 1.210093948755994 -4.020329754918434 0.7705094234375616 -0.9825877032414505 4.209776087210567
5133 7 -0.01026816889805519 0.0008931250051164969 0.0005021972764069947 1.209606881703304 1.748361936720477 -2.367596487044555 0.3979027001973851 2.969951034287109
5134 7 -0.003596046498148317 0.008024172793431017 0.000496703183449469 1.209930444778002 -7.390536551299203 -6.447077907004905 -0.6012643424550432 9.825800876497965
5135 7 -0.01163742169638396 -0.00147405361111876 0.0009812164253948331 1.209619436220863 1.047264226038419 1.404620130175272 0.5711716606261826 1.84281228971806
5136 7 0.004817108458295016 0.007566583247061307 0.002977741826050862 1.210139433121317 -1.532478155944141 -1.523586122674035 0.08200367839151936 2.16252828303368
5137 7 0.002874033919229402 -0.002384039946513361 0.003492053838908872 1.210042389364854 -6.52653512632898 0.02143143075752645 -2.0375862061743 6.837241959227574
5138 7 -0.005357822574827674 -0.004166195750426423 0.000488932541432266 1.209697210727683 -5.263798453805332 9.378329680987578 1.009568577378096 10.80184569784281
5139 7 0.005025427689756764 -0.001143987021821082 0.0009763451611669052 1.210092483454897 -4.524936451714213 0.4263949963141494 -0.1096171902980641 4.54630382985372
5140 7 -0.003349405967533215 0.01121955127607083 0.002965099957871679 1.21001865136177 -7.950317637222068 -1.992020351906949 -1.974294486388342 8.430512103906807
5141 7 -0.0054100668173464 0.01109615021976987 0.001018815755216094 1.209944767163444 -5.560889871207915 -3.004708935446602 -0.2422244058924395 6.325380985305579
5142 7 0.005699706746416705 -0.0108169281348875 0.0009964347928867094 1.210147477891635 -0.507558776738952 0.1564452045069593 -0.2207371057465585 0.5751659618852049
5143 7 -0.008984296449643632 0.0034421925193295 0.003006985426766513 1.209622012784663 2.635001968832912 -6.046813486267566 2.112326530759658 6.925973728365693
5144 7 0.01174478267001129 0.003570205868019682 0.002977208209578149 1.210169941214822 -0.3436435463486001 0.05409691300144891 0.08976650966038954 0.3592706350370672
5145 7 -0.005614772230810106 3.301149833417454e-05 0.0004707836003004895 1.20953898776385 -1.425496988667358 1.516973018023918 7.903952481867607 8.173476227269118
5146 7 0.002697179926370161 0.004414962025099934 0.0009366625377043632 1.210056777096926 -5.83776130526383 -2.939593465824291 -0.7927581668370919 6.584005795307248
5147 7 -0.004200418422349046 -0.009336449765201397 0.0005141520114740618 1.209940380516671 -6.577962405773367 4.653210979872677 -0.4482445133076838 8.069875152608361
5148 7 0.00925749899298357 0.007351611488940004 0.003002845590375127 1.210164187273859 -0.4886547650916198 0.001089182497242859 0.01942329341005059 0.489041849019234
5149 7 0.002465600322092189 0.002312856904561644 0.001356469974526131 1.21001879107002 -8.361008718499779 -1.839624621309911 0.2640645378645716 8.565069504581768
5150 7 -0.01156444138943637 0.003989331365608117 0.001016326776496474 1.20965985268653 -0.6146241163567172 -3.290400094073931 0.04966133060013171 3.347680067038364
5151 7 -0.004301546278432602 0.007809176929274214 0.003496703183449469 1.209899496493132 -8.22550174696503 -7.909618694453744 0.1047347516196558 11.41191991950407
5152 7 -0.005396861996079074 0.01101717858870787 0.003018815755216095 1.209946480370183 -5.685087390444873 -2.759135829761174 -0.1351969015530454 6.320706239516018
5153 7 0.005071652741097457 0.003834937737903742 0.003473499115198168 1.21011243269956 -3.531162278164231 -1.513385290152541 -0.4378286730636035 3.866669887401397
5154 7 0.01048853160594854 -0.0001955838755301442 0.00350032416646345 1.210165459371472 -1.098620792854012 -0.04630254216977942 0.1499195936846845 1.10976910052188
5155 7 0.009795792377109952 0.006543647582220463 0.001020312925136194 1.210165526014081 -0.4978050017572831 0.007890855439323352 -0.03938039832185219 0.4994225677180805
5156 7 -0.002435909093754578 -0.008726117994505333 0.003498222009680793 1.210017700894779 -13.33628270289911 6.5623248474498 -1.724822426128841 14.96313991569884
5157 7 -0.00212087969047913 0.01163800939609937 0.0004763569241898338 1.210050127420792 -5.817584473980234 -1.687820768068844 -0.6842875475453361 6.096005044678522
5158 7 -0.01020990341109461 0.005688077828900344 0.003001983796410114 1.209697766386806 -1.485921782161359 -5.102569721546568 -0.0454299952455038 5.314719671856025
5159 7 -0.008853558237581931 0.008573709162684681 0.0009972680709155733 1.209798394663731 -3.643507521542137 -4.586155054266332 -0.3048205182392722 5.865226405659581
5160 7 0.004161505070801174 -0.007821824094502647 0.0005663142828427598 1.210123889645712 -2.432689448828516 2.148863418400784 -0.4466232813391227 3.276440797697528
5161 7 -0.007885588421933369 -0.001145662702200401 0.003436154144222008 1.20941196395539 24.26572453250465 9.878957696688246 8.743415319880883 27.62003808317942
5162 7 0.009026103602270581 -0.002533874282375117 0.0009907333408803744 1.210155318824852 -1.571477786582844 0.05656739433417228 0.0669933350247006 1.573921983696398
5163 7 -0.004063254020407438 0.006009591439994186 0.0005031716744148134 1.20983367919497 -6.877476609517753 -7.868110734722987 0.3699378070021104 10.45675403886772
5164 7 0.00538458352327631 0.01088713382782045 0.00101464529123683 1.210154008836438 -0.6157125755645877 -0.4778162620237251 -0.400557028790295 0.8762740948333532
5165 7 -0.004203777833527265 0.01097116000125909 0.002996797352710788 1.209983273899971 -6.452503409653276 -3.31871134004864 -0.3881265192323509 7.266311815844817
5166 7 -0.001855962060627077 0.01203089014617881 0.002984418572166631 1.210082950571835 -5.977845330369898 0.9578191788877006 -1.853964398502051 6.331606144114096
5167 7 0.005763049808661986 -0.003745535066157997 0.0005020825972271893 1.210116645255435 -3.663823739144833 0.4867458431764192 -0.3231302096790655 3.710113076413977
5168 7 -0.009006911446109678 -0.002034119791978501 0.00242354788252167 1.209582370367167 3.090945045751409 5.572803368834096 3.990083393788613 7.518699631780184
5169 7 -0.00653762634107314 -0.005845797847650313 0.003561983297215411 1.209740482616386 -1.982969819418594 10.12331221339717 2.164249568310655 10.54028442066789
5170 7 0.00225855639375249 0.001744716717854864 0.0009080933697404798 1.210004678013422 -8.37054604368325 -1.858731624507328 0.251559925928625 8.578123729446794
5171 7 -0.008318874334166141 -0.0002271834298334844 0.0009109163519761218 1.209554893127042 5.459453623405119 3.798009882073439 3.158996281843468 7.36272846430857
5172 7 0.007309208563754204 -0.007592200432815841 0.003487171242344414 1.210151168322894 -1.23004887763773 0.4007269231178376 0.1254465200006392 1.299745797327154
5173 7 -0.002285442048872971 -0.0115987497291209 0.003507301604725193 1.210058373535191 -8.104097471004485 0.8214953466640296 0.2650819183280803 8.149939806376267
5174 7 0.01012461676236535 -0.005257298668296044 0.00348784370886865 1.2101630855272 -0.5252622264358198 -0.1129929706648742 -0.08619847938005336 0.5441488728164573
5175 7 -0.002748724874092323 -0.001436531656230004 0.002485707306767404 1.209572175681461 -16.48023405021988 6.857502770103513 23.12980005259871 29.21662384782334
5176 7 -0.001983909284422389 -0.006245327767243729 0.003523877556210437 1.209926084708576 -9.794955149000369 10.50661016348565 -1.194200085453384 14.41374751209711
5177 7 -0.00194764398786587 -0.007792768002640897 0.00102209956589123 1.209981883535244 -6.260019467777087 6.249428324143033 -0.6358104773559842 8.868339928005971
5178 7 0.003034702466803558 0.002397050407730911 0.0008656662539021974 1.210041726844692 -6.708150912805099 -1.530657125642406 -0.8199288173974505 6.929248384265535
5179 7 -0.0001091228746401722 -0.001297775463856297 0.003492571291692701 1.209826534993986 -19.65897166185983 4.285304896424444 2.431496192124049 20.2669972760999
5180 7 0.007912991637772336 0.006512974469414406 0.0005093927082647207 1.210156974754413 -1.215631295252136 -0.4475210259513979 -0.2330162472514383 1.316180491478324
5181 7 -0.003034563599053007 -0.007664552799382605 0.0009855601175648566 1.209936008971823 -7.513998205882987 6.979417293286715 -0.3196927959800487 10.26034299015603
5182 7 0.001240766795876203 0.004113542230855294 0.003474422237741401 1.210002900250496 -9.707218914145296 -2.929222749370891 0.2310639919416737 10.14218100464314
5183 7 -0.001533826614657352 0.009752551822689791 0.003486777160558845 1.21010921530226 -25.69135513767613 5.569122619392285 -6.21290729707261 27.01223931187569
5184 7 -0.006182394074510856 0.006955158002493382 0.000499395166421551 1.2098069479217 -3.949297098084554 -7.6534830670014 0.458321049238399 8.624546875633015
5185 7 0.004429138492558135 0.001814027816377633 0.0009141168769671462 1.210079353522697 -5.152300696559145 -1.342467020465391 -0.3069642606002804 5.333164841450801
5186 7 -0.005559096632662976 -0.00981959300861157 0.001020109240060565 1.209908907714888 -5.56742231023875 4.326436722951587 0.1735370348622618 7.052968240444375
5187 7 -0.004343656944482822 0.002854907123746492 0.0004945105834371912 1.209645008316905 -5.263363402872136 -9.512955670713268 6.152551939670979 12.49212613104745
5188 7 -0.005318398338671279 -4.221369436709169e-06 0.00347078360030049 1.209241301579238 -3.759532000384886 1.518520866205328 28.58025803826487 28.86643615025628
5189 7 0.002198460929039438 0.005818207443732923 0.0004882859329187122 1.21006547496381 -4.56782781873939 -4.420743547163844 -1.15469362316832 6.460753969532179
5190 7 -0.005048481443352613 0.001964150914960436 0.001486391383149687 1.209555860668901 -3.602310721909472 -9.44071650978908 5.348003933633612 11.43262510666508
5191 7 -0.0008749516111440663 -0.009890669213013093 0.0005720303182787963 1.210067010835684 -5.184567941811446 2.234862265047184 -1.72536317097324 5.90349321662536
5192 7 0.009967140012190852 -0.002654275994596483 0.003483139951230789 1.210162279433608 -1.070300188020004 0.08042531417362896 0.1210589790850594 1.080123141152294
5193 7 -0.01062075456932053 0.004866989213265694 0.001032943171534019 1.209679374727843 -0.5191462108599876 -3.999877665429576 0.3527715088569448 4.048824750975751
5194 7 -0.007047122474501801 0.01008360866231908 0.001002844456557806 1.209878112406712 -5.058556533879146 -3.976127060045626 -0.1713595534798872 6.436454357846974
5195 7 0.007590900746425402 -0.002206336677844123 0.0005075933896495858 1.210140053492351 -2.64453845279531 0.1459914636907989 0.1095004961777032 2.650827699879182
5196 7 -0.01126484406996158 0.003932193348884939 0.003523643075810171 1.209647722428541 -0.6007160229590475 -4.60796296147848 0.7030712407170764 4.699839525358361
5197 7 0.009543692645031396 -0.001929654874256099 0.001491057507343824 1.210159448552953 -1.609506769061521 -0.005799570309489341 0.0488803490169385 1.610259284460315
5198 7 -0.01144484841256434 -0.002387877729035383 0.003013201435703267 1.209622384206282 0.7973415879633875 2.904172456324372 0.1722650805368365 3.016562036813013
5199 7 0.007115423558464793 -0.003481628733182445 0.000535793001244682 1.210136522958827 -2.438782665437413 0.6694952708328659 -0.002171288366808423 2.529009592982746
5200 7 0.009344266099058611 -0.001226469104934921 0.001007917556113035 1.210157964767542 -1.594845283432518 -0.03079495453767843 0.06101557630814101 1.596309089075215
5201 7 0.00643400893805651 0.004001636553208017 0.00297238773246152 1.210132966046763 -2.496116542878508 -0.7280467597291099 -0.1728886387869638 2.605866527933735
5202 7 -0.009349450886208106 0.003068247948685303 0.0004976853310426649 1.209631734378381 1.043040291193152 -4.508783700227332 2.177124596840535 5.114385106213262
5203 7 -0.003199054206435221 -0.004109938151719643 0.003485479829192984 1.209714346635819 -17.16938173112169 18.51476919336603 -0.5417207316150362 25.25624296413963
5204 7 0.008802653731626555 -0.002475615029383777 0.003507593389649586 1.210152825925289 -1.88967653379513 0.1078941383784044 0.1657270460374308 1.899995789800779
5205 7 0.002850943216058249 -0.001329106430815151 0.002982436186659039 1.210035641491554 -7.121473258777525 0.3063976255077397 -1.686453862960431 7.324847268871503
5206 7 0.00258257655327775 0.001394948617303619 0.00290809336974048 1.210025905148329 -7.645778453855002 0.7633519335162623 -1.796940060286361 7.891110689890135
5207 7 -0.002823873836810164 -0.000801103131292521 0.002966850860730502 1.209487247472767 -16.14177913044622 5.169974154138421 22.34490352069893 28.04604035510026
5208 7 -0.009362941066159624 0.001893991794450895 0.003497685331042665 1.209570327959289 9.324262717406089 -7.586756999441821 4.872818018154589 12.97093336772033
5209 7 0.002045689746753427 0.0009686344702358742 0.00141685642541402 1.209987407422411 -8.3142651559744 -1.697092948003906 0.1977982684210224 8.488006462827711
5210 7 -0.003388365761721423 -0.002070684640704167 0.00247772657963178 1.209554437556686 -12.36627633702893 11.20700079207056 23.58795469421777 28.89486570056525
5211 7 0.006258073147770262 0.00411316954044531 0.0009723877324615197 1.210128993787672 -2.629766214191968 -1.153813263653591 -0.171324096750073 2.876857197501422
5212 7 -0.003632024232082725 -0.01174099061230852 0.002999778253389714 1.21001003828923 -6.241057239809442 1.564104933427765 -0.4963938725665085 6.45318732023738
5213 7 -0.007472207615963126 0.006252717959761187 0.003485561219539678 1.20974519711433 -3.7383738077361 -8.725017263213138 1.142284127250328 9.560657822404409
5214 7 -0.009292393786704033 -0.00269615678154805 0.0009873937382996619 1.209622220214406 2.485264921931566 4.610535445137558 1.162043447879884 5.365065125216455
5215 7 0.01032369259418552 -0.004262801420243495 0.001495009117081474 1.210164020040128 -0.5747006658748846 -0.149052066499354 0.03220052706284396 0.5945874602006743
5216 7 -0.006406820210006912 0.0006157267984394665 0.003474762207754114 1.209270988711391 9.523011778702553 -8.214868336243425 21.55622290795235 24.95681392278373
5217 7 -0.01164707876793018 -0.0004391553010635112 0.002994931318382962 1.209603220204432 1.936068523399021 0.1017748742469124 0.8905953413593922 2.133513420247338
5218 7 0.002827658538463859 0.001828910221024131 0.0004172896491165465 1.210027613788094 -6.742593141064327 -1.617900574760029 -0.8850499470689001 6.990241622758344
5219 7 -0.005574584784764186 0.001408669089092845 0.00347078360030049 1.209302037588136 4.542133244827662 -14.98527732585947 28.50395215580458 32.52175886152352
5220 7 0.0001427132908491877 -0.001515816826811902 0.0004925712916927011 1.209878855297116 -12.88708868219504 0.6127080472659611 0.08896665494790713 12.90195260104595
5221 7 -0.003294889862538385 0.01118537543003722 0.0009650999578716788 1.210009853835745 -6.157172734024789 -2.489008862489695 0.05416604863663425 6.641451283792982
5222 7 -0.01116184583666717 0.003367542502964122 0.0004926837006863033 1.209647591661795 -0.4564124370039812 -4.492056439581286 -0.5000609734494181 4.542790370048214
5223 7 -0.009936274786343546 0.005056383050083778 0.0005093000957238485 1.209689465716152 -1.622051593421364 -4.846196773138332 0.9667731446657255 5.201088813791206
5224 7 -0.001840631891555436 -0.01206294224148975 0.002984007432903212 1.210072294280288 -5.298368181965711 -0.05098796103460293 -1.215271280610737 5.436192550794569
5225 7 -0.0010143883281427 -0.007333733378691294 0.00100335475235323 1.210005625050046 -5.915683853658537 9.093203199358639 -0.5720737409207023 10.86319143927389
5226 7 -0.004756671533744555 0.000228453491512443 0.00347078360030049 1.209255827029148 -6.750730579833313 0.2795627919357236 28.53026957750089 29.31939291460525
5227 7 0.00456870913501847 -0.000682428331590099 0.0004903823477501665 1.210079928328623 -4.605296959523803 0.527343421797054 -0.1768738848286099 4.638764441211277
5228 7 0.008553044163826958 0.0001681574761340059 0.003474896871125994 1.210149547828165 -1.885398983484733 0.03758374249605591 0.1599601093578201 1.892545666875978
5229 7 0.008468427728916645 0.007421973587385429 0.001486226432060179 1.210161566566045 -0.6549185900686495 0.0993673066006035 -0.02643707818615428 0.6629412797085327
5230 7 -0.009604914779601985 -0.001222395128850155 0.001426833804047869 1.209594031245463 4.322891727606455 1.897908150937076 1.463898573520498 4.942918901980597
5231 7 0.006791911545977348 0.000774534160963 0.003480300378460846 1.21012938242112 -2.016367021922307 -0.06184308643704362 -0.3899367581729485 2.054655983324294
5232 7 -0.01158609722504384 -0.003970258527578058 0.003001537008858362 1.209652788092791 -0.1879952071633861 3.648569928134885 0.6903114063666851 3.718055211554363
5233 7 0.002956261040628239 -0.01114014560604074 0.00100417388874539 1.210134823458474 -1.485680361310358 0.01546308119817201 -0.6752686933182636 1.632015027822713
5234 7 0.006368412409155885 -0.007355511241729102 0.002480280564485621 1.210143686131401 -1.776451356810516 0.8004538923832104 -0.1618464557919523 1.955172660456812
5235 7 0.00434806917425469 -0.0001946424050313224 0.003490382347750167 1.210087681093737 -4.252619892226605 -0.1060608724752774 -1.479850113615436 4.503996138452969
5236 7 -0.01027598571089975 -0.001111575748330971 0.000990679659825861 1.209606495596432 2.033656902031331 1.748936284567306 0.359811192990778 2.706289455556669
5237 7 -0.002301724253918647 0.01150839795237621 0.003476356924189834 1.210070129962019 -9.438454216757819 0.01890982542372362 -0.1508154289159615 9.439678007057768
5238 7 0.005131384924964474 -0.003809108507708254 0.003502082597227189 1.210110313102469 -3.545444610106291 0.8327450308768272 -0.4972028960527961 3.675711154270025
5239 7 0.000424128559294729 -0.008371483012634139 0.0004794771961427927 1.210076176059386 -4.171493765846598 3.982503624370317 -2.840344119558909 6.428782938794296
5240 7 -0.01065845122396874 0.004856297715139072 0.003032943171534019 1.209674120216269 -0.5704011929458476 -4.691448280760877 0.6481018995359286 4.770228565189546
5241 7 -0.0008284665980866361 -0.004473984150688644 0.0004935670532922815 1.209905466126736 -9.010845251100456 6.375502520096695 0.4116898022588731 11.04589756499321
5242 7 0.01143117599345503 -0.003121404378790997 0.0009530324211444775 1.210167882288428 -0.4864536041292107 -0.1778134282673419 0.05621291188258991 0.5209746785639431
5243 7 -0.001486303667429885 0.00283765172481276 0.003468079990655487 1.209767844444267 -15.22177692453047 -14.45843018211934 2.669029905347553 21.16299640190461
5244 7 0.009229994958030594 0.007310238573072293 0.001002845590375127 1.210163932234132 -0.5321942862186728 0.02456045447671428 -0.0598864821282994 0.536115999527722
5245 7 -0.006314276866104407 0.008367770296024483 0.000499395166421551 1.209852395700529 -4.61609167998119 -5.364871575935399 0.238087259516604 7.081443000364775
5246 7 0.008334382865442079 -0.004315483582708285 0.001023636710113332 1.210151442978566 -1.555304836031407 0.2941809420988469 0.07187545804402513 1.584513061210252
5247 7 -0.008635374540444453 0.002957016002522299 0.003497685331042665 1.209578807463676 11.0245013689546 -12.52384313936672 6.864150223281209 18.04169714027248
5248 7 0.004217099733752371 0.001278865195212529 0.0004172896491165465 1.210070887854072 -4.842339472654792 -0.5590232835517257 0.2777828984468204 4.88240943988244
5249 7 0.01068342254739817 -0.00498849755915127 0.003011869165850686 1.210164725874149 -0.5700975773089823 -0.1419842844905263 -0.05287513217157377 0.5898869080578235
5250 7 -0.01024323465314349 -0.005242414987721742 0.0004907098937988948 1.209693205363239 -1.595704643067288 4.11928247771054 1.065221814144515 4.544167575300114
5251 7 0.004707983928991397 -0.008456528329904104 0.0005663142828427598 1.210134789383541 -1.615028015013948 0.8458647503525067 -0.4572577782301839 1.879597653999601
5252 7 0.003396693018350745 -0.01112431982509913 0.002511528933688722 1.210142531496225 -0.8764046344756717 0.102434789079845 -0.9634122910710323 1.306423060088501
5253 7 -0.001953186557595466 0.01000920210408089 0.003486777160558845 1.210073681405867 -9.43475641502897 -1.693987723369087 -3.437034201037112 10.18319336539154
5254 7 0.002530490560424815 0.003835979603110152 0.000448376604785651 1.210039778236177 -5.965380737793951 -3.262358170750099 -0.9928546314757579 6.871281430733711
5255 7 0.0004979736007387212 0.007930534952791213 0.0004867414926955115 1.210077304878906 -4.827245145677603 -4.388986123279553 -3.045255001507033 7.199935618532437
5256 7 0.003045961917633503 0.0003502099899331924 0.0004172896491165465 1.210028690677621 -6.992517385508855 -0.1539995448117036 -0.8530333146468946 7.046040099399327
5257 7 -0.01195137193646947 -0.002004795447302828 0.002505935477679234 1.209621919837713 1.267560926181071 1.917967142348483 0.7277259528304534 2.41140907419965
5258 7 -0.002215908235067972 -0.005790431663655434 0.001009357385403422 1.209890876530092 -11.13880939820711 7.306014900484676 -0.234278897399896 13.32313083090675
5259 7 0.006699805329041863 0.003671109435184535 0.0004988886172633515 1.210133503837823 -3.04082350644783 -0.6424386836287269 0.165136650968447 3.112331147722131
5260 7 -0.008725113325385942 -0.005066880063710027 0.003490709893798895 1.209683243365519 -0.8618573300906015 8.001154331544951 0.8617797777405364 8.093450010962814
5261 7 0.00265010550549937 -0.008601501877535046 0.001003518555904883 1.210116126273887 -2.639794331101484 2.147944331715629 -0.9804971339367389 3.541687958067874
5262 7 -0.003857897901423103 0.01151294946271965 0.002473154276900621 1.210000557717138 -5.489095826329907 -2.709274738935042 -0.9392504277119607 6.19294227065141
5263 7 0.005436211285008387 0.000453731961369773 0.0004803003784608457 1.210101032532362 -4.972399725005218 -0.3951288543976681 0.01222877826448151 4.988089351628279
5264 7 0.003864310758511603 -0.00299290632179593 0.0004819969320133665 1.210068256052343 -6.021917153865902 0.7157295612803114 -0.7893729817307427 6.115461120569846
5265 7 0.008431805202286334 -0.00364972382318547 0.003535793001244682 1.210150903922824 -1.817697489540812 0.5335016889367732 0.1013964872141614 1.897084463907902
5266 7 0.002546822971387297 -0.003147104374963941 0.00151791579228504 1.210027137163435 -6.344962531851639 2.185348639625079 -0.1551890136249614 6.712554047250735
5267 7 0.0008704348563853948 -0.001455314226172368 0.002493388186275113 1.209920576473486 -11.82610663384167 0.2460379348126441 0.9204650476110011 11.86442534150872
5268 7 -0.001729633602182391 0.01219467743593558 0.0009844185721666311 1.210068509584624 -5.658637689334954 -1.562190774707853 -0.5898372416571122 5.899875294223601
5269 7 0.000192889668571591 -0.01230000070874866 0.0009834835357633094 1.210105789793936 -3.243568189764338 0.3768954637390363 -0.5683807701367324 3.314489627695249
5270 7 0.008209869726513034 -0.008697049218994985 0.003491916785255549 1.21015592229246 -0.4881754417324368 -0.1068392526669668 0.05972186449018439 0.503285792487012
5271 7 0.001621486171184113 -9.871865587902593e-05 0.00050876305567354 1.20996196803009 -9.985645866876645 -0.5967221766804869 -0.1285444535834309 10.00428530237718
5272 7 -0.00855340243332565 -0.005648090652254948 0.002991966703941269 1.209711383522447 -0.9038081341828865 8.22660152345629 0.9299019602287272 8.328178637900711
5273 7 -0.005074474204201886 0.00210219596953174 0.002486391383149687 1.209479585103777 -2.947223582197849 -11.12669689637562 26.10868148795054 28.53336222225711
5274 7 -0.007896373527729206 0.001471031629323784 0.002972447538796778 1.209467609058586 21.24271022672974 4.619887375964094 9.934873904311168 23.90183709755306
5275 7 0.005881173573823151 -0.0005675297821927169 0.002966263191877584 1.21011671669782 -2.613328221340138 -0.08129458063856722 -0.2775938309374003 2.629287267734074
5276 7 0.008441711884464142 0.003834710806708592 0.002990260252809102 1.210153498923961 -1.606797627037738 -0.6007971141769113 -0.02921743131518105 1.715695032617997
5277 7 -0.007537472591072384 -0.001337192198602613 0.0004361541442220083 1.209573264647118 1.530170368998827 3.871176794186469 2.082890530624063 4.654660470171076
5278 7 0.007707260872518467 0.007072703739616121 0.0009927735499497723 1.210157431595076 -1.226413487268531 -0.386279033239666 -0.2079674985095646 1.302517567524928
5279 7 -0.007166921291575066 0.007512754250771643 0.003499395166421551 1.209801701089317 -3.24572174578736 -6.682149724533494 0.7993604399414785 7.471600344310678
5280 7 -0.006245257740582084 0.003507859951526293 0.0005210971994120068 1.209637641736418 -3.235825589381912 -9.625530741489532 5.247545815582908 11.4305794423074
5281 7 0.003443561078610325 0.009185760532223971 0.002985412431622735 1.210146865894504 -0.3723744689856053 -0.8866444916036 -0.9280371934758135 1.336433399806284
5282 7 -0.005848625306764302 -0.008369332576903633 0.0005141520114740618 1.209863795958434 -4.350374884314245 5.678665278665387 -0.2593413396374188 7.158230152184054
5283 7 -0.0121097386544636 1.574442436496043e-05 0.001500116368927886 1.209613746876425 2.001010031075037 -0.009770965158701224 0.3121073300357531 2.02522779007328
5284 7 0.002799416058988847 -0.004469369729266485 0.002526046125315255 1.210055541515089 -6.582933057797756 3.221974289642489 -0.1888466450592603 7.3315611585742
5285 7 0.005451577932427435 -0.01109588785470774 0.002996434792886709 1.21014935966656 -0.377858641488894 -0.09110555113512946 -0.1332333597036399 0.410887457259756
5286 7 0.006303527558785544 0.007672424214549202 0.0009747722387832892 1.210149510022121 -1.415949874290788 -0.7840787375101268 0.07076817797040943 1.620093098600455
5287 7 -0.007215548021843118 -0.00178094654136824 0.0009059557059031016 1.209565830728634 3.613654988049372 1.097390314020939 4.719611334838269 6.044625631575122
5288 7 0.005640430549788177 0.01021823972151313 0.0004913511061056695 1.210152946809447 -0.9318601010464175 -0.1915002595095909 -0.1896201072710837 0.9700471031841584
5289 7 0.0002822125808947931 0.006503520061765306 0.003547510077209633 1.210055888630495 -8.895170587774791 -13.82845558809913 -1.727642159292954 16.53284582787277
5290 7 -0.006307058080928823 0.005280812584245132 0.0009807155233448283 1.209731247510552 -2.559207869335163 -9.560571876498758 1.452693428916443 10.00321936791266
5291 7 0.01101441470732666 -0.003987164744548848 0.001007165408212824 1.210166220767562 -0.5053147047298048 -0.09350462722864755 -0.003891387581853295 0.5139077826095362
5292 7 -0.004526727698303726 0.001498369218085697 0.003494510583437191 1.209310381275858 -8.79193483145694 -12.95533624672339 23.20873175258318 27.99614410788767
5293 7 0.007058063774993351 0.00995449511705826 0.00101464527792764 1.210158261054538 -0.4695760936791127 -0.319230817337403 -0.2513311153600116 0.620948751541501
5294 7 0.005383821303387012 -0.008451339707946077 0.001076956543475806 1.210140608638749 -1.091143412818887 0.9334118017487237 -0.2523753326849639 1.457924842894754
5295 7 0.0030762829707562 0.0009229136203157699 0.003417289649116547 1.210051113577558 -7.36900079764805 0.02603510583930153 -1.680582743240476 7.55825435794214
5296 7 0.01115566052584853 0.001609806134596915 0.0008337488330213208 1.210168756162591 -0.4474072478106812 -0.02027774322533349 0.04101942213777061 0.4497410646765064
5297 7 -0.001230158093442179 -0.001660606647196334 0.001502784684526874 1.209768677586197 -14.81624273377386 5.29683530883739 2.272083858560051 15.89779475573208
5298 7 -0.0009059348869416732 -0.006314712177823122 0.001008576661457806 1.209972549724406 -7.330943402494497 6.240703991199528 -0.5552776233453746 9.643518585834705
5299 7 -0.004186364161378106 -0.001525259120469349 0.003475493913933231 1.209344891357717 -12.14250529013017 18.62824778942587 26.49604132034941 34.59034917538058
5300 7 -0.006917120991653477 -0.006169463964952938 0.003063240107357785 1.209754083915751 -3.742629665195226 8.582095189116867 0.9950431210946901 9.415399378608432
5301 7 0.005782530445113807 0.00501427424969972 0.003473499115198168 1.21013004407057 -2.39006613615916 -1.169353354030634 -0.2113260553874296 2.669168803856938
5302 7 0.003211548806532219 -0.0008315262692713375 0.003490382347750167 1.210054433895841 -7.39022431444614 -0.4088413343468799 -2.014977278657447 7.670899561851089
5303 7 0.003650228048204371 0.007539537177993065 0.0004863504289526245 1.210121453565506 -2.34982192621484 -2.764005532714519 -0.3392009260556356 3.643685900023971
5304 7 0.004443868582131837 0.008037457041203183 0.003486350428952624 1.210142234466673 -1.277173918139676 -2.744424955794512 -0.4784180489253196 3.064624835881461
5305 7 -0.004914079527991421 0.004968544384439461 0.00049515430380515 1.209751142479234 -7.502464365229987 -9.438628668807517 1.279459512287093 12.12483811614666
5306 7 -0.007419980546611229 0.007492822136711508 0.000499395166421551 1.209798828124643 -3.375490846522634 -6.312462358084562 -0.5032400613153003 7.175957778339085
5307 7 -0.01012088678052487 0.005664036786421337 0.001001983796410115 1.209701795792973 -1.644388740966065 -5.196144322700135 0.7982012363242061 5.508271540820614
5308 7 0.001907337198932577 -0.01209816574159811 0.003000820467835794 1.210140346369347 -1.276497313196534 -1.260524532294807 -1.356012514810366 2.248808001461517
5309 7 -0.007522806550311212 -0.007022586967029032 0.000501256810142374 1.209781009836493 -3.634856729779807 6.283752609628624 0.3349418502809576 7.267043164046139
5310 7 -0.009413786495150143 -0.0006350711897469644 0.000938351420629003 1.209589089565265 3.936171346191708 1.266676746935379 1.799658152073865 4.509621304736502
5311 7 -0.003140756113246682 0.009387382542242952 0.000488743033681845 1.209984142249253 -6.648358350556983 -3.836235086626469 -0.6064798015176773 7.699687405793411
5312 7 -0.004088514724439267 -0.002060256115766684 0.002958870133594878 1.209455602260822 -8.823229910135144 10.61382988601208 22.23864887350221 26.17365611860956
5313 7 0.008583411100595611 0.008078928759668629 0.0009768337237954581 1.210161796812466 -0.6408265106985414 -0.008757909925738987 0.02371368115878807 0.6413249226986549
5314 7 0.009826292673050064 -0.007349549007083866 0.001014562073425484 1.21016084137336 -0.5003430046761836 -0.1593067076777452 -0.09826455414412917 0.5342075177687586
5315 7 -0.002535297557533235 0.00730294584871798 0.0004849179433211965 1.209949208198946 -7.50140538948118 -6.318083658781496 -1.124593566610919 9.871877968591475
5316 7 0.00796186794710866 0.006997107412564584 0.002992773549949772 1.210159025278119 -1.158232913470327 -0.3030816762987062 0.1922372119196011 1.212566340453427
5317 7 0.0008953652929537274 -0.007031363720124945 0.000484699105247369 1.210051269986757 -4.18833526981519 3.932215292656128 0.02189527105112761 5.744993371890954
5318 7 -0.003334434956771058 -0.002653692722799292 0.003002232665698549 1.209570320281188 -17.35761745050846 34.63250474292445 11.48947316633954 40.40674772815694
5319 7 0.001019115656468354 -0.003593632722944326 0.003543865021362802 1.209966648788781 -12.22941263300205 5.492481409985036 -2.014959729170909 13.5567676124304
5320 7 -0.0121097386544636 1.574442436496043e-05 0.002500116368927886 1.209610386669443 1.997985241812435 -0.025672957955143 0.9559455598515465 2.21504763846522
5321 7 -0.01115403905644536 9.850951517384053e-05 0.003502197276406995 1.209596548295225 1.761702177221528 -0.2985028349973399 0.6733977083555147 1.90949285867923
5322 7 -0.001472538893588065 0.01020086356126308 0.0004867771605588453 1.210058573726371 -5.719948355944051 -1.889274534456447 -1.501901661350376 6.208290913091918
5323 7 0.005380461682990312 -0.007749024170880966 0.001559423604983966 1.210137436146103 -1.048674169754918 1.072395233645247 -0.2054971758747786 1.513928050056778
5324 7 0.009765653922213173 0.00660914760820122 0.003020312925136194 1.210165571982534 -0.5005961966641663 0.02939454110318324 0.01405173967515568 0.5016553025227519
5325 7 -0.01161669894297879 0.0005534092406023123 0.003007382326951919 1.209603714760236 1.833969529709474 -0.4272076435106938 0.7505492030012713 2.027134606458731
5326 7 0.0038262829707562 0.0009804895573885374 0.003417289649116547 1.210074321952997 -4.407573775646711 0.0848918480558804 -1.80171456615551 4.762361661143753
5327 7 0.002240933092224921 0.001858615947463244 0.003490803720623934 1.210020191420073 -7.015206141333609 -0.9154273269813277 -2.680910311686622 7.565606683914821
5328 7 -0.002836999148391029 -0.006594793699359254 0.001011215664094502 1.209903330569706 -7.803932554158375 7.906343807530925 -0.4669544259753267 11.11888853027466
5329 7 0.005655391178254876 0.0001383772897580715 0.003480300378460846 1.210114733546656 -2.593234242852297 -0.106063243473387 -0.2881194383780625 2.611345641750458
5330 7 0.002746049235469867 0.008334424885983162 0.001495259388772364 1.210125337004454 -2.054460318518477 -3.371616119902318 -0.4686078506660825 3.97595218508197
5331 7 -0.00106964191565176 0.00538260442701353 0.003500851209436649 1.209934129130069 -8.533048519402422 -10.10577865141691 0.003592565967724077 13.22647693425728
5332 7 0.01011877683441748 -0.005236696679350812 0.0004878437088686505 1.210162955432993 -0.5230025595165453 -0.1011257525980936 0.07374261601842855 0.5377695310415325
5333 7 -0.004019375327923829 -0.007028641715749302 0.003487338107884064 1.209874094150227 -7.454982845217865 9.144399594408744 0.1019052365865294 11.79860999618002
5334 7 -0.01149791931056529 -0.00242316056618231 0.001013201435703267 1.209629059871541 0.7630983799660644 3.106395404173831 0.9570013856069578 3.338841595019561
5335 7 -0.005777342352933142 0.001952521825098327 0.002991880799712496 1.20940370288017 2.044588497104898 -8.956008837708719 23.6619136020618 25.38260411650167
5336 7 -0.004594768953257709 -0.007831272710370773 0.001001490119358126 1.209884196820418 -6.312616786213781 6.402258460447445 0.2510137061228104 8.994501207105394
5337 7 0.01030027161255599 -0.005849448105629761 0.0009792237388680917 1.210163187313816 -0.5364573536435029 0.002863667131519955 0.02058977311275639 0.5368599739452227
5338 7 0.003126708967647548 0.002701386325048806 0.003448376604785651 1.210058816099124 -5.946120598386859 0.1538529189273684 -0.3029550460764307 5.955820904893476
5339 7 -0.003857897901423103 0.01151294946271965 0.001473154276900621 1.20999732174513 -5.443973182340136 -2.709431375913396 -0.2737231001485412 6.087100025987537
5340 7 0.003309637975475575 0.008902720605214203 0.0009854124316227351 1.210136103818266 -1.181407720423796 -2.067904041930599 -1.032586441818542 2.595801627308476
5341 7 0.002410358670871976 -0.00522877263208037 0.003500184171939087 1.210059949253209 -6.089402144836702 4.494795992233347 -0.9179290281621737 7.624080481873308
5342 7 -0.01080536656350185 0.005474642949603252 0.001525626872220285 1.209691704804664 -0.555002420329238 -4.376918064984292 0.1826315040499549 4.415743844521407
5343 7 0.01210352679040767 0.001107172269849563 0.001946025042517321 1.210170850322986 -0.4491216485620873 0.0300475771885895 0.006217773482603107 0.4501686048683451
5344 7 -0.01007036152123966 -0.005181310779661106 0.003490709893798895 1.209684540367337 -1.620222287637638 5.335546086789061 0.105010413816363 5.57711390350042
5345 7 0.006602400302596611 -0.009154657253071958 0.0005106422606330468 1.210149241462222 -0.7992941113076043 0.02997197553526374 -0.03032568015989667 0.8004305357528908
5346 7 0.000247688034082779 0.01204271595081201 0.003510920252056628 1.210138439596494 -3.851990765006065 1.141321381273643 -2.162822204516673 4.562701747582757
5347 7 0.001800822252775068 0.007834450777902492 0.0005098469571496295 1.210098230333873 -3.163904014299159 -4.082909221689839 -1.186348939002145 5.299798121563668
5348 7 -0.003756396327556077 -0.002934400053294492 0.000483376219661647 1.209678032188364 -9.618248386983106 9.365221480818413 4.466898255666221 14.14818912246227
5349 7 -0.0106659549884763 -0.004967560699518475 0.002967527850372857 1.209676624937597 -0.7379393157695151 4.723428721935198 0.7250463292271747 4.835393004140053
5350 7 -0.005726089617497257 0.002843181063419502 0.0005210971994120068 1.209613740479391 -3.536462333196518 -9.257220015619183 5.306675099793229 11.24115158097531
5351 7 0.001864821753789402 -0.007474451911508947 0.003687459334259444 1.210108553687246 -1.735386570367342 5.582272763545006 -1.765208439049056 6.106496261238331
5352 7 0.006732746567099056 -0.009316882319843791 0.003510642260633047 1.210151642847488 -0.440073469775203 0.113049954532301 -0.2699944321098081 0.528528092337616
5353 7 0.002345053122350711 -0.003158461553793853 0.00251791579228504 1.210023472978163 -6.4382855693586 2.115116633905257 -0.9950325643034923 6.849476567713644
5354 7 -0.007023230759889658 -0.002594191202250225 0.003469801561681093 1.209473665569136 14.23759868260562 29.57442735697549 17.88949737522425 37.38168115639142
5355 7 0.00235442164628124 0.007160450127193798 0.0005098469571496295 1.210096050910035 -4.0317210423533 -3.065382707022428 -1.148258264463139 5.193249728808969
5356 7 0.01152642691066156 0.002114991862513385 0.001303218623700881 1.210169648122616 -0.4571343808442068 -0.04481646964516697 0.02846839574599059 0.4602073528939133
5357 7 -0.002606268003590776 -0.006100008298801052 0.001009357385403422 1.209887428819571 -6.560192118304011 11.04993153215546 -0.4615711620002594 12.85885513690748
5358 7 0.00895041373590115 -0.004403228433876317 0.0004878437088686505 1.210156224160342 -1.3065030312139 0.3201700618732948 -0.06040273511208072 1.346516813671511
5359 7 0.01017077738534683 0.001083836578917106 0.00351419864220469 1.210163871364794 -1.105285394534208 -0.03596724293548994 0.1495621350243516 1.115938294964404
5360 7 0.01202711602901597 -0.000876689523715873 0.00191964430225104 1.210170001808339 -0.5524725404520683 -0.1033603536520068 0.01495273340592294 0.5622569296122003
5361 7 0.002592304480876766 -0.003806834195632241 0.003025861953376168 1.210040937540864 -6.333406974917362 1.757032169114545 -0.8079303942462944 6.622081053202402
5362 7 0.009531529417472775 0.003114267821157217 0.0004913716355457505 1.210161831617557 -1.151313662527444 -0.2485950748784218 -0.0560094893820579 1.179177562403985
5363 7 0.008748874620686097 -0.001352453353167087 0.0005075933896495858 1.21015237671656 -1.905050914853933 -0.07123218623046058 -0.1359662890292616 1.911224697489379
5364 7 0.001407749313633053 -0.001180461953786266 0.003000816894582412 1.20995857199763 -14.873235884708 -1.268582083958626 -1.079954686436606 14.96625364981707
5365 7 -0.001703620520865699 -0.006748818283357388 0.003523877556210437 1.209975388964928 -12.50343876328156 14.55808061060008 -2.029275567207088 19.29745193800274
5366 7 0.01122792870338873 0.001673919433482301 0.003126474851700691 1.210168844652803 -0.4438759543542502 -0.004283497288086125 -0.03360775385277495 0.4451670386741837
5367 7 0.002312580828550801 -0.007219829041439479 0.000493387427409996 1.210088091130096 -4.084829277531016 3.945749441919554 -0.6808683973571915 5.719995687017848
5368 7 -0.01195137193646947 -0.002004795447302828 0.001505935477679234 1.209624741285845 1.253122157227125 1.890486678991436 0.3450051345408165 2.294184728228561
5369 7 -0.01178736388586513 0.003643749162407324 0.003016326776496474 1.209644058503812 0.3501971894506887 -3.689310408473368 1.326367417470891 3.936102118555551
5370 7 0.0002459516088545344 -0.01206762320879458 0.003506777707585291 1.21012846784199 -3.13630707321338 -0.8652096082956205 -1.885665425179268 3.760418037863855
5371 7 -0.01080536656350185 0.005474642949603252 0.002525626872220285 1.209689949673115 -0.5463437675825704 -4.359960525188095 0.4852610585842465 4.4207720579728
5372 7 0.01157870147223452 -0.003671010188337463 0.002477057878126513 1.210167825114523 -0.4903038365760183 -0.08000288336478337 0.005364720805457975 0.4968169620062932
5373 7 -0.008699816076567437 0.004946563575126477 0.003509300095723848 1.209675938491427 -1.157506268071286 -9.860271860791272 2.518277785253323 10.2423876578187
5374 7 0.0009359134523784065 0.002363922562130485 0.003490803720623934 1.209940870030974 -12.59827845225021 -3.811789304477079 0.2438174737707589 13.16456625273593
5375 7 -0.01076785924717986 -0.005029908853724697 0.0009675278503728563 1.209683836333652 -0.8420684038344043 3.724226840067979 0.4730210348907545 3.847426887215411
5376 7 0.002316755743332006 -0.004760408618183707 0.003044049193301889 1.210045398700199 -5.97420198386925 3.673929299012488 -0.4917050966862885 7.030691270445385
5377 7 0.009482148912070013 -0.003112233515705077 0.0004831399512307885 1.210159101334372 -1.489459896310555 -0.05432631417624185 -0.00762376106261439 1.490469809443373
5378 7 -0.01008485742644791 -0.000524251809227781 0.0005021972764069947 1.209601553916234 1.734873212272661 1.095193539974651 0.7623130530223299 2.188687995917119
5379 7 -0.0009980281401216842 -0.007920250017422782 0.0004794771961427927 1.210023804069162 -7.183370342948173 6.164096929556756 -2.346899090897169 9.752170824168962
5380 7 -0.008043722836481575 0.006303058516264853 0.0004855612195396782 1.209746737828659 -2.88540586900219 -5.599829908513289 1.038012814025381 6.384444583143714
5381 7 0.0014891703090652 0.009572622427834637 0.00349906200267011 1.210195098341083 9.69105310263248 1.679497472334371 -2.408153437644114 10.12602710725472
5382 7 0.003880694640597254 -0.00400680069457553 0.003481996932013366 1.210083498338261 -4.489589577003594 0.3850547008023114 -0.929408677874012 4.600921884042021
5383 7 0.001259366384896237 0.001072668616593631 0.002999566776297474 1.209952810770921 -15.08531957284738 -0.2954310702117369 -0.4680593608634705 15.09547037019617
5384 7 -0.009743585948265836 -0.002282496618927982 0.003488482383418866 1.209591349059446 5.150696766827104 7.482491162449113 2.109619248293152 9.32565518088146
5385 7 -0.006948799091383713 0.005726855032929795 0.003485561219539678 1.209726478229278 -1.508040090430125 -10.67266919738703 1.066815377125444 10.83135022792956
5386 7 0.007284050158224151 -0.009217783577792385 0.001002559045888596 1.210152069977998 -0.7370862174232177 0.04150194346883975 -0.004169537688861504 0.7382654592160578
5387 7 0.009634153554247961 0.004510461005746835 0.0004913716355457505 1.210163762633429 -0.9712121737860705 -0.2664160206065158 -0.139217783045121 1.01666718923258
5388 7 0.003594900045138195 -0.009990850726717973 0.003510131128494887 1.21014369755639 -0.02053425101803136 0.8701375254107789 -0.9168982977935226 1.264224448857688
5389 7 0.01023951658677934 -0.005840843229993833 0.002979223738868092 1.210163090935809 -0.5360456154461321 0.002771471706080285 -0.03393168471377816 0.5371256297384769
5390 7 0.001088881742635251 0.003985616681569394 0.0004744222377414007 1.209985600031938 -8.972585360009736 -3.707192085005343 -0.8468477865860013 9.745137883654234
5391 7 0.005180080544476086 -0.007143860356780895 0.003048781344350919 1.210132525573104 -1.693914249813401 1.602715814255254 0.1972535736517719 2.340288964915053
5392 7 -0.006962241180839374 0.0004477481625664463 0.003474762207754114 1.209300944418353 15.14429141043001 -6.59002346611021 18.71787639045217 24.9627095519728
5393 7 0.009820149054179467 0.007175310147509151 0.001513765807246601 1.210165674875584 -0.4973560252381015 0.004280725437857887 -0.04096481202673376 0.4990585699848295
5394 7 0.008924847808519884 0.0008649656331512254 0.003474896871125994 1.210153499045468 -1.987465293219797 -0.1345940458830096 0.1612788108774492 1.998535639856956
5395 7 -0.003344935181422562 0.005561010111938685 0.003503171674414813 1.209817819299155 -9.949983849652478 -14.59732228373998 0.9547109666992915 17.6916779728112
5396 7 0.01157870147223452 -0.003671010188337463 0.001477057878126513 1.21016785139461 -0.490320733974217 -0.08008684027341109 0.004563773928288888 0.4968391612810552
5397 7 -0.004015206930894595 0.001772332320454264 0.003494510583437191 1.209365806075601 -15.88828620561592 -16.86912579259289 19.80540808171479 30.48375358844677
5398 7 -0.009124938540827547 -0.002062694156050489 0.00142354788252167 1.209600204368285 2.935936299631414 5.266784221697767 1.508783364085667 6.215719204819312
5399 7 0.008271389558747186 -7.612021394607082e-06 0.000474896871125994 1.210147443506727 -1.965881731927287 0.01401152208924551 -0.06229078295788409 1.96691826172777
5400 7 -0.0007135524722418449 0.007398843094920487 0.003684724317412645 1.210076222468488 -16.11187648625321 -19.67198966873912 -7.447913929612247 26.4962480992719
5401 7 0.006485611953060309 -0.00978321455873405 0.0009997220085764236 1.210149236974088 -0.7448930255387631 0.1482147809301814 -0.09399273392113229 0.7652894059193834
5402 7 -0.009878862047382878 -0.002551055514599121 0.0004884823834188663 1.209626299051373 1.020251903762258 4.436185939950419 0.4391726879288441 4.573131562809771
5403 7 0.01167501719970464 0.001688046728918071 0.0003195501908166308 1.210169886686949 -0.3561468208421616 -0.007842509546676856 -0.08804881590828553 0.3669532080999151
5404 7 0.01006482790094112 -0.007070614169358849 0.003014562073425484 1.210161939457962 -0.475509087533472 -0.1645933577877183 0.06329357718644497 0.5071547521889226
5405 7 0.006537872487445281 -0.003972568258400486 0.003037875598471871 1.210131524566416 -2.515719107681294 0.298071837408767 -0.2996756863478499 2.550979217084503
5406 7 -0.000253185487912784 -0.004694287995360882 0.003493567053292282 1.209937565564186 -10.63328478180424 9.317704195718948 0.6898732744938355 14.15493842673747
5407 7 -3.653765978440516e-05 0.008610515268334092 0.0004867414926955115 1.210077882778861 -5.265458957927746 -3.858688862203561 -3.085836404477602 7.220590286681181
5408 7 0.006456022989570707 -0.001457314396113053 0.0004859628134167387 1.210122653292631 -2.88805354737102 0.4668222014385803 -0.06974442596959467 2.926369857894269
5409 7 0.004989767972919204 0.01069650808506957 0.003523294185131161 1.210157055777301 0.0146611239124137 -0.1861699605285642 -0.179724587094672 0.2591816543737859
5410 7 0.007335055380226767 -0.009339142255654569 0.003002559045888596 1.210153035944281 -0.7208091519608667 0.08273998426000595 -0.1286899820532108 0.7368669147320603
5411 7 -0.0117516110022725 -0.003610480412945509 0.001001537008858362 1.209650240555974 -0.6210747319744889 3.575108751619111 0.02564991162688087 3.628745558256628
5412 7 -0.0008345920202969103 -0.006821260260302535 0.001008576661457806 1.209991607155667 -7.281979687247743 5.935618671549691 -0.5686199793236763 9.411807789177599
5413 7 0.005733830805387283 0.01084756494083776 0.00301464529123683 1.210157757154958 -0.4243856971166559 -0.1636641299575223 0.03358461699564699 0.4560889100281731
5414 7 -0.008024165744323816 0.002461506609290276 0.0004976853310426649 1.209603668061318 1.947013687768834 -5.560089036334519 1.657372311352309 6.119831318816215
5415 7 -0.001400691456406521 0.005434801433225741 0.0005008512094366488 1.209920775293736 -8.008200030708577 -8.199408926723645 0.126101110976489 11.4620013945936
5416 7 0.003163057158199679 -0.003547762632260108 0.003481996932013366 1.210060121110413 -6.526630761973803 1.631297768844423 -0.9221586988840696 6.790317973387336
5417 7 0.004112718385176546 -0.01121238017986594 0.003507355044943333 1.210148075669436 -0.002397398635952595 -0.05764470489481226 -0.09476991115065032 0.1109504194770431
5418 7 -0.0009384604757051828 -0.002255290619185669 0.003011427737729603 1.20978859219437 -15.74495797016227 9.652641543624435 2.491391815177536 18.6355634051835
5419 7 -0.004610036115898426 -0.003060705070257528 0.000483376219661647 1.209651494987626 -4.998324005264496 10.04854423918224 4.647402333210329 12.14721501559657
5420 7 -0.001393822709012587 0.007922587042745611 0.003684724317412645 1.210068802506511 -17.85799089445365 -18.78834114886793 -7.607345974424761 27.01446491580446
5421 7 0.005652737650035891 0.007576150522697516 0.0004913913970982377 1.210143370652896 -1.86332103412865 -0.9318577230527747 -0.1836691402452298 2.091424979605481
5422 7 -0.004823596409039224 -0.009180899410962305 0.0005141520114740618 1.209916723790703 -5.646783231652875 4.250384618545293 0.199309693623005 7.070477680101578
5423 7 0.00302148622238154 0.003461142490303287 0.003448376604785651 1.210059130367908 -5.946122142626446 -1.869833326892129 -0.540922457892296 6.25661588327438
5424 7 0.007947789831723598 0.008721873186834529 0.003006675013507022 1.210160558533147 -0.4692233366134048 -0.2665669083152879 -0.0978605998329086 0.5484570659869781
5425 7 -0.008289499670632628 -0.006165089112215459 0.003501256810142374 1.209730844278895 -0.7493609026421324 7.396931886734241 1.323880311266981 7.551741665202456
5426 7 0.01061682759367365 -0.004959290694570111 0.001011869165850686 1.210164461771905 -0.5754161018184993 -0.141343704497373 0.0352398491398011 0.5935685133162255
5427 7 0.01204578358451767 0.002193232456834541 0.0007890199814961905 1.210170778646973 -0.349822938061195 0.01011833083311978 -0.07761470665956359 0.3584724693787031
5428 7 0.009820149054179467 0.007175310147509151 0.002513765807246601 1.21016571938003 -0.4978357059304278 0.006768632219141417 0.02441000943160085 0.4984797418569948
5429 7 -0.005844004225429984 -0.006238629461038987 0.0005619832972154113 1.20978585264056 -3.743179273279138 8.508711277266748 0.3461701276501367 9.302117631435875
5430 7 6.943499618148391e-05 0.006135715126231146 0.003547510077209633 1.210022499561417 -7.188138279735821 -11.2998362409969 -1.441643914056022 13.4697426915619
5431 7 -0.00390443924100396 -0.0007864844209316841 0.003475493913933231 1.209317894566762 -19.22757236618782 7.157227120310405 24.10755462365508 31.65595724474636
5432 7 0.007984510813624918 0.008754326596911652 0.001006675013507022 1.210160255078554 -0.5242340003297202 -0.2433679349908084 -0.0002828595476707448 0.5779699982636773
5433 7 0.001313937464327964 -0.01183949567018372 0.003506777707585291 1.210141372721374 -1.48329247826845 -1.297688290841861 -1.250116364647969 2.333868548448366
5434 7 0.002814825512083901 0.005438227613533082 0.003488285932918712 1.210081661490019 -3.380569656136283 -3.227855265254902 -0.4444545870673596 4.695193360596387
5435 7 0.008521433978756543 0.005816333934932296 0.003509392708264721 1.210159684553956 -1.096998155820108 -0.3396260222284612 0.2239552436660632 1.170002880343878
5436 7 -0.001710013934252304 0.007446870375829541 0.0004849179433211965 1.209986510657646 -7.377773211602821 -6.305388557797777 -1.13508922271553 9.771278829824491
5437 7 -0.003235659835767002 0.006145099521547666 0.0005031716744148134 1.209872242271354 -8.136151147018063 -7.984594602717699 0.5272076356113629 11.41177700219904
5438 7 -0.008537632252668011 -0.003264815430533078 0.003498911354880796 1.209593394900041 9.658257527817474 13.81537076606819 3.463949468891786 17.20887427464708
5439 7 0.01079832237181215 -0.00557204212084906 0.002503249195850127 1.210164731282759 -0.5800828098244074 -0.03840237569603924 -0.005779971487553349 0.5813813006825007
5440 7 0.008528495830598748 0.008699175968081214 0.002500127895617428 1.210162136872222 -0.6153346293914573 -0.1889041001380578 -0.01413920243154575 0.6438333497285549
5441 7 0.0103562937367825 -0.0002568734058410185 0.0005003241664634497 1.210164892318644 -1.137250354251949 -0.09062612110496053 -0.1430902592999129 1.149794018239455
5442 7 0.009429443766203277 -0.007253234197884949 0.003523182043426043 1.210159969958818 -0.4915896164313606 -0.1727536223778711 0.07183756303267969 0.5259893539704797
5443 7 -0.002885309385916219 -0.00462390001069249 0.003485479829192984 1.209780749367699 -12.81278203881778 13.02304805998374 1.908274943564578 18.36868742199982
5444 7 0.0002869542308438223 0.009930614872419063 0.0005031635976452445 1.210105144925454 -4.567903444690456 -2.221272618684281 -2.212675654350848 5.540372503531547
5445 7 0.005789058269329492 0.004250645067980639 0.003473499115198168 1.210126249920417 -2.356255842807201 -0.8011794563587472 -0.2642789135581914 2.502733198366512
5446 7 -0.002074621849449148 -0.001545538259168775 0.003010213392834173 1.209617947954464 -34.79999263073744 10.9776769834122 11.64287293764111 38.30281150638389
5447 7 0.007531000373294386 -0.00709848525570971 0.0004871712423444145 1.210151113972307 -1.265849090944877 0.5425018911247166 -0.2297949712322512 1.396240649645861
5448 7 0.002538510805716838 0.009644175759319785 0.00349906200267011 1.21016083316474 3.45998079366206 -2.90695706562731 -2.985640410580321 5.416263946227243
5449 7 -0.005492675021944454 0.00496622402373572 0.00349515430380515 1.209693878634086 -0.9378944945682951 -18.59305971483592 3.253993616413747 18.89894150734525
5450 7 -0.001577503333152953 0.005312890868064172 0.003500851209436649 1.209901371917024 -12.18818333552507 -11.03046115357835 0.748455295589168 16.45548758349225
5451 7 0.004186225692966103 0.00157881915115368 0.002914116876967146 1.210080914414245 -4.741345962963266 -1.549174418914731 -1.508266120751127 5.211062234490537
5452 7 0.007665548098153607 0.007493485052239676 0.003483380841685051 1.210158181247869 -0.9399278065007068 -0.543198080083189 -0.01648926522483456 1.085725716517274
5453 7 -0.004514746779977827 -0.003245387936193929 0.003483376219661647 1.209536432309566 -18.66584660547424 35.64244065111298 11.94519950232598 41.97005118197468
5454 7 -0.009129144016687865 0.001601304343699273 0.0004976853310426649 1.209597695303667 3.499367726171512 -1.831864588997661 0.5897319468285868 3.993630694556594
5455 7 -0.003807455262061939 0.00217878537918653 0.0004945105834371912 1.209639453989464 -8.950883391405359 -4.863115176263466 6.920305263650159 12.31498386707203
5456 7 -0.008480905709686353 -0.002149391081890911 0.000935065499102804 1.209597151049717 2.659272677724267 5.297117020858549 1.649797340123899 6.152480082912908
5457 7 0.004810880490749137 0.004399191672619185 0.0004734991151981682 1.210106254123365 -4.413445439627877 -1.51878329923469 0.08156396342859158 4.668174808073974
5458 7 0.007706126539885116 -0.001854320232048908 0.003507593389649586 1.210140978239162 -2.229624221303662 0.08023317842095153 0.1018160997151734 2.233389363569349
5459 7 0.002871522416995097 -0.005531833715175709 0.003500184171939087 1.210077742510822 -3.92831088673766 2.963294407438594 -0.3200758360819412 4.931043369192976
5460 7 0.002703640234031795 -0.005896307954923889 0.000500184171939087 1.210072981851769 -4.548399339709079 2.715382692324355 -0.4676531009861133 5.317888598128262
5461 7 -0.00628755651708759 -0.002534778913429199 0.003469801561681093 1.209423643293542 7.919876274177509 29.53070429121823 17.47960791915792 35.21822864854425
5462 7 -0.0004841244426604262 -0.006497817940933574 0.000484699105247369 1.20999298249377 -7.214191201065479 6.092294366412914 -0.6655133384234654 9.465913233078817
5463 7 0.005445459438364731 -0.004543495554881751 0.0005020825972271893 1.210115193839961 -3.234126377143564 1.567336021199518 -0.1530766830911374 3.597158336463864
5464 7 0.007781821942665879 0.004534910537561531 0.0004988886172633515 1.210149448859381 -2.015652791165085 -0.540052626124858 -0.1243309365636888 2.090447606447662
5465 7 0.007634020017980646 -0.004165178707025327 0.000535793001244682 1.21014439991622 -2.101877491060653 0.2370888428018017 -0.05945458220410339 2.116042285530605
5466 7 -0.009369815636211382 0.003913134934921179 0.003509300095723848 1.209637667471315 2.967381268633537 -6.303481226502494 1.886391534486725 7.217873661106139
5467 7 0.008797949245223652 -0.008558672414162631 0.003015098828681592 1.210157630421682 -0.4724828645241053 -0.1000997571068071 0.05201773197768381 0.4857631759220206
5468 7 -0.006518739077428995 0.007741591524910236 0.003499395166421551 1.20982427069696 -5.284437966752915 -7.499785651085042 0.5955782849881446 9.193844839360201
5469 7 0.006564952995560138 -0.0098240809476437 0.002999722008576424 1.210151081069626 -0.3985376327135686 0.2055108817879449 -0.2174482029104341 0.4983479589314792
5470 7 -0.001548344914831448 -0.01029779756150284 0.0005720303182787963 1.21005267148275 -5.502893195245865 2.086657515394374 -1.758078318827843 6.142215600251069
5471 7 -0.008115135276333896 -0.003481628495567629 0.0004989113548807958 1.209640631983626 -1.029010021069805 7.908037936208936 1.282786307748264 8.077218972847536
5472 7 -0.008264890822447288 0.0004621363978731648 0.0004747622077541135 1.209558850102492 3.077118759600701 -1.364245661154193 6.237404008460816 7.087667800442374
5473 7 0.003852811463076478 0.01159610216579728 0.003016747077487462 1.210155246523422 -0.6079419803301725 0.09966247284162442 -0.3457599850464932 0.7064531316372167
5474 7 0.006984135060822667 0.007594848119531926 0.003483380841685051 1.210154809184972 -1.074460719626808 -0.5560306119225561 -0.006889829916508598 1.20982781798577
5475 7 -0.000157859648172503 0.01239661263949488 0.003018981900033425 1.210123632733996 -3.393119818279773 0.8948732677081477 -1.923829030928079 4.001896851082408
5476 7 0.002438038736969477 -0.0115661209043193 0.003494042760250503 1.210146610848204 0.9527362327998274 -0.859917274551687 -0.2402041492789612 1.305703673002737
5477 7 0.01079832237181215 -0.00557204212084906 0.001503249195850127 1.210164693652728 -0.5799340592257727 -0.03828551233653892 -0.008399824177352933 0.5812571294626533
5478 7 -0.006745156895499182 0.005665205375093089 0.0004855612195396782 1.209743598573829 -3.979293545595816 -7.741866651175924 0.08861473002197351 8.705120845628009
5479 7 -0.001512908880840467 -0.009075821183028685 0.001549729524102381 1.210044067302283 -8.090099290802542 3.47306872041969 -0.8926232130986049 8.849219687202027
5480 7 -0.01023489488722851 -0.005801818754552365 0.002998793108283816 1.209699900507828 -1.606029313478799 4.797226653002835 -0.0543894801796372 5.059216533376307
5481 7 -0.003260704558562636 -0.005327776553044394 0.003485479829192984 1.209808037961452 -11.87143915703525 15.11453104374066 1.858616532985025 19.30892466576207
5482 7 2.487700793798764e-05 -0.004347291959419213 0.0004935670532922815 1.209940895708465 -8.58008618924687 6.43883887367573 0.3545886321797478 10.73323148702821
5483 7 0.005022572893991376 0.007062436958818072 0.003491391397098238 1.21013635182164 -1.474107119604502 -1.802683244396729 0.1919150366995058 2.336555169690793
5484 7 0.003161496208932824 0.0114052340533575 0.003493452892356301 1.210158091927247 1.245530448837364 -0.1652761185633157 -1.257358195900991 1.777529726093984
5485 7 0.01155727595177297 0.002185025413083459 0.00259594464238025 1.210169650178759 -0.4520075252968235 -0.05767147731855181 -0.006718279192208049 0.4557213375478125
5486 7 -0.002191259173692549 -0.009431553701020768 0.001070252327959589 1.210021210672571 -7.42530414980322 4.042628643119563 -0.7105805195973985 8.4842744379285
5487 7 0.008649801817101 0.006230581751895025 0.0005093927082647207 1.210160960863878 -1.172661568134347 -0.4594150427806305 -0.2389455373617715 1.281909632048039
5488 7 0.000981566366978456 0.0005643480967032653 0.00350876305567354 1.209921604055764 -16.56532482831616 -4.490581298745602 2.670727815974446 17.36974651902817
5489 7 -0.0001967738237280836 0.0105213869389385 0.0005031635976452445 1.210099449552336 -4.920759956497424 -1.810628325674458 -2.177231437809161 5.677375292949002
5490 7 0.004802731608352667 -0.007351470095502074 0.00356631428284276 1.210131137594494 -1.370184704502093 1.902806322208782 -0.1875169241796451 2.35228412848937
5491 7 0.0003555378206415284 0.01045961440828018 0.003503163597645245 1.21018311506599 -1.180555498167441 11.50735681921799 -7.284611211945679 13.6703523275101
5492 7 -0.00864836095556284 -0.002782853707388472 0.0004989113548807958 1.209619166895838 2.341336530622787 4.593394373500861 1.208513669579881 5.295435195496169
5493 7 -0.004998303266616808 -0.008387483554099899 0.0005141520114740618 1.209889119469009 -6.556586888349926 6.047375048890254 -0.04584164510009599 8.919735313497148
5494 7 -0.007568857270419832 -0.006416855553198 0.003501256810142374 1.209750248570607 -3.695152589036625 8.623644494763534 0.9706468153325865 9.432049208334568
5495 7 0.002937503757613316 0.009420981571493771 0.0004990620026701105 1.21013581216713 -1.477814907948477 -1.784037103217536 -1.314739009032497 2.663693666637238
5496 7 -0.006886934846839667 0.002750950684637789 0.003521097199412007 1.209484232757173 11.14687425289556 -30.94415315686449 14.4957834809196 35.94330478588543
5497 7 -0.001303878044938398 -0.001628448793313284 0.002502784684526874 1.209743838965731 -14.71972024305469 5.39613109875756 4.566380924277644 16.32912213238603
5498 7 0.005644174023038936 0.00143043969180091 0.002977127606311445 1.210113180755662 -2.637304554683253 0.3823260310982785 -0.4709756743853681 2.706171944661157
5499 7 0.002580605147533382 -0.009219076249098694 0.0005101311284948868 1.210119931545484 -2.601793386664625 2.267021533938662 -0.8914410685212099 3.564180500603135
5500 7 -0.009363027545381822 -0.004751707721911009 0.003490709893798895 1.209671725042494 1.306970653956048 6.875421119659808 0.444754460351412 7.012659580570619
5501 7 0.009522804984912767 0.004012550985411856 0.003491371635545751 1.210162277108829 -1.095680114993185 -0.2632936356919178 0.1459141407939905 1.13627874637828
5502 7 0.005836123843049826 -0.004954435564921055 0.003502082597227189 1.210125387239656 -2.679990840001338 1.105472958846067 -0.09664034800972653 2.900648327890576
5503 7 -0.002149770812166989 -0.0009101097342312917 0.003491356946797271 1.209533019745771 -35.21501706409018 13.07031060796831 12.61481723885265 39.62403387065211
5504 7 -0.01030586376042877 -0.005800574808406777 0.0009987931082838159 1.209703414643358 -1.620513089248746 4.852445634552241 0.8451769212758263 5.185230499888014
5505 7 0.0005527941084481914 0.00466171001790747 0.0004744222377414007 1.209980101850107 -7.150584772464399 -6.004574392503807 -0.6297345309031209 9.358543786440494
5506 7 -0.0001747675458072618 -0.002318187226220326 0.0004925712916927011 1.209871964481237 -10.92784330974995 5.565586030988174 0.8769266175742756 12.29481628831385
5507 7 -0.0001510689303151063 -0.01240422158644055 0.00298348353576331 1.210115041582795 -3.163277161987201 -0.8799851733327593 -1.899591848986411 3.793302716838046
5508 7 0.006801851737144744 0.008071777389198096 0.0004833808416850515 1.210154206404055 -0.9425736012078715 -0.627709078087793 -0.1656799244438915 1.144514533665491
5509 7 0.003717018782451954 -0.0008080396458898524 0.0004903823477501665 1.21005347794175 -7.225852877685833 0.1400247205909512 -0.6061508009847625 7.252584058518155
5510 7 0.007167261808687849 -0.00984634088345448 0.001491638793831973 1.210152065489864 -0.6805974025176869 0.1567775690270189 -0.06427513666867388 0.7013724571564103
5511 7 0.003717073392857596 -0.01167348168343942 0.003001397805193835 1.21014555530098 -0.7167439300846182 -0.4292944115067466 -0.4984244251528617 0.972852743560416
5512 7 -0.01014060682216112 -0.001738266661431332 0.003488482383418866 1.2095889157013 7.131550704256751 4.060045931523214 1.631235728657008 8.366834432203754
5513 7 0.002734663414507152 0.005142084664160928 0.0004882859329187122 1.21006716916339 -5.806074485481813 -2.859393467633407 -0.8224904919147062 6.524041886974485
5514 7 0.008215398919714515 -0.006495946093795651 0.003487171242344414 1.210154820113764 -1.13098700494663 0.368349699047923 0.08533367748223787 1.192516223226957
5515 7 -0.005658018403350886 -0.01043808734063125 0.0005059572285865033 1.209919132757584 -6.105627432542679 3.810329360398375 -0.4920600046921452 7.21383526481921
5516 7 0.01226206656160833 0.0006049660290890444 0.003112276209496001 1.210171044878213 -0.3022905564923283 0.007627037956341958 0.1142335873415503 0.3232445896366227
5517 7 0.005603988319707946 -0.00156565602319863 0.0004859628134167387 1.21010646423336 -4.378465913939566 0.2424381764017891 -0.2133044309731014 4.390357480795888
5518 7 -0.002135462958543905 -0.01003780113431632 0.0005720303182787963 1.210030966638736 -6.568768209784565 2.438733417773636 -1.497174134749767 7.165030835007335
5519 7 0.005628002824623735 -0.006560681379967246 0.0004824670615081595 1.210131343995621 -2.301668803772793 1.45264746441304 -0.2298148974040025 2.731424321703849
5520 7 -0.00190705624638807 -0.01037553951564857 0.003572030318278796 1.210065067398412 -8.032251626959173 -0.1070623563662837 -2.340379288855037 8.366953075202503
5521 7 0.00708270112855818 0.003628042751705756 0.003498888617263351 1.210139705329692 -2.16658341373423 -0.900396454631589 -0.005687261567097718 2.346237372715203
5522 7 0.00564030908574091 -0.008472707393154342 0.003076956543475807 1.210143947154175 -1.089550581355001 0.8574185832085888 -0.07111676004356328 1.388288402934181
5523 7 -0.006048364939528688 -0.004298318755586472 0.003488932541432266 1.209640429196054 0.06220349262593217 16.81859612950042 4.769646810121903 17.4819499980708
5524 7 -0.007803362157454051 -0.002288229532078876 0.001404867060783897 1.209579521189959 5.911030364238979 5.319728340121247 2.998513214085028 8.498874694610274
5525 7 0.004924410451942494 0.002393560819853565 0.0004968272278505997 1.210095508307301 -5.025171980092822 -1.020952858067861 -0.4070645600226275 5.143967313653283
5526 7 -0.0006852134164458481 0.001244401296569929 0.003472879509169025 1.209771501402802 -22.08788320035753 -2.992116567846412 6.269350065690491 23.15452647052819
5527 7 -0.001803533909747786 0.009486985853289496 0.0004867771605588453 1.21003649410057 -6.595092951325235 -3.828211136363787 -1.950527036049556 7.871150313617431
5528 7 -0.003889409477364077 -0.0009250735195507529 0.0004754939139332312 1.20959275683925 -8.616814483541013 3.303950657238567 8.8973830255335 12.81908758423473
5529 7 0.01226811167262432 -0.0006047510688758419 0.003112276209496207 1.210170804958396 -0.2959049406092336 -0.0901801846106831 0.1142335646951396 0.3297597714645157
5530 7 0.01184430607709336 -0.001700373611438301 0.0003070439262913835 1.210169585395898 -0.3190844225560502 -0.06974549654567477 -0.1165750789766356 0.3467982872575059
5531 7 0.001370060860752497 -7.274449011442103e-05 0.00350876305567354 1.209951860470593 -19.62820835780595 -0.2071778341052616 1.603711225722545 19.69470425489797
5532 7 0.002080126471979343 -0.002037920809439321 0.0004920538389088719 1.209993120925533 -9.300612995710031 1.148063995066245 -0.7955654830356735 9.404912411635506
5533 7 0.00990333490127897 0.003744834754844747 0.0004913716355457505 1.210164536198487 -1.022618159395836 -0.06832216661183592 -0.1124638573203462 1.031049920023291
5534 7 -0.001628246634893316 -0.0005690793442828514 0.000491356946797271 1.20973645907375 -14.35329042640893 0.789452601456555 4.697774230234127 15.12313671805689
5535 7 0.002353661765960781 0.005135166530437743 0.003488285932918712 1.210064283405037 -5.84789408618543 -4.981757608327277 -0.5127479054947326 7.699265193897302
5536 7 0.0001696399989899486 -0.01050750771224732 0.0004909654977707615 1.210098986811392 -3.944825627364193 1.229871638354789 -2.074513604974804 4.623617650105202
5537 7 0.001509825249137843 0.001888372651826572 0.0004908037206239333 1.209968983213705 -10.31668468661079 -2.146629206797262 -0.3250231999868863 10.54265810670887
5538 7 -0.005385980635891734 -0.008789019662027966 0.003514152011474062 1.209890594620695 -6.868782989292395 5.693188072381069 -0.2112317231130639 8.923967112352216
5539 7 0.003545682813753979 -0.003792537003017106 0.0004819969320133665 1.210065658384638 -5.289489028248771 2.564631991218524 -0.4724417257850463 5.897392018054114
5540 7 0.008528495830598748 0.008699175968081214 0.001500127895617428 1.210161963321978 -0.6151767264156798 -0.18564427234795 -0.05078980893974663 0.6445818840700133
5541 7 -0.00337348583340786 -0.0005594358620552118 0.003475493913933231 1.209365010714651 -20.23790679392593 6.866799012306187 24.30796715340158 32.36669688438863
5542 7 -0.01083048835446514 -0.005588068674409733 0.002475611064857778 1.209691985078088 -0.8037396636831401 4.067662820973893 0.4540021638459357 4.171090533288335
5543 7 -0.005463733427135989 -0.0110566656323904 0.0009984338772510253 1.209937133713651 -5.562834058508112 3.150754327885144 -0.09980278603072867 6.393929636247516
5544 7 0.007329413980094372 -0.006899747350303739 0.003487171242344414 1.210150006634669 -1.222617404412648 0.306559306683163 0.09050198304139083 1.263709830230503
5545 7 0.01010049435584599 -0.0008610365751401911 0.00350032416646345 1.210163042640024 -1.098043320431594 -0.04539371718633315 0.1496986528698279 1.109130023836464
5546 7 0.007167261808687849 -0.009846340883454478 0.002491638793831973 1.210152474166419 -0.6810946613168641 0.1577030472888317 -0.0896719824374583 0.7048412964865077
5547 7 0.001420375849605463 0.01185432110275415 0.003510920252056628 1.210153574262024 -1.291448424458087 1.255869473486245 -1.561255529732872 2.383813330903106
5548 7 0.002011628717963984 0.01213065043243862 0.003004373144412929 1.210152076842972 -1.475780060389899 1.243142507148546 -1.468836233376809 2.425038135824788
5549 7 -0.004034583919488902 -0.002643264197861808 0.003483376219661647 1.209471484985325 -18.96898963790692 35.10772027843468 11.97292401609258 41.66203908268245
5550 7 -0.005750686024994444 0.004830796882115688 0.00049515430380515 1.209721282411871 -2.99554779077698 -9.001604852293044 1.68926373596785 9.636171877530545
5551 7 -0.003330951376275557 -0.006978961941268806 0.0004873381078840642 1.209896440697501 -7.967210918589164 7.493448275947482 -0.7237528862143723 10.96138837583498
5552 7 -0.00351030822546866 0.009917617094277771 0.003488743033681845 1.209997244973821 -8.735968037212002 -3.71750744031598 -1.048181957166459 9.551737252004145
5553 7 -0.005301779108320029 0.0008312477618520525 0.0004707836003004895 1.20954776506148 -3.483158244743928 -3.702786468480721 9.187831798116054 10.50044152117253
5554 7 -0.002441596215750397 -0.008176936244550449 0.0004982220096807925 1.20997499366304 -6.824221647043886 6.197104163580414 -0.8775327405699528 9.259814512884169
5555 7 -0.002157601925735207 0.00332065257170633 0.0004680799906554873 1.209785727218561 -12.70701294135084 -7.707995408806389 1.956463963369076 14.99030094273627
5556 7 0.001637341894910168 -0.001893942403821437 0.003492053838908872 1.209979427535878 -15.5798216809578 0.5317362648368434 -1.971946288612127 15.71312060766277
5557 7 0.005557608422844381 -0.007729525467179581 0.002559423604983966 1.210139339242547 -1.04550864662439 1.074750445835694 -0.1842940992848916 1.510675731592196
5558 7 -0.001456285819504918 -0.002589803249952245 0.003518856446036902 1.209758270080367 -14.92843827881322 10.1352389558717 1.768364525070372 18.13031856395476
5559 7 0.003782531000717356 0.002255877886594814 0.001362493481752797 1.210065554973298 -5.161797385689522 -1.331688588721633 -0.3024001565555949 5.339381294019696
5560 7 0.002330741508107554 -0.0102869209147902 0.003510131128494887 1.210153326387802 1.700017636309036 -4.369706066048205 -3.076350000309992 5.607880204839216
5561 7 -0.00759354457768667 0.0009065064453856994 0.003474762207754114 1.209388789142748 24.52593116482518 -10.47604891993753 17.9664051370373 32.15681287103601
5562 7 0.01175230389193088 -0.001752960762571271 0.003612276209496207 1.21016909473599 -0.3466078836672754 -0.1255094076039188 0.0792346263418362 0.3770514055522463
5563 7 0.006047592733378503 -0.008493075492691304 0.0005106422606330468 1.210144571724896 -1.386506607605946 0.8840599448054847 -0.1239090958891074 1.649034876219567
5564 7 -0.001525408817372803 -0.01180753607473802 0.000476705828178019 1.210063189258373 -5.419946506272296 1.401784732309357 -0.5528472490801659 5.625518700298168
5565 7 0.007829641102888134 -0.006320014355417179 0.0004871712423444145 1.210151553742474 -1.377450707584579 0.2520548876779396 -0.2192890219410056 1.417388370691476
5566 7 0.003736132556996653 0.008117569654312784 0.003486350428952624 1.210140732678348 0.3626938261377076 -2.741232737925012 -0.5317269789807239 2.815783605884202
5567 7 0.007124125044878382 -0.003622497813007654 0.003535793001244682 1.210137988188822 -1.919060740391229 0.6071626026580229 0.08806025806286166 2.014744440475639
5568 7 0.01174728537724484 0.001752160027803456 0.003612276209496001 1.210169898837647 -0.3281809267332096 0.01215121994434961 0.09009934084208358 0.3405411341347506
5569 7 -0.006654717015154543 0.007598326889888925 0.000499395166421551 1.209819712903044 -4.953741805699685 -6.349075609820214 -0.03086319251181894 8.053028716787411
5570 7 0.005558660802475418 -0.006588083272404883 0.00348246706150816 1.210131976581671 -2.305244503638124 1.036017161761943 0.05788978986505872 2.528010088743649
5571 7 -0.01083048835446514 -0.005588068674409733 0.001475611064857778 1.209694045613771 -0.8014740161471036 4.059460449838728 0.3225432492696532 4.150375150515099
5572 7 -0.009683998819417618 -0.004755718899490152 0.0004907098937988948 1.209681847193874 0.5590190892896129 5.671168456846257 0.3698540428968373 5.710643223067369
5573 7 0.002420546968028961 0.01012676591901422 0.00349906200267011 1.210163131442046 2.413314412285449 2.285566327121813 -4.156272581278677 5.321888918241969
5574 7 0.00211554880966725 0.009219173502726217 0.0004990620026701105 1.210125437154331 -2.37072323537924 -1.948134442365244 -1.500219590865692 3.415584179187211
5575 7 0.003185037111115734 -0.009752774454247892 0.0005101311284948868 1.210131445418993 -1.313123935946672 1.207886687769207 -0.9208224099670664 2.007784508443001
5576 7 -0.0007665353016753559 0.001551545879642076 0.0004728795091690252 1.209825418343908 -12.12694426283683 -4.003228969596218 0.8094775456280667 12.79624449726721
5577 7 0.005991142885864905 -0.001092003360402793 0.003485962813416739 1.210118746503742 -2.602053133787288 -0.09520129459880496 -0.2701748816551372 2.61777353188218
5578 7 0.009457434806788194 -0.004946236353154488 0.00348784370886865 1.210160300590543 -1.051134665355852 0.1673454986681034 0.08492718920683029 1.06775522855372
5579 7 -0.003673420256129915 0.009918955603465122 0.000488743033681845 1.20997690988517 -6.358945437893557 -4.097624788650532 -0.5144394836025616 7.582305979908742
5580 7 -0.0004922953317413414 0.001938696101656756 0.003472879509169025 1.209814917332788 -22.32939724312384 -8.167483907213601 6.400222197885537 24.62260381840487
5581 7 -0.002718714644851895 -0.005590626427409985 0.0004854798291929843 1.209860450823386 -7.84853578420669 7.792615598484232 1.436596535369599 11.15294496656146
5582 7 -0.009355358837160212 0.004634548116138308 0.003509300095723848 1.209664736546301 2.868802809588368 -7.79526812739061 1.448191172951282 8.431695702029813
5583 7 0.008442232899564136 -0.001914662974218175 0.003507593389649586 1.210148974575736 -1.867168665041 0.08023370856671559 0.1530552586836666 1.875148576489896
5584 7 0.005845889358339849 -0.004223192074227544 0.003502082597227189 1.210123203582393 -2.602851079970282 0.2529245411273579 -0.2528368132454396 2.627304897064491
5585 7 0.002374033919229402 -0.001884039946513361 0.003492053838908872 1.210023711501039 -7.036759013067152 0.5317557252027092 -1.794495799223452 7.281411726629546
5586 7 -0.002067530429114397 -0.0121645998929418 0.0009840074329032114 1.21005279592885 -5.024784916564317 1.493466220279963 -0.7523042578171775 5.295740411423075
5587 7 0.002827840901226244 -0.007843568335105661 0.000493387427409996 1.210107411857599 -2.648857092734815 2.11947866641158 -0.9725397594423673 3.529088734900493
5588 7 -0.006153772853376332 -0.004284410605296477 0.000488932541432266 1.209687689582938 -1.933679963139703 9.95787847554846 1.537314042931384 10.25971716960235
5589 7 0.01024615796306083 -0.002977555589701563 0.0004831399512307885 1.210164050271427 -0.8928189796073657 0.08974408062816712 -0.1099950755121408 0.9040346492208439
5590 7 0.01003592206945804 -0.001002508859083651 0.0005003241664634497 1.210162909755255 -1.076660173158197 0.03675305225014362 -0.1284540950098957 1.084918600559301
5591 7 0.004706778410721958 0.01119960643568957 0.0005232941851311605 1.210151130860579 -0.7405149674395555 -0.3647880579916392 -0.4770487405909858 0.953419238926278
5592 7 0.008514777895624274 0.006514780961820781 0.003509392708264721 1.210160940340711 -1.102221916024636 -0.3646916215123582 0.2216777820939317 1.1819620002523
5593 7 0.00467879437496039 0.008636012497497047 0.0004863504289526245 1.210142168491471 -1.369502646063668 -1.337992170177391 -0.5473700262103073 1.991324807916796
5594 7 0.00551644966833472 0.006736098693036879 0.003491391397098238 1.210138553724193 -2.272494337052013 -1.207418005518651 0.07774016605768087 2.574515932248775
5595 7 -0.0103566758803283 0.006365864581272805 0.000492683700686266 1.2097196510941 -1.602094721466832 -4.532839129265639 0.502039029119984 4.833775052183676
5596 7 0.01217298218140122 -0.002186538534408145 0.0007769363962050724 1.210170053544753 -0.2832954040610396 -0.1440327221787328 -0.07062330497790818 0.3255600746810431
5597 7 0.006276853519942385 0.0005782627854892117 0.0004803003784608457 1.210119460689341 -3.207324739753413 -0.1414484661631014 -0.292551135314417 3.223744068872086
5598 7 -0.007804785768455851 -0.006346527561912121 0.000501256810142374 1.209753022562454 -3.65103392745555 6.319491704895999 0.3263840734307644 7.305651970294649
5599 7 -0.005750079933957486 0.003299489396469889 0.003521097199412007 1.209514518720663 8.739209625770812 -34.55916514579065 15.21513281683308 38.75835325566693
5600 7 -0.001060021398448766 -0.01013548717766001 0.003572030318278796 1.210135445978574 -13.85351089660999 -10.86658573204111 -6.179250936345753 18.6597318246705
5601 7 -0.009092094192032565 -0.005034336906382848 0.0004907098937988948 1.209692621410843 -1.770116241677842 6.356983370205587 0.4038258405267541 6.611174206417435
5602 7 0.002792191884497366 -0.01180561350653348 0.0004940427602505031 1.210131967950933 -1.420482078016183 0.07368621068752013 -0.6356292451221153 1.557954918752519
5603 7 0.0003696119093778784 -0.006371608563390161 0.000484699105247369 1.210018951524952 -6.11115736015442 6.247799590190882 -0.9312636574836373 8.789112355608426
5604 7 -0.0004357322138965887 -0.008621686813999805 0.0004794771961427927 1.210060661278594 -4.872408197210364 3.841419923750973 -3.059789984566021 6.918033204638744
5605 7 0.007447662005464734 0.007601534789368336 0.0004833808416850515 1.210156457660477 -1.209106920385652 -0.4845774939413713 -0.1594944217013453 1.312323650290896
5606 7 0.01044832976397737 0.001734351151128783 0.00351419864220469 1.210165760941877 -1.145157251293031 -0.1039017909797662 0.1334426824644815 1.157578361002454
5607 7 0.001488958966173351 0.001859188166558459 0.003490803720623934 1.209975229894825 -15.30437046034314 -0.9153933129194145 -0.6858229277598077 15.34705356715101
5608 7 0.0009968484687107916 -0.0007191673151449693 0.00350876305567354 1.209920949257532 -17.12673673328399 4.476511362501963 2.470198621196571 17.87361592789746
5609 7 -0.0002084998396075677 -0.00404893891587706 0.003493567053292282 1.209913180364156 -10.21656762885105 6.70521680999641 0.4916827551363959 12.23028775277361
5610 7 -0.01177210483609465 0.002818062831810456 0.0004926837006863033 1.209637741029106 0.7627312472799325 -2.955491478654084 0.3940143040981562 3.077651069859619
5611 7 -0.009222577563294821 0.004479295845386417 0.0005093000957238485 1.209675322825008 0.2521135199323267 -6.294242580106807 0.5934138836307925 6.327178748972408
5612 7 0.005430752468232639 0.00667237896586846 0.0004913913970982377 1.210135043277226 -2.08423127620078 -1.580970098746555 -0.3033719378012591 2.633537734392563
5613 7 0.003066693182894194 0.003159856632536719 0.000448376604785651 1.210048533984941 -6.918053104278312 -2.061163964901669 -0.599803955811918 7.243453625808036
5614 7 -0.01217819851329357 -0.0009575694459667744 0.003492734041975967 1.209609458834103 2.427057864995219 1.228941606076823 0.3336967181348965 2.740850388269275
5615 7 -0.006581817562729048 -0.002268006669433313 0.0004698015616810932 1.209584403841025 -0.7757590453036836 6.941122886161474 6.567424107641343 9.587077157653097
5616 7 -0.00325491766499402 -0.004914503197722852 0.0004854798291929843 1.209806313902585 -8.928757108443302 9.154811715547583 1.165997309020389 12.84106034458786
5617 7 0.01024271090227136 0.001778912707000248 0.00051419864220469 1.210164915418021 -1.209673067234555 -0.1241446296378414 -0.07204051204138041 1.218158714632768
5618 7 0.005081764252921345 -0.008573736617342499 0.00356631428284276 1.210142354049243 -0.6789278049814115 0.8375206088488055 -0.4211176832846638 1.157464400229395
5619 7 0.0009032151850559089 0.012185686787013 0.000510920252056628 1.210123200553256 -2.910657674431461 0.3272126962268121 -1.155058675938486 3.14851660169667
5620 7 0.0028297701077919 0.01183311049473571 0.0004934528923563015 1.21014300471592 -1.235786268296216 -0.1540942442060393 -0.7365534837636687 1.44686688104031
5621 7 -0.006376262224538146 -0.01041927946426209 0.0005059572285865033 1.209898565240886 -4.80995271423505 3.730258166876379 0.08427388380373672 6.087493178001632
5622 7 0.008434303993396152 -0.002110726804004423 0.0005075933896495858 1.210149773775645 -1.745767164936288 0.2922141058650769 -0.07082626622520904 1.771470699115178
5623 7 -0.005538775880047305 -0.006434243552895294 0.003561983297215411 1.209792030853267 -4.534039602401331 10.94167709914352 1.392083150598883 11.92542277473829
5624 7 -0.003978500132085351 0.002477855289735283 0.003494510583437191 1.209462990331351 -23.33932411878967 -34.85579581472591 17.14934633055107 45.3183255622377
5625 7 0.007562069440155429 0.003798220313662993 0.0004988886172633515 1.210145219435793 -1.984165265012892 -0.4475850829638596 -0.09758288998179072 2.036361123620426
5626 7 0.005617622967358218 0.002042486481313306 0.0034968272278506 1.210114565455978 -2.469831015162129 -0.4376566505666633 -0.9511843089557945 2.682603246260195
5627 7 -0.01214781868834218 0.001028353948704518 0.003505185050544924 1.209608851441425 2.031335264547214 -0.7787407628841666 0.5774826476982448 2.250832366295431
5628 7 -0.01044569251089805 0.006389905623751812 0.003492683700686266 1.209714001806723 -1.474549311580602 -4.671115674318081 0.1378957341737859 4.900268620049948
5629 7 -0.01051077250109452 8.94522275766226e-05 0.0005021972764069947 1.209604266824441 2.521685545260425 -0.008261925866189693 1.008417905449883 2.715855835759018
5630 7 0.008574999228004429 0.0007856346332817244 0.000474896871125994 1.210151079750685 -2.06963182452039 -0.201465111247551 -0.01185574691208238 2.079448157288955
5631 7 0.007733679780436823 0.004015090900838711 0.003498888617263351 1.210147952511604 -1.682448727377645 -0.5712817199628486 0.003625913914171314 1.776797588660588
5632 7 -0.01038247773280416 -0.001806773508582376 0.0004884823834188663 1.209616747556221 2.373579012547157 2.492680111588763 0.6726544126524407 3.507106417885734
5633 7 0.003099668405520138 -0.009645131510221797 0.003510131128494887 1.210145337274394 1.68835444160372 -0.2192425194731454 -1.694969244163995 2.402400620523106
5634 7 0.002552242250274245 -0.009857586032012051 0.003510131128494887 1.210153506620118 4.378541741728616 0.8369098529635675 -1.999451475255607 4.885678262836101
5635 7 0.01207553305028076 -0.002264590674511413 0.003082168679409896 1.210169576630821 -0.3478259728831917 -0.1220673680792674 0.08016522789545306 0.3772397295162164
5636 7 0.01207663262562908 0.002263266007404614 0.00308174600017556 1.210170704363604 -0.3306683753243936 0.005092177778766026 0.09200823881172977 0.3432681469688688
5637 7 -0.008787795919834872 -0.0007629242206566996 0.0004361541442220083 1.209580946451456 4.304582304869932 1.295371501888769 1.597619105614973 4.770723525203581
5638 7 -0.007947363958688693 -0.009277996832440124 0.0004926449535114375 1.20983435054356 -4.41686835728343 4.330856870284527 -0.0993427215272901 6.186672473372319
5639 7 0.00101227745325419 -0.007452534459677759 0.003687459334259444 1.210119001780991 -1.948574412532817 19.42295856016402 -9.291586699501847 21.61901581629899
5640 7 -0.004399880233395263 0.007885317143006205 0.000496703183449469 1.209896702510237 -6.237662371476626 -6.318939214393174 -0.3546178584773098 8.886122803635017
5641 7 0.002109644165219925 -0.004097873084549464 0.003543865021362802 1.210030794725974 -5.757836811016884 2.131795080625836 -1.110057002377539 6.239347847059739
5642 7 0.009363897506415296 -0.005095562302199971 0.0004878437088686505 1.210159635864667 -1.1397015274567 0.02375647303420786 -0.1210877367206374 1.146362151190577
5643 7 -0.009330786521627452 -0.007955351414040858 0.0005109202168714585 1.209772514346485 -3.089010335785498 4.49960602881291 0.1693323219092478 5.460504803071077
5644 7 -0.008675163341947543 0.002290638765554871 0.003497685331042665 1.209548263208981 11.48203128980436 -6.462900927024785 5.303482428090413 14.20327626984873
5645 7 -0.01132776713326292 -0.004670494785642324 0.003476817956573962 1.209666332156642 -0.1171582837468384 4.29272182870077 0.414419823586395 4.314270570123758
5646 7 -0.002919910128043358 0.01188502836775462 0.003476356924189834 1.210045435679716 -6.743604474256879 -1.095877722905062 -1.305512576515374 6.95568202092482
5647 7 0.004344582231913275 0.002042486481313306 0.0034968272278506 1.210090935259178 -4.504176168730495 -0.3877863598080673 -0.8459429283026756 4.599304366723104
5648 7 -0.002865394023048529 0.01185085252172102 0.0004763569241898338 1.210030248994937 -5.339013723777357 -1.823506430689607 -0.4525357405622736 5.659949809135727
5649 7 -0.007506190613901032 0.0005630855838845674 0.0004747622077541135 1.209547257246148 3.059093716186426 -1.36686908743592 6.242920732120352 7.085227218243413
5650 7 0.00299906605333325 -0.01187593668358529 0.003494042760250503 1.210145029368718 -0.2458621272400417 -0.1843108510253818 -0.7544958674956358 0.8146672262247272
5651 7 0.007953320555176295 -0.00930278894581181 0.0004919167852555493 1.210154386068355 -0.6070830364699858 0.06559694974112965 -0.06488342785738042 0.6140542583481384
5652 7 0.006351238156418227 -0.01045210161078426 0.0004890797479433767 1.210148927996195 -0.7544164583385577 0.1275147893038968 -0.1039045678706401 0.7721401254485448
5653 7 -0.007650191291282705 0.005606169147760689 0.0004855612195396782 1.209727133068141 -1.972233294193772 -7.477529869575436 0.3924197436655175 7.74320026683656
5654 7 -0.005896182169427975 -0.005913675327715882 0.003561983297215411 1.209754448085532 -4.099982927347531 10.36460047773998 1.391102873388212 11.23254068641899
5655 7 0.004981102599635746 0.002405966113590834 0.0034968272278506 1.210104279193106 -3.531138486623103 0.1620705892423642 -0.5646996517458559 3.579677581052539
5656 7 -0.01044573154991846 -0.006389842059564357 0.003508083214484921 1.209713498480392 -1.609632171987246 4.933067490430447 -0.113865299792505 5.190282834367985
5657 7 -0.00796712445117285 -0.009347690953550543 0.003492644953511438 1.20983462682449 -4.135400742329618 4.105808328359809 0.1965852136863612 5.830767280138115
5658 7 0.005641800631114273 0.004511427421970884 0.0004734991151981682 1.210122522567397 -2.595921443818051 -1.195895441071039 -0.1494425774191702 2.862045969650833
5659 7 0.01194373490541361 -0.002859343192280897 0.003469892469913689 1.210168998067454 -0.3799093327907453 -0.03139506544399324 0.04303845714204638 0.3836261983609953
5660 7 -0.002831470787161191 -0.002751012071778163 0.003518856446036902 1.209598746540502 -15.24474405993372 34.00692341574393 12.87574053112628 39.42914855639221
5661 7 0.0119448344807619 0.002858018525174336 0.00346946979067956 1.210170205181605 -0.3210976571363529 0.03225460687697803 0.1031103063859898 0.338785773559422
5662 7 -0.007962330451755947 0.009351778208146873 0.003492083020370654 1.209836646746671 -4.114261668383205 -4.328832856168082 0.06160973586843994 5.972414815811226
5663 7 -0.01130751915122061 0.004683727789229017 0.0005236430758101707 1.209674552275905 -0.5210426640463937 -4.001318507932118 0.3517618415639668 4.050403887621226
5664 7 0.009364210443216781 -0.007935702513415802 0.0005231820434260428 1.210159044575998 -0.4828615256284214 -0.0862638401219443 -0.06581794823455225 0.4949027231230368
5665 7 0.003363448313571893 0.001152575078722931 0.0004172896491165465 1.210042976248075 -7.296219013817649 -0.9198874115709142 -0.5726508981252533 7.376241170046196
5666 7 0.007785888803599292 -0.004002855334539158 0.003535793001244682 1.210145695955532 -1.814310475591156 0.5349365428504892 0.1000928999690935 1.894174805909123
5667 7 0.00193613956849011 0.009338100783719973 0.00349906200267011 1.210176255521222 8.526017103454238 2.358672851440585 -2.79276182343732 9.276627828632881
5668 7 0.006437580347869872 0.01036907136279001 0.0004913511061056695 1.210156269530969 -0.5820267481499998 -0.1731666620645262 -0.3399427464347502 0.6959187447297521
5669 7 -0.004712507551160771 -0.0113760046891177 0.003492476648664522 1.209968995844814 -5.980532051802407 2.910122995299401 -0.3872826307255112 6.662249417911936
5670 7 0.0104946574328197 0.006396958560909435 0.0005109202168714735 1.210167061882949 -0.4085251082705711 -0.0286570973008792 -0.07836444821821166 0.4169592067070095
5671 7 0.006355085737735015 -0.008635801855761753 0.003510642260633047 1.210148467530049 -0.8196557559020329 0.8443437110366269 -0.01572015830694064 1.176859797906119
5672 7 -0.002211298567468381 -0.002277010592621809 0.003518856446036902 1.209628636089002 -36.78972351971868 20.95379779006866 6.563593020125214 42.84420791446919
5673 7 -0.009321871416745266 0.007968473009015931 0.003505185050544919 1.209772765760582 -3.313927088616758 -5.178917366960071 0.2663081141257403 6.154203267208339
5674 7 0.009372482364662536 0.008008566661223203 0.003493452882110407 1.210164591070524 -0.4831899154976483 -0.07438651204918871 -0.01138007936762142 0.4890146764872011
5675 7 -0.009321672724157086 -0.007968705757729098 0.003510920216871459 1.209771713247445 -3.070827476510523 4.932470504707513 -0.1004283447042441 5.811138659739726
5676 7 0.01130754970681478 -0.004683654018875465 0.0005240254569820352 1.210166662499338 -0.5060265951849111 -0.08809871748849839 -0.001596436902867051 0.5136407768745945
5677 7 0.006041911545977347 0.0008321100980357675 0.003480300378460846 1.210120313562065 -2.548761953614318 -0.05126185934753062 -0.2823356516237114 2.564864264360481
5678 7 -0.004184592422900259 -0.00710526554983291 0.0004873381078840642 1.209870532191785 -5.537262920724331 7.53012800278298 -0.3350720660605813 9.352880929477239
5679 7 0.002743304398208824 0.01198506955914725 0.003493452892356301 1.210158031238921 0.3167006688145184 1.366892717010234 -0.613888922112349 1.531520362951614
5680 7 0.004688373358791546 -0.01133626613527986 0.0005073550449433327 1.210143006352696 -0.869478635332803 0.1219269087106101 -0.3895866161011077 0.9605399522211613
5681 7 -0.008872070527222883 0.002390147555791642 0.0004976853310426649 1.209609828443778 1.746722160568687 -5.587150131584956 1.615909598449244 6.072762857995685
5682 7 0.005862302763290747 -0.001842063943155717 0.003485962813416739 1.210118022737332 -2.460598446660463 0.5941941118831732 -0.3302465945827853 2.552777736415382
5683 7 -0.006427624445071492 -0.01048722075702259 0.003505957228586504 1.209899295498262 -5.463797555161981 3.881739354072665 -0.1180877992085562 6.703352061847298
5684 7 0.000938800338606096 -0.01227070838664401 0.0005067777075852905 1.210114708763468 -2.295511611798735 -0.1035142546603708 -1.025603661489307 2.516336947088166
5685 7 -0.006429969353921604 0.01048341800478447 0.003510761436187152 1.209903640225655 -5.564393188066155 -3.980963912437416 0.1155245517970269 6.842798487869853
5686 7 0.001494752367328209 -0.004031807627920351 0.003543865021362802 1.21000494673356 -9.773780008715896 2.833651436310432 -0.8857474556230044 10.21473957947149
5687 7 -0.0122364572343528 0.0009484568871560945 0.0005051850505449243 1.209621048273972 1.305810517579227 -0.7110550397263272 0.6713826277388389 1.631408903423739
5688 7 -0.004719022404207738 0.01132967232585139 0.003508054319028943 1.209973624719398 -6.181248955207742 -3.379284055633953 -0.50362540865612 7.062650913584976
5689 7 -0.001494567616758281 -0.01006011789299744 0.003572030318278796 1.21010144671997 -19.99279060498812 -9.343530847675801 -5.595887393739725 22.76680040321401
5690 7 -0.001587676148908032 -0.0004077284055044998 0.003491356946797271 1.209619678768008 -42.40056005207807 6.173729779293332 11.43332483312132 44.34685275030553
5691 7 0.003918583602644264 0.008415345897469314 0.0004863504289526245 1.210134008002143 -1.860223092299629 -1.417803880446058 -0.6914936364981744 2.439008250467834
5692 7 0.009344978329709559 0.007967193745355493 0.0004934528821104065 1.210164162480554 -0.5214607124988928 -0.04270529612082535 -0.02987356852463086 0.5240586294423709
5693 7 -0.0009884445719398629 0.01228240293867296 0.0005080616479767973 1.210085909988313 -4.213672325835304 -0.420464059918618 -1.341578360934008 4.442032979810024
5694 7 -0.0009452712741162961 -0.01220625356158814 0.000476705828178019 1.21007982497824 -4.354208338156075 0.6208541780470443 -1.154083589265975 4.547141859836726
5695 7 0.004552581270001781 0.01133788409542581 0.003523294185131161 1.210157238747078 -0.09550518233861131 0.02641387321639443 -0.0809186275246213 0.1279326261447468
5696 7 -0.01198995685153134 0.002925408691150916 0.003492683700686303 1.209629398171831 1.10649926203634 -2.958627513305555 0.8904064236150084 3.281865472348074
5697 7 0.004621714653901397 -0.008038164430088916 0.00356631428284276 1.210136358159005 -1.38299342434412 1.725866482712715 -0.1154051166208561 2.214634116253181
5698 7 -0.01051670042311873 -0.00638859811341877 0.000508083214484921 1.209717644863629 -1.601936664072564 4.302678516954651 0.6110716398370892 4.631700772391952
5699 7 -0.0009051771069665043 0.007853442905005224 0.003684724317412645 1.210106285370988 -16.40817186552833 -19.00870068153943 -7.262766358745941 26.14013352587941
5700 7 0.008043667261627009 0.009345002363710372 0.0005232941718219705 1.210160602507935 -0.6064901391556302 -0.002885325657368281 -0.106878916450692 0.6158422823896057
5701 7 -0.01033714488219573 9.850951517386016e-05 0.003502197276406995 1.209574305666092 10.09485276816375 -0.8250297340620186 2.069254878170952 10.33772422846654
5702 7 -0.009364688835622317 0.008021802961783814 0.0005051850505449193 1.209775736159076 -3.027624630753832 -4.417794171903235 -0.03755296340256165 5.355821736681476
5703 7 -0.01190100258663528 -0.002857172166955984 0.003524719052284401 1.209631053971123 0.7967299834717433 2.902109236401829 0.1732752593797184 3.014471927566219
5704 7 -0.007984906843002515 0.009338436213642349 0.000492083020370654 1.209836096024699 -4.429076252890791 -4.422115313720273 -0.06318192565501397 6.259058416206862
5705 7 0.01140383508317309 0.004733446067549713 0.0005077384188985893 1.21016910541701 -0.3001266120380831 0.0547695603408405 -0.05096839438587682 0.3093112756102844
5706 7 0.01201853801629594 0.001836867839169031 0.001915494833196881 1.210170681961674 -0.4574636618125273 -0.0444773841037065 0.02734697276954908 0.4604335961843938
5707 7 -0.006431043952074792 0.01049442999968768 0.0005107614361871515 1.209902568332966 -5.013737890399063 -3.875313454677309 -0.2169455729521799 6.340558917575782
5708 7 0.003961548806532219 -0.0008887387098265619 0.003490382347750167 1.210077845470398 -4.544040008724956 -0.4653975331761178 -1.402730643631253 4.778341524353577
5709 7 -0.00291333200031588 -0.01194372930666018 0.003507301604725193 1.210037025710737 -6.316978868824079 1.632427934157513 -0.5426345787125748 6.547021863061272
5710 7 0.006430579198918056 -0.01049296799969391 0.003489079747943377 1.210151693389645 -0.4728332099383991 0.04012471965879427 -0.142370363803146 0.4954296701225989
5711 7 -0.01134521580586882 0.004673036291102395 0.003523643075810171 1.209665761825164 -0.5893197535920675 -4.703796067501172 0.6581274059837664 4.786034569361177
5712 7 0.006384887742454342 0.0104829349316874 0.00349135110610567 1.210158670377925 -0.3603791739247321 -0.166945302274943 0.06174174034185067 0.4019402013369462
5713 7 0.001381424833104066 -0.007706912540223639 0.003687459334259444 1.210129200236213 10.47036755668802 11.41149919780061 -5.40762829325852 16.40406518127745
5714 7 0.01046451897792292 0.00646245858689019 0.003510920216871474 1.210167115235144 -0.3891988787161042 -0.03332676989146933 0.07211191313661061 0.397223575334463
5715 7 -0.01224897143121778 -0.0009622190918989036 0.000492734041975967 1.209621784125893 1.410828978362739 0.9440882544249014 0.8182356696222934 1.884476226799731
5716 7 -0.004732227225475064 0.01140864395691339 0.0005080543190289428 1.209968675540651 -5.47422146274148 -2.859997372765122 -0.312260478519756 6.184188887947089
5717 7 -0.01195407348463623 -0.002892455004102912 0.0005247190522844008 1.209639599709133 0.4932918042019009 2.458341056591089 0.6800304198491064 2.59792588934602
5718 7 0.0008965298647875691 0.01228693024890312 0.003510920252056628 1.210145301767226 -1.929340109602129 1.935374653674117 -1.198117291568105 2.983875559228008
5719 7 -0.0002618218304647293 -0.002016284919278733 0.003492571291692701 1.209833639705955 -19.22169100349842 7.59642842311159 1.452022853360781 20.71925433475133
5720 7 -0.0008971154582284725 -0.01237493996485532 0.003476705828178019 1.210102827352445 -5.07943607512048 -1.929090051489312 -1.006583077740577 5.525872669577546
5721 7 0.01047926321782382 -0.006450295773187329 0.003491380029999441 1.210163471007536 -0.51842716333766 -0.1863722394349187 0.04272879745560026 0.5525641007614602
5722 7 0.001337014589102714 -0.008202461953448755 0.003687459334259444 1.210158321929629 10.3226932381457 8.814853822461275 -6.152532914618602 14.90346620305774
5723 7 0.01136938430301669 0.004709166750378062 0.003507738418898589 1.210168895907801 -0.3146776604921188 0.01351650554577133 0.06606474884151471 0.3218218093517816
5724 7 0.01190481762498486 0.002872004415677751 0.0004694697906795598 1.210170313103899 -0.3442732762574472 0.0258792243622694 -0.08489485632423305 0.3555291262737013
5725 7 -0.006153016898701812 0.002696736820267867 0.003521097199412007 1.209432020436597 11.15179886480026 -30.94285374449281 14.49705171354845 35.94422518512996
5726 7 0.008004325777178909 -0.009424147623673995 0.003491916785255549 1.21015539888836 -0.4648527470843866 0.1103751116630653 -0.0191277416903909 0.4781596095956967
5727 7 0.004774069582402071 -0.01140817862846801 0.003507355044943333 1.210148593617363 -0.2819328694190593 0.05298468020400971 -0.207948992468909 0.3543110253210022
5728 7 -0.008334891373145518 -0.001436945085600312 0.0004361541442220083 1.209582834813087 2.042985374252992 3.933049059427037 2.258561871505875 4.974310592503413
5729 7 0.01219072572123473 0.001023546266202977 0.0003195501908166308 1.210170821450854 -0.3538755642255503 -0.01132001369293585 -0.09033888929924022 0.3654000172219211
5730 7 0.008006946279725688 0.009312548953633249 0.00352329417182197 1.210161385117413 -0.5351149926959433 -0.0977930526827045 -0.01260248950034192 0.5441234779924387
5731 7 0.003918129555428457 -0.008198897982013283 0.00356631428284276 1.210134632558534 0.2558556799219013 1.777986032603669 0.2682712776704417 1.816222987274681
5732 7 0.0008938358235512802 -0.0123047070102126 0.003506777707585291 1.210134380213136 -1.657935558036565 -1.495965974672867 -1.150763231547126 2.512154558752654
5733 7 -0.000903992351570857 0.01236733780835596 0.003508061647976797 1.210111876481353 -4.773942238009206 1.636521631132954 -1.223092459203127 5.192752902341297
5734 7 -0.002799428142723081 -0.01201900152868471 0.0005073016047251925 1.210029593165902 -5.309859302282735 1.427258603405474 -0.8835475525574102 5.568871448387333
5735 7 0.0113741446605393 -0.004712860883456624 0.003524025456982035 1.210166900321495 -0.469552687415185 -0.07696912240265311 0.0001139788573970812 0.47581927772363
5736 7 0.01222297704299789 0.001101645455591779 0.003612276209496001 1.210170704799411 -0.3116627898716327 -0.0101381702131049 0.09710049629966419 0.3265960554989611
5737 7 0.01222902215401388 -0.001101430495378572 0.003612276209496207 1.210170251496394 -0.3058958190233248 -0.07150013408574463 0.09622648389613607 0.3285484096343239
5738 7 0.01054001824360047 -0.006458900648823257 0.0004913800299994412 1.210163469818391 -0.5076705714387759 -0.2196262956312246 -0.07075147060956424 0.5576476391334257
5739 7 -0.00275903469775047 -0.008979362725985176 0.0004982220096807925 1.209986386688214 -7.570605765247569 4.314981587658258 -0.8307150118035184 8.753469322815111
5740 7 0.009299965510185857 -0.008014550991601904 0.003523182043426043 1.210159074756766 -0.48831721002645 -0.1068998688049504 0.04377651305104022 0.5017944426290905
5741 7 -0.01142967139196648 -0.004732842939848547 0.0004768179565739615 1.209675413625448 -1.211262091973379 3.917722624682993 0.3000870217936571 4.111661299286909
5742 7 0.01223348348455532 -0.001035033293579214 0.0003070439262913835 1.210170511268553 -0.3247300611342168 -0.07811067908921658 -0.1106003455629684 0.3518285480609253
5743 7 0.01203127576003465 -0.002873153242947285 0.000469892469913689 1.210169397894772 -0.3247085136427609 -0.05807150805232045 -0.03199095638944444 0.3314081172365473
5744 7 -0.004785894806924386 -0.01136915877408272 0.000492476648664522 1.209961307340194 -5.364039809563128 2.909137189827038 -0.2422512628600616 6.106937689396386
5745 7 -0.002819596424412424 0.000427823868079612 0.003491356946797271 1.209413066199012 -26.40938534961873 -11.73991740089842 22.42564318351405 36.58128985313208
5746 7 -0.003183670013922757 0.00101943975075462 0.002985867530234462 1.209466095348608 -24.9408925878884 -12.45704533353349 24.35512935662801 37.01889284541582
5747 7 0.00479513071382133 0.005905175453149758 0.002964890512296406 1.210122811531686 -2.939085847622832 -1.43409444514324 -0.2304107351763451 3.278405344702211
5748 7 0.004257183797529041 0.005655696037877009 0.002453176445215118 1.210109116571552 -3.697835018346115 -1.3861254493412 -0.9381512650333742 4.058996844086218
5749 7 -0.004519631294929808 0.006469013174571558 0.002495029161669433 1.209829262925974 -8.048530173387119 -8.756202411685438 -0.1185545005034145 11.89386286266654
5750 7 -0.004708625301800584 0.0059344531959737 0.002998325978219963 1.209793353277739 -7.136716030971949 -10.60363056431518 1.631443329338892 12.88531350755795
5751 7 -0.004492322726890315 -0.01020120385234376 0.001006628660138584 1.209949388321432 -6.30698871507902 3.81795671366352 0.266739335022433 7.377401303466598
5752 7 -0.003980282130454127 -0.009783802098688465 0.001504850669819376 1.209960454395787 -7.151167100833264 3.695026040512956 -0.5840071394442177 8.070531127691083
5753 7 0.0008539571867160437 0.007703991364868695 0.002996588449845141 1.210126065655021 -6.566710599676516 -13.8908240746408 -8.302260369665881 17.46436969427323
5754 7 0.0007306608634768189 0.007300294755254125 0.002544098527054774 1.210087485179753 -3.426534937387753 -7.194536653730278 -4.685948868789132 9.244491123902575
5755 7 0.009119645660436913 0.001783404465332803 0.002989095513330684 1.210156058916946 -1.580534240847048 -0.009652412734768951 -0.09141285073062484 1.583204966149442
5756 7 0.009173279648003341 0.002321923544262362 0.002480467148876435 1.210157251698474 -1.467890792538703 -0.279419082263038 0.2356669524130321 1.512718518037069
5757 7 0.009349770674158592 0.00242767140231446 0.00351419864220469 1.210158526764563 -1.691046504055962 -0.1451694816180987 -0.139174489455674 1.702962711214901
5758 7 0.009403404661725019 0.002966190481244018 0.003005570277750441 1.21015971954609 -1.655609062970363 -0.3503483599404816 0.04583806729351027 1.692892929607716
5759 7 -0.007316309588494862 0.003315244304771389 0.003521097199412007 1.209570045482238 -0.004954522640638826 -17.15775997512474 4.686696317830595 17.78633954153732
5760 7 -0.007805399975413668 0.002961805778561713 0.003018782530454672 1.209570318083015 5.077189051386888 -15.022494209075 9.730455453329663 18.60470220816361
5761 7 -0.001110247908096728 -0.005752178688163669 0.003523877556210437 1.209943358531242 -9.027907215297335 10.21623502496637 -1.241534039077627 13.6899953814293
5762 7 -0.0008256144613427636 -0.005298710689346698 0.003017444609502719 1.209936199373637 -10.82067746534904 9.212811686436885 0.6066360136159185 14.22430902476026
5763 7 0.002578469986858704 0.006595371061335668 0.00350984695714963 1.210100686058905 -3.303181237734286 -4.73582703861492 -1.152458950903673 5.887888047722542
5764 7 0.002562048263013577 0.006141452677188665 0.002998132890068342 1.210089138891868 -3.359777383997486 -3.63314340053997 -0.313448866724289 4.958435764528857
5765 7 0.004681261396686477 -0.005924299734611772 0.00348246706150816 1.210115906367204 -2.867855780661926 1.39719772236781 -0.190634380872532 3.195794067401164
5766 7 0.0041901072198517 -0.005762441716396843 0.002982651233447247 1.21010472562412 -3.282969622859844 1.880253816490034 -0.7289927275179678 3.852878710239907
5767 7 -0.0009571060572093035 0.01000915248885479 0.00298994075820409 1.210122594254732 -11.24244204309839 10.13830451800055 -9.377763709247342 17.80786831090721
5768 7 -0.0006341957580638185 0.01018302030735678 0.003503163597645245 1.210160724332787 -13.21901616301344 9.513704359593813 -11.08495438637252 19.70099420607306
5769 7 0.003642358278506919 -0.007330748151318412 0.003059701710252756 1.210117985857302 -1.776099182398117 2.975538380053154 -0.7444475117714401 3.544370050469801
5770 7 0.003345215576588405 -0.006890776209427691 0.002559885882191843 1.210105411367125 -1.66638795056327 3.279992598289611 -1.066661216012452 3.830530824358715
5771 7 0.003208941535562466 -0.007066944609262939 0.003493387427409996 1.210111161783611 -1.968538641916281 2.910479184268046 -0.5951890114173151 3.563745701658174
5772 7 0.002911798833643952 -0.006626972667372217 0.002993571599349083 1.210098587293434 -2.615796337795342 3.390263436930305 -0.7127041726618475 4.340993422056709
5773 7 -0.001421718922671807 0.0008573087097522427 0.003472879509169025 1.209641419164954 -40.01177936919901 -8.811761694048764 0.8056554192444259 40.97851526222885
5774 7 -0.001481059744071516 0.000320432833036378 0.002964236455966296 1.209647351366397 -42.67252414594365 7.873363615941448 10.89622965800172 44.73993733092271
5775 7 0.003532181412404644 0.007180572158094544 0.003486350428952624 1.21012296307777 -1.227310507971625 -3.103885193402227 -0.6425939839774845 3.399017711787216
5776 7 0.003038065648904869 0.007190106307226803 0.002996197386102254 1.210115818566873 -1.95836704030763 -3.678605141248704 -1.427782781949288 4.405212925865845
5777 7 -0.004280124429622798 -0.004896652798042295 0.003485479829192984 1.209725355642532 -7.658733927316728 17.21836846271362 2.91682058993551 19.06924907386432
5778 7 -0.004831021321750712 -0.004790881214847885 0.00297441237062525 1.209714932726042 -4.027468074361827 17.43099007533018 6.445283491678322 19.01582481472639
5779 7 0.004197929204876127 -0.006959891986087052 0.00356631428284276 1.210120526030803 -2.538562579827265 2.717855070917217 -0.823633211603937 3.809121660628169
5780 7 0.004575278140999546 -0.006752282247365873 0.003048781344350919 1.210121914009413 -2.671506282186885 2.184708138450715 -0.2283555587540012 3.458618470891323
5781 7 -0.008925387640688209 -0.005861452145230256 0.0004907098937988948 1.209721467277496 -1.731083989267265 6.0968618357893 0.4788102594102776 6.355913410920421
5782 7 -0.008466465082078687 -0.006027268543355765 0.0009919667039412689 1.209731492393757 -2.458962691610925 6.181254351773592 0.01432358353196335 6.652413700687864
5783 7 -0.009114559981247298 0.006994153949109861 0.001483429970770864 1.209749840371157 -2.124307433887418 -5.31615377221148 0.8384111224841155 5.785940391481127
5784 7 -0.008949108773213527 0.006336570130238787 0.0009782449202259441 1.209734318465385 -2.24341290713066 -5.761858314153883 0.5235412885058428 6.205320957455385
5785 7 -0.002233417529517523 -0.009232247504252897 0.003070252327959589 1.210031826673148 -12.30207165849338 -0.3687922867535611 -3.147760223767742 12.70375414071798
5786 7 -0.002101567781283248 -0.009541508112292815 0.003572030318278796 1.210049634427613 -12.48540084624895 0.8584607184944151 -3.977653062368395 13.13179016666352
5787 7 -0.001400581972529701 0.00907154506433446 0.00317150147797149 1.210097987962425 -22.42133399698145 -11.03793205197659 -6.764327282063952 25.89031258534982
5788 7 -0.001289686652742377 0.008805159241805402 0.003684724317412645 1.210122870355867 -23.64452523035004 -4.827995929089154 -15.30988233931642 28.5791115205437
5789 7 0.003391794585647962 0.004491031546348712 0.002936662537704363 1.210078793308239 -4.327541804459123 -2.65867066095617 -0.05243174637428373 5.079261446391424
5790 7 0.003984845508134771 0.004468348814874021 0.002410161652902532 1.21009081650164 -4.012861295264595 -2.561736120625744 -0.3829256951307057 4.776209774993411
5791 7 0.001844058524979451 -0.0115175149834139 0.00151095159633068 1.210127100366001 -1.471724413023509 0.02634320428005807 -1.022683582121831 1.792358340690464
5792 7 0.001185860526685153 -0.01104384795475445 0.001507874333850939 1.210122034881164 -1.415544641818548 -0.006771768023171443 -1.053170159522639 1.764363872542255
5793 7 0.001519952624368859 -0.01019702663648079 0.0005101311284948868 1.210115889439495 -2.824583389927366 1.491886634653869 -0.7128283809148185 3.272937725950505
5794 7 0.001029749185705391 -0.01024781001643979 0.001001096626265648 1.210113953183467 -1.820855189617668 1.726619621579644 -1.782807054720527 3.078169900044945
5795 7 -0.008484464251528104 -0.004716934930306498 0.0004907098937988948 1.209687069371865 -1.496366398127903 6.49656550528309 0.5449910180414671 6.688908055252836
5796 7 -0.008553510136759411 -0.004161291921523959 0.0009896212486796905 1.20966264784799 -1.113227274656343 7.653816001226051 1.376682623952941 7.855916839730209
5797 7 -0.006800907294194482 -0.005556170117417145 0.002552172648790051 1.209727414467197 -3.785108021315324 9.967266183010301 0.319144694849992 10.66655010920856
5798 7 -0.006421412643614144 -0.00523250400011452 0.003050915838647677 1.209713813167832 -2.054068967176945 10.42677499169747 1.950322466468349 10.80465611542627
5799 7 -0.008219833296248803 -0.008189255554066729 0.00250482198052527 1.209798381204194 -3.266293825507829 5.367812857380094 -0.9952771848763775 6.361813177164279
5800 7 -0.008251430469489236 -0.00757041176271077 0.003012177027013833 1.209780890988311 -3.874857509247133 5.987252912139578 -0.1499349815446842 7.133316104700783
5801 7 -0.00731656952246414 -0.001188368930724024 0.002380717913657215 1.209467821913658 3.363789853637269 3.232871302973149 22.53248896329269 23.01042367975712
5802 7 -0.007534693930982506 -0.0006384962754491731 0.002910916351976122 1.209403744632094 5.66639201734555 2.174863088313931 20.62914257122469 21.50347765295332
5803 7 0.005965916901456113 -0.007306044067812012 0.0009931093221412063 1.210139483028869 -1.780322362483052 0.8102151667632775 0.04340446238293204 1.956496940494728
5804 7 0.006359739342004235 -0.007739902690822977 0.0005106422606330468 1.21014426454206 -1.528612085449877 0.5000426852976818 -0.2406059147691156 1.626219173766261
5805 7 0.007900503620296194 -0.007914784382298465 0.0009790880275999639 1.210154249670918 -0.8347309155608906 0.05067468002624838 0.0598127897430701 0.8384039565780532
5806 7 0.008539588361009426 -0.007897766255328294 0.001502270071026007 1.210156515089868 -0.6638432349577728 0.08407019211278718 0.1278885294806055 0.6812570100731392
5807 7 -0.007960562243120604 0.004850200559716368 0.0004855612195396782 1.209695777021523 -1.611209154127036 -6.755243546520577 0.06057881537417183 6.94499676774747
5808 7 -0.008550226738222083 0.004862957107358003 0.0009948613152635268 1.209691017840936 -1.618690215134828 -6.757068981712023 0.06677470099000607 6.948568060894294
5809 7 -0.01012218824185548 0.003522098075823754 0.001499669127452817 1.209644043727278 1.210850904065391 -6.378893039299946 0.2501247085351492 6.497614846120465
5810 7 -0.01032007034747259 0.002950938729761765 0.0009903690317289683 1.209631177680149 1.576952173296639 -4.514758716778967 1.798198382865999 5.109142966461063
5811 7 -0.01164204808464416 0.002226846627276415 0.003492683700686303 1.209616615992256 1.063547122652685 -2.877023865620195 0.9264145989713995 3.204160235481103
5812 7 -0.01205868664085601 0.001775377361756682 0.002997868751231227 1.209616498505057 1.391424894245276 -2.166155507713043 1.309547057586436 2.888460907811342
5813 7 -0.009628601461638414 -0.0008113609237632667 0.002426833804047869 1.209573245089137 4.729296435636391 1.842470699980454 4.844603395654674 7.016489515248941
5814 7 -0.009240202774608311 -0.001215555483178677 0.002924636527640875 1.209557463915484 4.148550164656137 2.995053576450587 3.924330127544 6.448347179272176
5815 7 0.00876070423747537 -0.00571240955416262 0.000975014951213065 1.210156888229931 -1.058840482747978 0.1758316227817445 -0.1768887558589848 1.087818716250724
5816 7 0.008567828969773048 -0.006218325995602863 0.0004871712423444145 1.210156112530571 -0.9907698423824413 0.3038546464926539 -0.0603862227851985 1.038074671048267
5817 7 0.003597753336043666 -0.01151077699864025 0.001511528933688723 1.210140133233181 -0.8874880832458899 0.08564539309996955 -0.3751336438061754 0.967313538609902
5818 7 0.003907702104752091 -0.01097776300187863 0.001017486173438219 1.210140270557956 -0.8586231877614258 0.1202937769456228 -0.3943048105965276 0.9524603167549813
5819 7 0.01147902515319922 -0.001963710083752266 0.002582492845873345 1.210168164720522 -0.5175913898160946 -0.0343496600834704 -0.05824727746049005 0.5219899340898881
5820 7 0.01086343328390491 -0.002322264206727737 0.002453356587607927 1.210166445557938 -0.4933618831533514 -0.01019625614702131 -0.04392191432583386 0.4954180516958205
5821 7 0.001094345494092162 0.01011580467209751 0.0005031635976452445 1.210122075293105 -2.481440894035857 -1.840729766407973 -1.809340232466699 3.580439506590841
5822 7 0.001484589204542755 0.00977526788523749 0.001002225600315355 1.210127755994628 -2.23239864456461 -2.082313370387709 -1.542282671157526 3.420273164310436
5823 7 0.001700516293883088 0.01006501328168567 0.00349906200267011 1.210182416300735 9.454494919317515 0.0638689620696998 -2.170499998504445 9.700650682671981
5824 7 0.001345850628039696 0.01020556004082426 0.003002225600315355 1.210168101568938 2.992584612437319 8.633947034300688 -8.860421753846385 12.7282236667078
5825 8 -0.0008783930958530049 -0.009518235313456639 0.02063232018306722 3.999999999965742 -4.872926956474933e-10 -3.061797986106646e-10 -2.176779969220032e-09 2.251570846033104e-09
5826 8 -0.0008665598456237609 -0.009466702489174274 0.01986780509472117 3.999999999910882 -1.928052095381579e-09 -2.476135277835697e-09 -7.932005581658285e-09 8.530260449957313e-09
5827 8 -0.0004146776710537587 -0.009597462925118316 0.0207145463185766 3.999999999972082 -5.556203096978834e-10 -3.336205260627504e-10 -2.219472874972089e-09 2.312158391351256e-09
5828 8 -0.0003960581638075131 -0.009843837620647718 0.005425644812673458 3.22726459197765 9.931287967030457 5.550708932449429 -47.6988298914355 49.03691694375737
5829 8 -0.0003653226879844915 -0.008816797907511975 0.07775377682752729 4 0 0 0 0
5830 8 -0.0006658745339508345 -0.009235103245822213 0.00605996399583488 3.6839022495128 -4.329073012811191 -1.689473045098524 -27.14883770993238 27.54368496263002
5831 8 -0.0006999887304039965 -0.009166386516747111 0.07811446145910597 4 0 0 0 0
5832 8 -0.0005854664460854491 -0.008174581171131845 0.005379506751025698 3.168374960803858 1.149372681556178 5.265267019708378 -44.47619989891455 44.80152287364954
5833 8 -0.0006907628899835814 -0.00949089741751305 0.04193738946098741 4 0 0 0 0
5834 8 -0.0005801609456366108 -0.008619836489563276 0.00650796005328865 3.869998599442805 -3.073433198643452 0.5355142903501444 -19.03288382979625 19.28687206522127
5835 8 -0.001018003297901195 -0.008896804152607128 0.006241011439389215 3.737467032097384 -8.872381959890884 -0.2550543617839685 -24.88971360280703 26.42502710688145
5836 8 -0.0004837812981693689 -0.009337289562263028 0.06004337439700731 4 0 0 0 0
5837 8 -0.0001072001133385337 -0.009335394294980167 0.04205781370222531 4 0 0 0 0
5838 8 -8.626471747225076e-05 -0.009249575121936136 0.07797081132760736 4 0 0 0 0
5839 8 -0.0004508855124711469 -0.009580839032752701 0.07169999027232438 4 0 0 0 0
5840 8 -0.0007477784651416471 -0.008878643347836382 0.05981387016603917 4 0 0 0 0
5841 8 4.742242617193292e-05 -0.009396643437836694 0.03481783689070388 4 0 0 0 0
5842 8 -0.0003983314278593416 -0.00929888936755803 0.07921659412216303 4 0 0 0 0
5843 8 6.657397172493817e-05 -0.00939522413896614 0.03513905305191456 4 0 0 0 0
5844 8 -0.0007915748320062493 -0.008917056020844243 0.0790359624503347 4 0 0 0 0
5845 8 -0.0007432206641671549 -0.009579914841870122 0.05373903546497454 4 0 0 0 0
5846 8 -0.0001541828637106016 -0.008958481195587589 0.07817695710099598 4 0 0 0 0
5847 8 -0.0007652423505397259 -0.008637344397443519 0.04259202340657715 4 0 0 0 0
5848 8 -0.0007737695334939369 -0.009235372464931672 0.06098244384608004 4 0 0 0 0
5849 8 -0.0001168252481340474 -0.009030895789103394 0.005914285300749019 3.668444744224837 -5.090282145303287 -1.978889022964765 -25.44183456958222 26.02141272779002
5850 8 -0.0002925644608637337 -0.009568303214775711 0.06596989782434087 4 0 0 0 0
5851 8 -0.0003609835524966228 -0.009195946407364139 0.006808204028199708 3.937220113612771 -1.560925208675832 -0.9503931553601003 -7.857350299126627 8.067074338322431
5852 8 0.000116559344024072 -0.009603818385878345 0.005650524821358071 3.427284328432278 -0.09417307347213161 -6.465368690292741 -52.0717004790561 52.47162901654298
5853 8 -0.0005028910679863949 -0.009135312065991028 0.07863417653474149 4 0 0 0 0
5854 8 -0.0003695415278372993 -0.00897942761836564 0.02081095611534734 3.999999999980496 -7.208681303907109e-10 -5.483504113874618e-10 -2.619541084706229e-09 2.771702460500709e-09
5855 8 -0.0008012544131088693 -0.00926685846224121 0.02501118074724144 3.999999999999932 -7.683560446830262e-13 -9.474249620339474e-13 -6.24883111719936e-12 6.366779044490626e-12
5856 8 0.0002833703086036236 -0.009724438532869126 0.0214196000639545 3.999999999988661 -6.979133258878395e-11 7.801243350039551e-11 -9.402737858044922e-10 9.46082217440051e-10
5857 8 -0.0001910682908338416 -0.009337802627241615 0.02172449201646068 3.99999999999299 2.267811551020936e-11 3.481234682076526e-11 -1.181578069350136e-09 1.182308305977531e-09
5858 8 -4.10109868106838e-05 -0.009244337119225223 0.006166408635989686 3.78272480315622 -5.310162155201552 -2.002843830743199 -29.28426561318388 29.82913706476245
5859 8 -7.812588300459644e-05 -0.008418903509403107 0.005646708275758651 3.430205563063044 -0.4260464120994137 7.214801734585317 -48.97528830591443 49.50569405898757
5860 8 -0.0004121330417693864 -0.008993399463078389 0.09366974030795699 4 0 0 0 0
5861 8 0.000155258709153523 -0.008991826106178057 0.005382947796367702 3.189045147270485 1.259501257790674 -1.000820073535597 -56.31004898685307 56.33302407238369
5862 8 -0.0001073270303203689 -0.008297369450418986 0.0775662724694173 4 0 0 0 0
5863 8 -0.0008439801272747645 -0.00859279171273813 0.02111584806785351 3.999999999984825 -1.201779198456433e-09 4.911297675627252e-11 -1.338369242598925e-09 1.799421450317648e-09
5864 8 -0.0003568330069178593 -0.008782820125414611 0.007078144135157623 3.96593699127407 -1.841445281800494 -0.2306613904282537 -5.24722642538019 5.5657443852649
5865 8 -0.0004677552361977123 -0.00910048059013099 0.06347034692403916 4 0 0 0 0
5866 8 0.0005901154302659418 -0.009185296730111743 0.03457439075817038 4 0 0 0 0
5867 8 -0.0003585095857358158 -0.00867086988337913 0.03737185895632937 4 0 0 0 0
5868 8 -0.0001122968052713863 -0.008335322443793283 0.07835920649301903 4 0 0 0 0
5869 8 -0.0007168070159828132 -0.008824206233999248 0.06179541845918655 4 0 0 0 0
5870 8 -0.0006019999824954264 -0.009210181915013551 0.0376504426701534 4 0 0 0 0
5871 8 -0.0001493700946545037 -0.008712321222923869 0.04235189941546397 4 0 0 0 0
5872 8 0.0001033826331780907 -0.009188239319670949 0.05994111689139654 4 0 0 0 0
5873 8 0.0006092669758189469 -0.009183877431241189 0.03539560691938107 4 0 0 0 0
5874 8 -0.0001606145337941876 -0.008729593105244302 0.0597116126604284 4 0 0 0 0
5875 8 -0.0001096476638394871 -0.009517145412704814 0.07881480820656983 4 0 0 0 0
5876 8 -0.0003971331918891933 -0.008790927778339164 0.06125860569047387 4 0 0 0 0
5877 8 1.95585330611412e-05 -0.008648835953151333 0.03817766860047277 4 0 0 0 0
5878 8 6.554973299689142e-05 -0.008471353946203275 0.0797076538379765 4 0 0 0 0
5879 8 -0.0001966741251155194 -0.009399739285528071 0.07751300032233178 4 0 0 0 0
5880 8 -0.0004389745197229641 -0.009093896932301235 0.06567161115503256 4 0 0 0 0
5881 8 0.0001083894355952003 -0.009212519644451217 0.03343765984070103 4 0 0 0 0
5882 8 -0.000337563968129327 -0.009336625249304033 0.03997992305549899 4 0 0 0 0
5883 8 -0.0001589353914484031 -0.009402028491000265 0.0668436898372539 4 0 0 0 0
5884 8 -0.0004519121165934532 -0.009154169396396733 0.0929064064411973 4 0 0 0 0
5885 8 -0.0005242971423580084 -0.009061812627348863 0.01308442193265539 3.999999993416266 1.295795146098697e-07 -3.333299935922737e-07 4.599818358353982e-07 5.826517180385362e-07
5886 8 4.35375513322237e-05 -0.008648327637036454 0.006321748215215625 3.847812217681263 -3.40272869047598 0.7670205417571727 -18.30162700552643 18.63106100311735
5887 8 -0.0003938360206622541 -0.009244321593667396 0.0615551488713082 4 0 0 0 0
5888 8 -0.0001698893107518762 -0.008728047729624341 0.05939164417454476 4 0 0 0 0
5889 8 -0.0007231890240817068 -0.009324475587772985 0.01106780308507353 3.99999955558135 2.264570482458463e-05 1.344633296740845e-05 -3.741737744401071e-05 4.5756878740362e-05
5890 8 -0.0001459591512650683 -0.0100190489454029 0.01348495246219825 3.99999999287779 -3.274481051717367e-07 -4.483272657308891e-07 -2.485811621526295e-07 6.082862754948922e-07
5891 8 -0.0001772754808583415 -0.009292099792714684 0.02540710295870304 3.999999999999961 3.239455196444911e-13 -7.936173715601615e-13 -3.213931026176928e-12 3.326277479880847e-12
5892 8 -0.0006691837644808194 -0.009184245365504249 0.06663761355208647 4 0 0 0 0
5893 8 -0.0004596841633878229 -0.008365404963327012 0.08066828642745749 4 0 0 0 0
5894 8 -0.0005500881920731505 -0.009026669730986663 0.07082119572779799 4 0 0 0 0
5895 8 -1.685104728527096e-05 -0.009415783454044761 0.04117643535913751 4 0 0 0 0
5896 8 -0.0002270904870487934 -0.008678902787706054 0.04544043514141952 4 0 0 0 0
5897 8 0.0001781664063293042 -0.009820447037026087 0.006466652610900743 3.849946317326186 0.398328272412409 -6.850643112581025 -14.65687671241475 16.18375764250944
5898 8 -0.000800786794225908 -0.008648305007833406 0.07023692797914746 4 0 0 0 0
5899 8 -0.0001029342142528319 -0.009767766256294641 0.02850760668932869 4 0 0 0 0
5900 8 0.0002627657694755483 -0.008718974249231888 0.03753031140699806 4 0 0 0 0
5901 8 1.92753727159377e-05 -0.00925828628086631 0.03780889512082209 4 0 0 0 0
5902 8 -0.0004799743647983119 -0.009586804552147084 0.04069426065818596 4 0 0 0 0
5903 8 -0.0005205226791652436 -0.009150834297614745 0.02392317760007077 3.999999999999824 -4.333310754637383e-12 3.773147914249869e-12 -1.480745722256694e-11 1.588316771545317e-11
5904 8 -0.0002439851388501028 -0.008715277963520425 0.0214519533470247 3.999999999991849 -9.454468462215839e-11 -2.852874715763143e-10 -5.35861293477299e-10 6.143899125765931e-10
5905 8 5.742726184890483e-05 -0.009162921840389616 0.0451627665357294 4 0 0 0 0
5906 8 -0.000461368642763849 -0.009146771838936311 0.04328658443781775 4 0 0 0 0
5907 8 -0.0004960335391420726 -0.009093353472080769 0.07050712951607949 4 0 0 0 0
5908 8 -0.0008536272412339877 -0.008647938998990558 0.02574490892158518 3.999999999999979 4.666406580667674e-13 -7.093818539162374e-13 -1.832447958166771e-12 2.019614229949916e-12
5909 8 -0.0006017111343930493 -0.008802448202502932 0.01134487991828166 3.999999667908491 1.04611375296254e-05 1.72217283686221e-06 -4.97136430374945e-05 5.083156088251853e-05
5910 8 -8.880183205382873e-05 -0.008834710441936958 0.08066251737362494 4 0 0 0 0
5911 8 0.0001187066789126108 -0.0091866781422208 0.0593425092989881 4 0 0 0 0
5912 8 -0.0009245585005362299 -0.00888453514730507 0.05614770690292542 4 0 0 0 0
5913 8 -0.0005305704208270076 -0.008997271015820485 0.01914941187926597 3.999999999862231 -5.906211928322329e-09 -1.174585165340526e-09 -1.29984497779254e-08 1.43255954948527e-08
5914 8 -0.0001245833075809937 -0.008509189655131881 0.04716072659951104 4 0 0 0 0
5915 8 -0.0007343947754362251 -0.00961842054047608 0.0152027796714631 3.999999990313492 -4.52101633824158e-08 5.79027198568719e-09 -3.315553607183973e-08 5.63628928901279e-08
5916 8 -0.0007309890942956499 -0.008670143161360741 0.09270673003057017 4 0 0 0 0
5917 8 -0.0001277716086884395 -0.009530741601655759 0.06310579668086062 4 0 0 0 0
5918 8 -0.0005034633741174843 -0.008292867879860468 0.07976397756561197 4 0 0 0 0
5919 8 -0.0002801232346979538 -0.008678793906550922 0.09315633112789692 4 0 0 0 0
5920 8 0.0001391011098151835 -0.009081952502329229 0.07949337803954704 4 0 0 0 0
5921 8 0.0004676222562936737 -0.009001059979581068 0.004989392436522507 2.634613600916263 38.20325868954182 -1.888749799602675 -80.99849269240394 89.57573426295185
5922 8 -0.0007165976360002644 -0.009559409769480024 0.06793143714471002 4 0 0 0 0
5923 8 -0.0001999107915563506 -0.009515269585464824 0.0243600938514447 3.999999999999906 -2.32876251231795e-12 -5.014261115948628e-13 -1.752877310873724e-12 2.95755673675797e-12
5924 8 0.0002304534605873624 -0.009101913869147937 0.02114706139451852 3.99999999998752 -3.92833426673451e-11 -3.446645174919108e-10 -6.496465850228141e-10 7.364628273449083e-10
5925 8 -8.324529605201395e-05 -0.009458239401532328 0.08100500835165456 4 0 0 0 0
5926 8 -8.812894495117512e-05 -0.009417010037885728 0.07105144892786758 4 0 0 0 0
5927 8 -0.0001144281476095854 -0.009399685681484742 0.06971716388157602 4 0 0 0 0
5928 8 -0.0004258096984115178 -0.00897764454816964 0.04688818213214836 4 0 0 0 0
5929 8 -0.0005860670758426547 -0.009134810645346957 0.08965733766189496 4 0 0 0 0
5930 8 -0.000777657876617693 -0.009084914515619713 0.02850645920078227 4 0 0 0 0
5931 8 -0.0004367249373757449 -0.00908470412317804 0.06906828742515668 4 0 0 0 0
5932 8 -0.0001346776898322845 -0.009402308927153036 0.02205029398371242 3.999999999996572 -4.215212861278235e-11 -3.60368371383427e-11 -3.938779216172851e-10 3.977628347584477e-10
5933 8 -0.0007084266869966171 -0.00957378840546059 0.02186112898374669 3.999999999993359 -3.296964996811156e-10 -2.235912564129446e-10 -6.871341971696091e-10 7.942582934828079e-10
5934 8 -0.0008528695499676947 -0.008577519081167606 0.07117053093203241 4 0 0 0 0
5935 8 -0.0007466945504468382 -0.009651721095092788 0.03419296028305616 4 0 0 0 0
5936 8 -0.00015930762809865 -0.009388104827426885 0.0853618127471842 4 0 0 0 0
5937 8 -2.864080082749262e-05 -0.008483074726154389 0.06098690398248315 4 0 0 0 0
5938 8 -0.0002050105464405768 -0.008815916612920818 0.03362215683369563 4 0 0 0 0
5939 8 -0.0005376323290477741 -0.0096981082731026 0.08751810749829286 4 0 0 0 0
5940 8 0.0001456997682665751 -0.009223380609192752 0.08334426241597653 4 0 0 0 0
5941 8 -0.0004096745257639352 -0.009041623625709374 0.04755043084418125 4 0 0 0 0
5942 8 -0.0009222112729901253 -0.00881479183189952 0.0120198009730588 3.999999975906266 8.89147435860159e-07 8.951183084234086e-07 -2.217467652683032e-06 2.551270808727893e-06
5943 8 -0.0006556671336515887 -0.009697288507430016 0.01608883653428096 3.999999992525961 5.103970856133425e-08 3.863547926744167e-08 -3.022777791339978e-07 3.089815655770305e-07
5944 8 -0.0005338679842775765 -0.008449811675127176 0.03839928204438812 4 0 0 0 0
5945 8 -0.0007687727052093354 -0.009654014860072077 0.07834690103652647 4 0 0 0 0
5946 8 -0.0002040015463528293 -0.009440374387367837 0.03394951415052266 4 0 0 0 0
5947 8 -0.0008265173377806521 -0.008757323912013391 0.04358360003523372 4 0 0 0 0
5948 8 0.0001951581144732139 -0.00984339522255083 0.04242024717372504 4 0 0 0 0
5949 8 -0.0004628841227279783 -0.009145345325014181 0.04295445687807688 4 0 0 0 0
5950 8 -0.0005279189677719017 -0.009073370797998286 0.08722873950343105 4 0 0 0 0
5951 8 6.318146517896374e-05 -0.008877004288273999 0.06370640329893357 4 0 0 0 0
5952 8 -0.0001668274517035685 -0.009293205259916058 0.05015266468059118 4 0 0 0 0
5953 8 -0.0007895094365355979 -0.009381040961286075 0.0955253010845494 4 0 0 0 0
5954 8 3.45414696881301e-05 -0.008918375200762229 0.07841096045212548 4 0 0 0 0
5955 8 -0.0001292733375860382 -0.009530896279960512 0.04919832606702211 4 0 0 0 0
5956 8 0.0001529881331572439 -0.009220322150494533 0.0427143328869637 4 0 0 0 0
5957 8 0.0002627149444722117 -0.009224437554837317 0.006621992190126684 3.91503373185123 -0.3486606653697307 -1.757491423908184 -10.42025931388344 10.57318043604958
5958 8 -0.0001305834293765867 -0.009468237380655406 0.01586575483602761 3.999999990873632 5.567476506799914e-08 4.019628534657715e-08 -3.084248760576822e-07 3.159767791978344e-07
5959 8 -0.0006677188075838023 -0.009685988060394246 0.04321688805109202 4 0 0 0 0
5960 8 -0.0005655020737109514 -0.009192347769503471 0.05636584235396619 4 0 0 0 0
5961 8 5.988997281876955e-05 -0.009807932014246751 0.0596211484055129 4 0 0 0 0
5962 8 -0.0005096690425749413 -0.009177851772291528 0.01784568079021679 3.999999998788298 -1.062905499392426e-08 2.61602599346739e-08 -1.008983861720805e-07 1.047750940922692e-07
5963 8 0.0002107150389403091 -0.009030009827728421 0.09383675480798828 4 0 0 0 0
5964 8 -0.0002060083994868653 -0.009974375529231961 0.07986773528031495 4 0 0 0 0
5965 8 -0.0001576408789090795 -0.01001774176443439 0.04549078268273575 4 0 0 0 0
5966 8 -0.0007406471514898591 -0.009566592551611802 0.07065142856255874 4 0 0 0 0
5967 8 -0.0004854352610642467 -0.009157759948501874 0.03101088435025821 4 0 0 0 0
5968 8 -0.0002378554297034831 -0.009314148365700669 0.09222038721003677 4 0 0 0 0
5969 8 -0.0005408743119006862 -0.009205313235995679 0.02630265653762004 3.999999999999992 7.970878500229263e-14 -3.262412715308046e-13 -1.498962759880609e-12 1.536123762320429e-12
5970 8 3.155310619297445e-05 -0.009857085223787136 0.0656917322264419 4 0 0 0 0
5971 8 0.0005667117293597767 -0.009260280331511878 0.04129685960037541 4 0 0 0 0
5972 8 3.277962989008412e-05 -0.009521649576981279 0.0877528669017284 4 0 0 0 0
5973 8 -0.0006945401819587701 -0.008614041100932349 0.05863505310061543 4 0 0 0 0
5974 8 -0.0005688563740153044 -0.009189164542264807 0.05663898576256186 4 0 0 0 0
5975 8 -0.0007190799898108613 -0.009272975284031201 0.00732978547719095 3.975924677998326 -1.550992630580627 -0.01035175551453282 -5.532112179783401 5.745428658391426
5976 8 0.0001093984356829478 -0.009836977418898237 0.03376501715752807 4 0 0 0 0
5977 8 -0.0004723013960716678 -0.009157613682945754 0.08310858476600015 4 0 0 0 0
5978 8 -0.0004733511998756089 -0.009156636046967294 0.08282976489936958 4 0 0 0 0
5979 8 -0.0003371009907505849 -0.008980703720254193 0.04081470096010119 4 0 0 0 0
5980 8 -0.0005374917132731629 -0.008970892177395639 0.09173074927629483 4 0 0 0 0
5981 8 -0.0001520825535357717 -0.008783705233215837 0.04807944185174843 4 0 0 0 0
5982 8 0.0001922600319294023 -0.009232771841351795 0.08398150760825347 4 0 0 0 0
5983 8 -0.0001781114390512056 -0.009438082819767518 0.01233663630413678 3.999999936623592 5.075200347420644e-06 3.735083735495881e-06 -5.719997311654675e-06 8.510398247024706e-06
5984 8 1.012776894781226e-05 -0.009397138732819998 0.08467702774502826 4 0 0 0 0
5985 8 -0.0005050839860412466 -0.009126951550721463 0.03450530044235513 4 0 0 0 0
5986 8 -0.0005803923904567153 -0.008781167312138155 0.02483476677938286 3.99999999999994 -3.103760027075598e-12 -2.372689344902672e-12 -4.360102488323959e-12 5.854355194363916e-12
5987 8 -0.0002009295569490608 -0.009541710485630763 0.05564009028021679 4 0 0 0 0
5988 8 -3.8386831531977e-05 -0.00977326353032016 0.03964215827788276 4 0 0 0 0
5989 8 5.335209441738943e-05 -0.009451748579424222 0.06877653319851333 4 0 0 0 0
5990 8 -0.0006430674463022566 -0.009625384714625426 0.06938868157119714 4 0 0 0 0
5991 8 0.0003865169967548078 -0.009315867671214458 0.06043968298274402 4 0 0 0 0
5992 8 -0.0007114962911829801 -0.008470094135950063 0.0601688016233103 4 0 0 0 0
5993 8 -0.0004972513689198141 -0.009078684376728922 0.08136139309406916 4 0 0 0 0
5994 8 8.238384539672132e-05 -0.009832516499952232 0.07773003482241186 4 0 0 0 0
5995 8 -0.000193221055062515 -0.00956270932255761 0.01835192817997002 3.999999999479437 4.164537857022369e-10 2.511334011036033e-09 -3.512303465215969e-08 3.521516428255621e-08
5996 8 6.132153254860315e-05 -0.008880310828435083 0.07732549596422181 4 0 0 0 0
5997 8 0.0004379902538014248 -0.008696591533184141 0.04739674260450526 4 0 0 0 0
5998 8 0.0001962284546734422 -0.009846084052902224 0.08364981306359959 4 0 0 0 0
5999 8 -0.000455191649000314 -0.009218829633283715 0.07468622730927782 4 0 0 0 0
6000 8 -0.0002170892656915503 -0.008827400248158111 0.08224609789030732 4 0 0 0 0
6001 8 -0.0007842535209626778 -0.008618089063681684 0.09551744507933799 4 0 0 0 0
6002 8 -0.0004454790867894995 -0.009125062783125602 0.0769165762672277 4 0 0 0 0
6003 8 -0.0005844245689077206 -0.008569192808336307 0.05697452553165315 4 0 0 0 0
6004 8 4.249299116595655e-05 -0.008896912101876967 0.08746349890686658 4 0 0 0 0
6005 8 0.0001035884118467358 -0.009431301429614201 0.04031468489942387 4 0 0 0 0
6006 8 -0.0001766070510080475 -0.009451041724701027 0.08187492752176573 4 0 0 0 0
6007 8 0.0001446499644626341 -0.00922240297321429 0.08256544254934597 4 0 0 0 0
6008 8 0.000427784873835038 -0.009300208547476015 0.07859159212395384 4 0 0 0 0
6009 8 -0.0005383868942730928 -0.009048615682382202 0.01515864931814691 3.999999990264651 -3.30198919379085e-08 1.928001351639404e-08 -4.457794950030335e-08 5.873010953876289e-08
6010 8 -0.0002537233002137986 -0.009613082349564444 0.06815980315217851 4 0 0 0 0
6011 8 0.0001728794166045603 -0.009844237921659692 0.01055558285620755 3.999998569830142 4.745731957183953e-05 2.180339829349301e-05 -7.128329610762827e-05 8.83679447653741e-05
6012 8 -0.000424224656411435 -0.009172727634905948 0.03707079593027217 4 0 0 0 0
6013 8 -0.0009790467009162373 -0.008733609302322949 0.07789742695902591 4 0 0 0 0
6014 8 0.0001970506987999291 -0.009220832000758707 0.03672924838094085 4 0 0 0 0
6015 8 -0.0001860053890529722 -0.009445084271907329 0.07356114450334883 4 0 0 0 0
6016 8 0.0005979010095091428 -0.009249216817503627 0.08446107840186839 4 0 0 0 0
6017 8 0.0002599185449101563 -0.009723431099546462 0.04549470374364203 4 0 0 0 0
6018 8 -0.0008350904300297933 -0.008761633321911115 0.08251042024033092 4 0 0 0 0
6019 8 9.191436131692632e-05 -0.008859005090037352 0.06939676973553555 4 0 0 0 0
6020 8 -9.85135134180988e-05 -0.009338712881824722 0.01067102774202687 3.999998777666532 4.884520825251869e-05 1.42549549715958e-05 -7.698931795159199e-05 9.228441465992764e-05
6021 8 -0.0007987231774068278 -0.008815577715676669 0.07405517295542842 4 0 0 0 0
6022 8 -0.0004904797157141065 -0.00914386854445046 0.03539385516036324 4 0 0 0 0
6023 8 -0.0005250160846733934 -0.009065411725298582 0.08681005749615475 4 0 0 0 0
6024 8 -0.0005561887862925283 -0.009079343281227076 0.04475664162705238 4 0 0 0 0
6025 8 -0.000708100073806997 -0.00974480076382709 0.005819518440765132 3.508539282569823 -12.06429484827668 -12.88256541483499 -33.21547169375582 37.61349839741515
6026 8 9.288096698938107e-05 -0.009799103385355393 0.02563366022849603 3.999999999999964 3.163208071171975e-13 -9.164842361210386e-13 -3.051320706493691e-12 3.2016496157373e-12
6027 8 -2.751540147356592e-05 -0.00950780809500882 0.08623988902265095 4 0 0 0 0
6028 8 -0.0003028892282307448 -0.008930039114847438 0.05598938182414485 4 0 0 0 0
6029 8 9.153091676163222e-05 -0.009798353870706551 0.05037127549515679 4 0 0 0 0
6030 8 0.0004017376942561905 -0.009307492656526951 0.04936511092214613 4 0 0 0 0
6031 8 -0.0005187162229826099 -0.009061981188567525 0.09095580886168859 4 0 0 0 0
6032 8 -0.0002032060350862367 -0.009371455689859191 0.06403992477572179 4 0 0 0 0
6033 8 -0.000101258356082254 -0.00900420617325871 0.06627390233947086 4 0 0 0 0
6034 8 -0.0008753593124505549 -0.008841224814290224 0.02667606728898439 3.999999999999997 -2.99004924591712e-13 9.306092825914269e-14 -3.340482269144149e-13 4.578782580590753e-13
6035 8 -0.000206432863597818 -0.008783266527495477 0.0700656307377793 4 0 0 0 0
6036 8 -0.0005024423293736845 -0.009143783080204205 0.03171802899743051 4 0 0 0 0
6037 8 -9.13588014086179e-05 -0.008714279838897547 0.05210998820832308 4 0 0 0 0
6038 8 -0.0004374251521438008 -0.009085821020696612 0.0488781720200641 4 0 0 0 0
6039 8 -0.0001081410135859545 -0.008706753526010773 0.09237374453060146 4 0 0 0 0
6040 8 -0.0002641949842162749 -0.008715673818858814 0.07235368254120235 4 0 0 0 0
6041 8 6.031485804338901e-05 -0.008898154099873762 0.01616295480490867 3.999999992170808 6.396814285738302e-08 2.04323944088666e-08 -3.855983760776228e-07 3.914019847619604e-07
6042 8 -9.180728528091311e-05 -0.008823795976470376 0.06195374826531217 4 0 0 0 0
6043 8 7.384930576871601e-05 -0.008243194317277399 0.04833545791465453 4 0 0 0 0
6044 8 -0.0001244471950384378 -0.009335686573395447 0.05160998820832308 4 0 0 0 0
6045 8 -0.0007146561149181902 -0.008596303355163577 0.0478434258467542 4 0 0 0 0
6046 8 0.000168084315225505 -0.009845522162351185 0.05733817422448286 4 0 0 0 0
6047 8 0.0001528990356184833 -0.009229025503761631 0.04778644684917547 4 0 0 0 0
6048 8 3.760901805276227e-05 -0.008915604842996513 0.03426185430982163 4 0 0 0 0
6049 8 0.0001391145540979052 -0.008237188522391675 0.0596191033614402 4 0 0 0 0
6050 8 -0.0007888933343003576 -0.008620088993254497 0.004409456526723265 1.933481166446918 1.961520640899573 4.082210666320358 -54.84235055687704 55.02904162124111
6051 8 0.0001809831171199218 -0.009235817937587459 0.03845210591450221 4 0 0 0 0
6052 8 -0.0001059441922947625 -0.008760421613608908 0.05833591822505875 4 0 0 0 0
6053 8 -4.076239359865296e-05 -0.008774454562484726 0.0849747192440336 4 0 0 0 0
6054 8 1.405181300513433e-05 -0.009413313991606109 0.04664183046887944 4 0 0 0 0
6055 8 -0.0006561364896530434 -0.009605919754345429 0.05780985065537771 4 0 0 0 0
6056 8 -0.0001399119308145489 -0.009480832977470793 0.02364641618347453 3.999999999999818 -5.065651196327176e-12 5.53758953366736e-12 -1.188327459926932e-11 1.405481892760887e-11
6057 8 -0.0003290172157848756 -0.00883725830096452 0.09008803461014646 4 0 0 0 0
6058 8 0.0004089900169501624 -0.009221989298754726 0.06647997862463831 4 0 0 0 0
6059 8 0.0004031650926882365 -0.009307265299798768 0.06334185305575503 4 0 0 0 0
6060 8 -0.0002975357623265173 -0.008829029125951258 0.01212302563001213 3.99999992581021 6.720345786820921e-06 4.589449921399956e-08 2.200355935919967e-06 7.071542974785492e-06
6061 8 0.0007004926241826967 -0.009303244313539448 0.004751805066994186 2.250958179504079 0.002236273408689956 7.12527160217916 -48.30139994869085 48.82412044685631
6062 8 -0.0008231554014461001 -0.008521633089272639 0.07936907009535417 4 0 0 0 0
6063 8 -0.0004531402685841568 -0.00860129806577839 0.07499844505351071 4 0 0 0 0
6064 8 -0.0001974455561441857 -0.008749121693277066 0.06430855506382373 4 0 0 0 0
6065 8 -0.0003863316734230361 -0.008612677448268212 0.08931043508783942 4 0 0 0 0
6066 8 4.122154799871364e-05 -0.009798174600736663 0.09242006362066388 4 0 0 0 0
6067 8 0.0007046296321109769 -0.008697815666041621 0.004737587369528321 2.247157782823453 0.002232086468503999 -8.941157988475581 -48.21096598358569 49.03306590687092
6068 8 -0.0005811123067493014 -0.009069931944235039 0.07291747491956535 4 0 0 0 0
6069 8 4.358654179381249e-05 -0.008806408642611627 0.02523068899084447 3.999999999999968 -8.075701527116708e-13 -1.688365892352989e-12 -7.385716750602724e-13 2.01202312541705e-12
6070 8 -0.0001737758369331466 -0.008821314389880725 0.07391155000911981 4 0 0 0 0
6071 8 0.0001695108219546123 -0.009241523254655049 0.0585598623126901 4 0 0 0 0
6072 8 -0.0007506275720096316 -0.008519804195877318 0.04109657000709807 4 0 0 0 0
6073 8 -0.0007232305353896247 -0.009686101565980728 0.007059845370233036 3.947207800337027 -2.411530722785933 -1.432348517379645 -6.677687223802337 7.242831584478068
6074 8 0.0004284656124626806 -0.009240182912110513 0.08564586340402433 4 0 0 0 0
6075 8 -0.0005409836517987481 -0.009263648248907252 0.09516514635218393 4 0 0 0 0
6076 8 -0.0009018364453539836 -0.009442985173389495 0.04592711792596593 4 0 0 0 0
6077 8 -0.0005110204613248948 -0.009112498670378444 0.0891003348590598 4 0 0 0 0
6078 8 -0.0006913842578691674 -0.008591865126190484 0.0524112607161403 4 0 0 0 0
6079 8 0.0001417313455225352 -0.00861006839764232 0.08367595696063042 4 0 0 0 0
6080 8 0.000154403412519716 -0.009035024749204382 0.05535690422327526 4 0 0 0 0
6081 8 -0.0006978384835457973 -0.009516608883349618 0.04998587982546718 4 0 0 0 0
6082 8 -0.000758934970152347 -0.009598266254171376 0.01265927380774884 3.999999992423549 -1.916627159951455e-07 -5.732486878588168e-07 1.090782425075635e-07 6.14204133674652e-07
6083 8 -0.0007941702790510922 -0.009375607903243606 0.004451778042771604 1.995304806474799 2.605128857293327 -5.415984498453513 -55.90980879017268 56.23189756183105
6084 8 -0.0004540207622296976 -0.009219930108325143 0.07435478419558972 4 0 0 0 0
6085 8 -0.0001749263663555785 -0.009471897403656081 0.0360749086877431 4 0 0 0 0
6086 8 -0.0006714166794473575 -0.009639540481714283 0.0527407625997695 4 0 0 0 0
6087 8 -0.0005569082291870599 -0.009105484320250597 0.08841103730348507 4 0 0 0 0
6088 8 0.0001553891716324111 -0.009245478718676982 0.07659108030300579 4 0 0 0 0
6089 8 -0.0005749837708816861 -0.009174061438261315 0.01885310011798115 3.999999999757028 -9.115738532215553e-09 -2.35863689866163e-09 -2.417846255151323e-08 2.594721388439181e-08
6090 8 -0.0007107558637445132 -0.009634631867457189 0.08944723743311533 4 0 0 0 0
6091 8 9.832039148601743e-05 -0.00922831499174284 0.07033583227471132 4 0 0 0 0
6092 8 -0.000721929140201091 -0.008645520865153689 0.07667873335362463 4 0 0 0 0
6093 8 0.0001545036131213732 -0.009221748664416662 0.04354646044670456 4 0 0 0 0
6094 8 0.0001089062693060431 -0.009213075470871183 0.03262553040471579 4 0 0 0 0
6095 8 -0.0006693384845454006 -0.009697882206737615 0.08294330534343479 4 0 0 0 0
6096 8 5.652638874313285e-05 -0.008901629192945005 0.01276178442904332 3.999999937616309 4.427097938494688e-06 3.294238585018646e-06 -7.762580704841346e-06 9.524120075430839e-06
6097 8 -0.0004700247103713506 -0.00832406414185646 0.08473396463507656 4 0 0 0 0
6098 8 -0.0007644188392008434 -0.009609237514429235 0.07324340565137002 4 0 0 0 0
6099 8 -0.000209477798522281 -0.009516643695215403 0.08880727550922105 4 0 0 0 0
6100 8 5.114153932025989e-05 -0.00883858525554671 0.01933480245889643 3.999999999906393 -1.295380923853152e-09 -4.139668816120587e-10 -6.598848767102976e-09 6.737520713738156e-09
6101 8 -1.489600670552131e-05 -0.008651641431637698 0.05451704745919247 4 0 0 0 0
6102 8 -9.356404268504338e-05 -0.008915960488599418 0.07497159391362029 4 0 0 0 0
6103 8 -0.0001414220416303775 -0.009427273081581856 0.06221037796388168 4 0 0 0 0
6104 8 5.221328837990227e-05 -0.008932521836725509 0.03565040902782974 4 0 0 0 0
6105 8 0.0004889046753703101 -0.00866941749465883 0.08043280531060405 4 0 0 0 0
6106 8 0.0005005882297038211 -0.008708207525463946 0.06078946322622382 4 0 0 0 0
6107 8 -0.0002293978794656639 -0.008669871965308721 0.02569339712081455 3.999999999999978 -2.974467285003638e-13 -6.350558120352018e-13 -1.161783608718955e-12 1.357023063246641e-12
6108 8 -8.350583077108714e-05 -0.008688881668774552 0.0503934524463746 4 0 0 0 0
6109 8 -0.0004464268837026938 -0.009110238467500252 0.06273033765189362 4 0 0 0 0
6110 8 -0.0002286965674205618 -0.008923708967769202 0.0569304422470366 4 0 0 0 0
6111 8 -0.0005561331294663054 -0.00882554644952749 0.01640670741515544 3.999999993940057 2.122894897878085e-08 5.5938767822847e-09 -3.302269173860285e-07 3.30955853095965e-07
6112 8 -0.0001988321738129221 -0.008780636393580916 0.02226952748750723 3.999999999997581 -3.46415924598907e-11 2.96732637163769e-11 -2.519522875036849e-10 2.560478425725909e-10
6113 8 -0.0007341427364629127 -0.009594931991716182 0.06380386840082738 4 0 0 0 0
6114 8 -0.0006812444529314712 -0.009564880442977932 0.06497696703392181 4 0 0 0 0
6115 8 0.0003427248460117417 -0.008715404271200954 0.09332334562792818 4 0 0 0 0
6116 8 -0.0008756013125007073 -0.009001625943894516 0.09576044477908816 4 0 0 0 0
6117 8 -0.0007109009165944593 -0.009510078518747132 0.04727788637681857 4 0 0 0 0
6118 8 2.896122300239655e-05 -0.009165358588266543 0.07260031435330846 4 0 0 0 0
6119 8 -0.0001775283745592176 -0.008850057812365107 0.03640376755879061 4 0 0 0 0
6120 8 -0.0001586912485738995 -0.009146024710313129 0.02821183361547238 4 0 0 0 0
6121 8 -0.0001268503300443148 -0.009380841965565418 0.05804272330968839 4 0 0 0 0
6122 8 -0.0002854806290228135 -0.008989137910215864 0.0684534798137643 4 0 0 0 0
6123 8 -0.0007831644248093934 -0.009366763425030511 0.01642487811154101 3.999999994151859 1.892271341344959e-08 3.701238900544e-09 -3.304424835223216e-07 3.310045364775628e-07
6124 8 -0.0001907079476404053 -0.009441156772187424 0.0902622489056356 4 0 0 0 0
6125 8 -0.0002106450818954299 -0.008832300737493743 0.04384347604412053 4 0 0 0 0
6126 8 0.0002022725272928817 -0.00920004179459024 0.05461113998424717 4 0 0 0 0
6127 8 -0.0008969042791129036 -0.009489613488037615 0.07198070097890785 4 0 0 0 0
6128 8 -0.000149515949258863 -0.009471071932222635 0.01762057406860511 3.999999998540557 -5.006510723991394e-09 1.355480747428985e-08 -1.179961540251084e-07 1.188776274999278e-07
6129 8 -0.0007343566178564749 -0.008584624095855269 0.04925121880832529 4 0 0 0 0
6130 8 0.0001709359641162423 -0.009190779761046767 0.09257342094122856 4 0 0 0 0
6131 8 4.539587426446481e-05 -0.008888953029177263 0.08654481689959029 4 0 0 0 0
6132 8 8.64770687150931e-05 -0.009789874197875616 0.05435722187296727 4 0 0 0 0
6133 8 -0.0005357277362258298 -0.008771873688251336 0.09515729034697253 4 0 0 0 0
6134 8 -0.0001323459796060599 -0.009402928313201489 0.04828894081228201 4 0 0 0 0
6135 8 -0.0001210608817791806 -0.00876593680070507 0.07635323738940274 4 0 0 0 0
6136 8 0.0004041466814361001 -0.00930775608917293 0.016628329796899 3.999999994264186 1.06717879760621e-07 -3.008634367563823e-09 -2.877063620402506e-07 3.068757215874136e-07
6137 8 -0.0008283127182477001 -0.009456962915887782 0.09206338462717702 4 0 0 0 0
6138 8 0.0002311637100396459 -0.009243911336138524 0.06171347867743383 4 0 0 0 0
6139 8 -0.0001403011182267296 -0.01002599510053248 0.06706635054118903 4 0 0 0 0
6140 8 -0.0007645301092414242 -0.008567895438765532 0.06458672058474249 4 0 0 0 0
6141 8 -0.0001781500116370335 -0.009456267341880386 0.04425869824669188 4 0 0 0 0
6142 8 9.358587969842786e-05 -0.008862417397263051 0.04854495687518812 4 0 0 0 0
6143 8 -0.0007598335213815509 -0.009690767093335226 0.02610699665721466 3.999999999999983 -3.36373623012651e-13 -7.353943947783242e-13 -2.010481626240619e-12 2.167022957788209e-12
6144 8 -0.0007089239231053828 -0.008493521026752836 0.04648103835485905 4 0 0 0 0
6145 8 -0.0009402732398633654 -0.008745600851311952 0.08992046195484703 4 0 0 0 0
6146 8 0.0001979708822071687 -0.008814546308711143 0.05131356056198606 4 0 0 0 0
6147 8 -1.036789535191437e-05 -0.00889840614144285 0.08816015405133724 4 0 0 0 0
6148 8 -0.001027707952735687 -0.009105229239338293 0.04222801427544803 4 0 0 0 0
6149 8 -0.0003736627980399738 -0.00898920593702167 0.05097806753216994 4 0 0 0 0
6150 8 -0.0001189129439364225 -0.009388805381943482 0.07606031611559258 4 0 0 0 0
6151 8 -0.0005814339088520968 -0.009181867326462173 0.03027163798992426 4 0 0 0 0
6152 8 -0.0006460156900110418 -0.009615965922921075 0.07588574316637273 4 0 0 0 0
6153 8 0.0005819913931100606 -0.009226049546283536 0.0691050155088922 4 0 0 0 0
6154 8 -0.0003448104052976225 -0.0086123580613469 0.02408138185101202 3.999999999999853 -4.47729270346481e-12 1.202251075021039e-12 -1.504717067450382e-11 1.574512314678853e-11
6155 8 0.0002464617858944627 -0.008825200597721308 0.04043512520133909 4 0 0 0 0
6156 8 0.0002208945635052563 -0.009683569387517892 0.07981915285702496 4 0 0 0 0
6157 8 -0.0008551825460969007 -0.008700586181310619 0.01899870533012864 3.999999999769499 -1.352690521680321e-08 9.180805716842819e-10 -2.112153248792628e-08 2.509858903044168e-08
6158 8 -0.0003724434002187958 -0.009036793659563305 0.03867371935841757 4 0 0 0 0
6159 8 5.244374123803189e-05 -0.008423353378421056 0.05570619576720333 4 0 0 0 0
6160 8 0.0001748525376941136 -0.009194030279565045 0.05061206326094021 4 0 0 0 0
6161 8 0.0001913694470655812 -0.009228093103221842 0.05235894900776222 4 0 0 0 0
6162 8 -0.0004730819351364546 -0.00917742903702462 0.02294549246410297 3.99999999999927 1.439394904101424e-13 8.400652060699629e-12 -7.816310854353764e-11 7.86133780651276e-11
6163 8 0.0001475299524735226 -0.009229614424954737 0.02263240871547691 3.999999999998722 1.621112041899074e-11 4.664390601049998e-12 -1.025978339002025e-10 1.039753455677437e-10
6164 8 -0.0004086560093949683 -0.009105678390514779 0.05266022151557945 4 0 0 0 0
6165 8 -0.0007709923996456221 -0.009690745515318368 0.02470072813315084 3.999999999999907 1.316226162299467e-12 1.894906512171426e-12 -4.303265558895744e-12 4.882746816144532e-12
6166 8 0.0001996527070035682 -0.009842671592049681 0.03640038950989334 4 0 0 0 0
6167 8 0.000102680417460523 -0.009183549943610569 0.06455895577207106 4 0 0 0 0
6168 8 0.0002749159984788725 -0.009387383316423758 0.06798828546255739 4 0 0 0 0
6169 8 0.0003370625353128645 -0.009309565516407653 0.08855639225707321 4 0 0 0 0
6170 8 0.000122101589497482 -0.00983676717999534 0.03233230652099953 4 0 0 0 0
6171 8 0.00070691497644436 -0.009007556921587546 0.03894608985159294 4 0 0 0 0
6172 8 -0.0004644041356367156 -0.009002323689099034 0.06483712129298984 4 0 0 0 0
6173 8 8.450981767398221e-05 -0.008886762165643261 0.06246639402678801 4 0 0 0 0
6174 8 2.518894823583516e-05 -0.009226468094999524 0.08982491031719439 4 0 0 0 0
6175 8 -0.0004025348048313498 -0.009062608149342203 0.07572365241401793 4 0 0 0 0
6176 8 0.000491857567284549 -0.009255432762961412 0.0707313666532427 4 0 0 0 0
6177 8 -0.0002476684149414843 -0.008529799890784232 0.06597561567016257 4 0 0 0 0
6178 8 -0.0007238240701351867 -0.009669275319513513 0.03189945234696087 4 0 0 0 0
6179 8 0.0001732631038622028 -0.009223130438632566 0.05733115070310851 4 0 0 0 0
6180 8 -0.0007864105112119666 -0.008679977455975483 0.06309488789507217 4 0 0 0 0
6181 8 -0.0008404139733087197 -0.008618763399389148 0.01492321539948459 3.999999989593844 -6.140305576417448e-08 5.432798662485079e-08 -7.891223838630611e-08 1.137937026158543e-07
6182 8 -2.419851768872964e-05 -0.008976793349196979 0.02451829810238595 3.999999999999936 -2.928791840998166e-12 -2.430546841578346e-12 -4.882383524776041e-12 6.19056124111606e-12
6183 8 -0.0007579199118738512 -0.008699762538073428 0.05740128990009373 4 0 0 0 0
6184 8 0.000177707425966123 -0.009881304044533485 0.01570694309876694 3.999999991047439 -5.334942020116851e-08 1.724117402507195e-07 -1.003092006761247e-07 2.064797921162394e-07
6185 8 -9.22716661123283e-05 -0.01003049300682592 0.02099987347020172 3.999999999978433 -4.979505465623043e-10 -1.424090122605921e-09 -1.533431788631983e-09 2.15113934335099e-09
6186 8 0.0004309069579563346 -0.009311239770080616 0.05332184483954101 4 0 0 0 0
6187 8 -0.0007569173125704208 -0.009619845991017884 0.04457696256613451 4 0 0 0 0
6188 8 9.551706983445083e-05 -0.008195430541901373 0.06567288436754658 4 0 0 0 0
6189 8 -0.0007777890264328747 -0.00858862316539194 0.0810366682419186 4 0 0 0 0
6190 8 5.29655752710541e-05 -0.008828077627208528 0.09188775185915457 4 0 0 0 0
6191 8 0.0002116844364541601 -0.009851286958526858 0.0224131752116821 3.999999999997713 5.766765356111498e-11 -1.53805984954167e-10 -2.193222439918271e-10 2.740147550490243e-10
6192 8 7.983307759185286e-05 -0.009778025985054051 0.009618121731161382 3.999998795866581 4.762922980041735e-05 4.374169694964033e-05 8.838151596621651e-05 0.0001095133414151067
6193 8 -0.0006960808752855803 -0.009510346201705974 0.05127449517850695 4 0 0 0 0
6194 8 0.0007241903535354094 -0.008993706333748054 0.0370547487210275 4 0 0 0 0
6195 8 9.691993851847193e-05 -0.009805883940192696 0.06429032548396912 4 0 0 0 0
6196 8 -0.0001341055968304227 -0.008332277989682385 0.05370717998276243 4 0 0 0 0
6197 8 -0.0005459311261617045 -0.008315424020697681 0.004232798475267048 1.601631929438553 -0.00222847199373372 0.002561949828539552 -41.37622410975921 41.3762242490865
6198 8 6.728189265581434e-06 -0.00901537567798754 0.01853849069761161 3.999999999614921 -1.014996003225082e-09 -4.160168766946332e-09 -4.517347869882857e-08 4.537598923229726e-08
6199 8 0.00019032510747425 -0.009844734145732104 0.06998736541850806 4 0 0 0 0
6200 8 0.0006621897909705137 -0.009000726763986463 0.0769999999999999 4 0 0 0 0
6201 8 0.0008891064301801356 -0.008873088855584721 0.03499703344134335 4 0 0 0 0
6202 8 0.0006500000000007913 -0.008999999999999814 0.033 4 0 0 0 0
6203 8 6.758297181074387e-05 -0.01001968191341308 0.0349664103687416 4 0 0 0 0
6204 8 -0.0002517260173138264 -0.008856653499600563 0.0285004431378744 4 0 0 0 0
6205 8 -0.0007078097563176301 -0.009505578422152144 0.03879542463831011 4 0 0 0 0
6206 8 -0.0005203555209834815 -0.009172603265783735 0.0274266423803287 3.999999999999999 3.144023440425706e-14 -2.060346899188707e-14 -8.027766129454147e-14 8.864250773085903e-14
6207 8 0.000689857653907805 -0.008995832761191135 0.06288504904857398 4 0 0 0 0
6208 8 -0.000911296759102476 -0.008961462169060127 0.09403626268486268 4 0 0 0 0
6209 8 -0.0008407065351902265 -0.008595324228543514 0.04503431023274251 4 0 0 0 0
6210 8 -0.0007034747444536221 -0.009644491240218591 0.07710408062533768 4 0 0 0 0
6211 8 0.0001851321791461369 -0.009846044449757204 0.08219427218080438 4 0 0 0 0
6212 8 -2.698856601430206e-06 -0.008905778701713133 0.07323521377154416 4 0 0 0 0
6213 8 7.174106556160713e-05 -0.008919166638380414 0.09061281144454833 4 0 0 0 0
6214 8 -0.0009234904563743064 -0.009490612032163412 0.0139593226922191 3.999999990041007 -1.435166245908229e-07 8.999110458565815e-08 9.276114864708361e-09 1.696510145724844e-07
6215 8 6.894194412101474e-05 -0.008254670291691872 0.0639750335870355 4 0 0 0 0
6216 8 0.000576878354942204 -0.008451012689171922 0.09576720152473298 4 0 0 0 0
6217 8 0.00014860468420506 -0.009861943606611559 0.05826666739731973 4 0 0 0 0
6218 8 -0.0006723587430070536 -0.009650749383438847 0.06247432158898727 4 0 0 0 0
6219 8 -0.0007025127352445358 -0.009436104192590986 0.008758187315048866 3.999522317476994 -0.02335939517849656 -0.006482800306219428 -0.07483926920125632 0.07866768242101453
6220 8 -0.0005412955427623293 -0.008311798147230343 0.09575700030024983 4 0 0 0 0
6221 8 0.0006690679177257383 -0.009001348441945296 0.06497543429528285 4 0 0 0 0
6222 8 0.0001575371094751692 -0.009868347299915394 0.07629815902919565 4 0 0 0 0
6223 8 0.0005828331872635502 -0.009547566651810708 0.004251805066994186 1.597684503957475 0.001483724210315666 -0.0007820025192231557 -37.74120684883192 37.74120688609842
6224 8 -0.0008584508919896735 -0.008701339295413639 0.08870409665332384 4 0 0 0 0
6225 8 -0.0005453101613810088 -0.009900492982193625 0.07954039668912802 4 0 0 0 0
6226 8 0.0007495951617447078 -0.008987847268603235 0.07904906165965186 4 0 0 0 0
6227 8 0.000636194562782292 -0.008999343191252118 0.04484450221628677 4 0 0 0 0
6228 8 -6.656820258286311e-05 -0.008315268167157509 0.09043859714905918 4 0 0 0 0
6229 8 0.0005869701951918317 -0.008453493327770361 0.004237587369528321 1.593879809740282 0.001479194956797308 0.001209737633493344 -39.48703243257717 39.48703247881365
6230 8 -0.0001481041545766027 -0.01002998968257176 0.07135065506808996 4 0 0 0 0
6231 8 -0.0007543135584321863 -0.009616334671979155 0.08160463958478661 4 0 0 0 0
6232 8 -0.0006928285620369153 -0.009716847029146844 0.05653367815572743 4 0 0 0 0
6233 8 -0.0004647247927614517 -0.008187202915388476 0.05536210324214863 4 0 0 0 0
6234 8 -0.0002519554941217565 -0.008915336204421306 0.02704649984428596 3.999999999999998 1.091447258215449e-13 6.821719904845708e-16 -1.681550117413491e-13 2.004723035908404e-13
6235 8 0.0008117642302889988 -0.009020230098118498 0.006976313495040822 3.943750609512529 4.96110351160836 -1.054279759673984 -5.562628048904126 7.527741007434167
6236 8 -0.0005760104000578474 -0.008206710207613748 0.006777900160246564 3.898715477104104 -7.903868043653438 9.529397993479911 -10.76053868970115 16.40334566672849
6237 8 5.616719859453363e-05 -0.009237851737045839 0.05620751727518563 4 0 0 0 0
6238 8 0.0007570955693440204 -0.009015650320119847 0.06121949474034018 4 0 0 0 0
6239 8 0.0001341245740234466 -0.008283285060531781 0.06220976432821852 4 0 0 0 0
6240 8 8.045513850432468e-05 -0.008913391429450794 0.08163168103104827 4 0 0 0 0
6241 8 -0.0006320211665051745 -0.008484057326231177 0.05075945671760432 4 0 0 0 0
6242 8 -0.0005512080709124418 -0.009680272875800429 0.004275119991315387 1.663472566883438 -0.001801688813389685 -0.001370377006158998 -42.53847801106375 42.53847807129176
6243 8 3.660001796501481e-05 -0.008291147068549493 0.0339344969929946 4 0 0 0 0
6244 8 -0.0008343708581417234 -0.008770071920885471 0.03141938021347196 4 0 0 0 0
6245 8 0.0006706447172211848 -0.00899420078097117 0.08297850302358373 4 0 0 0 0
6246 8 0.0002136169986310872 -0.008106987913048841 0.0779655563615204 4 0 0 0 0
6247 8 -0.0002412156957979571 -0.01005849364625351 0.08070989773989973 4 0 0 0 0
6248 8 0.0001709265782439836 -0.009225666782529202 0.07421116124928111 4 0 0 0 0
6249 8 0.0003490108053786921 -0.008713530983538595 0.09540704679236749 4 0 0 0 0
6250 8 4.427646102632082e-05 -0.008941443258805644 0.02330885549681696 3.999999999999538 7.161896610576716e-12 1.696901203197102e-11 -4.929044629366016e-11 5.261927620397267e-11
6251 8 -0.0006957804760368307 -0.009743054329845194 0.01141481128496162 3.999999763384101 7.26551727168061e-06 -6.179717275699761e-06 -2.329371474608147e-05 2.517089179001182e-05
6252 8 0.0006842178834025916 -0.009003261729644036 0.0589999999999999 4 0 0 0 0
6253 8 -0.0005749923596290174 -0.008464710852551021 0.008120249482460519 3.999522317476994 0.0179958475463786 -0.07386795947573246 0.004008966709153267 0.07613407765315118
6254 8 -6.289793453217877e-05 -0.008292575499128747 0.01254817375491868 3.999999926802927 4.796405205164953e-06 -3.478358465442687e-06 -2.602744961344983e-06 6.471380211365807e-06
6255 8 -0.0007988037297705816 -0.008801953446512349 0.03674531510812193 4 0 0 0 0
6256 8 -0.0001626669696924977 -0.01001179761105301 0.04653362971554949 4 0 0 0 0
6257 8 -0.0007418198741185167 -0.008745526029833202 0.07541019663413667 4 0 0 0 0
6258 8 0.0006885730972472062 -0.008996048314050856 0.04890834239717314 4 0 0 0 0
6259 8 3.997292382082186e-05 -0.008289749952907878 0.08200285139958986 4 0 0 0 0
6260 8 -0.0001532445574759674 -0.00923215057042126 0.009346041999270908 3.999999213884519 4.2137084890244e-05 1.169406590976852e-05 0.000134999584336846 0.000141905506840541
6261 8 -0.0003156665301811786 -0.008874005326901951 0.02979418021806577 4 0 0 0 0
6262 8 7.104057160730847e-05 -0.008924011726266367 0.01732285034136553 3.9999999976588 2.859349817794448e-08 1.728193204954707e-08 -1.977707816761456e-07 2.00573017622538e-07
6263 8 0.000687488559117003 -0.008996619376612639 0.01707909773111876 3.999999995889552 1.003637124302291e-07 -5.031753384308801e-09 -2.938667254755016e-07 3.105734142784795e-07
6264 8 -0.0005465514583352523 -0.009684079989948375 0.09576485630546122 4 0 0 0 0
6265 8 0.0007421908835514706 -0.009015559494901355 0.09288603332776926 4 0 0 0 0
6266 8 -0.0001597244213329979 -0.01002188428593765 0.04105599505722229 4 0 0 0 0
6267 8 4.961128017626313e-05 -0.008310682245434535 0.03597926789887726 4 0 0 0 0
6268 8 -0.0007096955984705747 -0.008541368535584643 0.0939651423567774 4 0 0 0 0
6269 8 1.607673384113529e-05 -0.008264656071082762 0.08615027799454628 4 0 0 0 0
6270 8 -0.0008194301079433811 -0.008737805566705763 0.03283247928576734 4 0 0 0 0
6271 8 0.0006313403145327427 -0.008999810612577597 0.01893919724674894 3.999999999741704 1.421960551393745e-08 -1.61648138543201e-09 -2.371489235812732e-08 2.769848935590196e-08
6272 8 -0.0006916551304348213 -0.009698437732959003 0.03056076123216491 4 0 0 0 0
6273 8 0.0002431586696698577 -0.008763438877075178 0.06828196212414317 4 0 0 0 0
6274 8 -0.0003300936193911154 -0.008985879577701656 0.008454630680416745 3.999522317476994 -0.04631748415737668 -0.016211940488017 -0.06101944797200807 0.07830395509720083
6275 8 -0.0007201041872097523 -0.008370812418671018 0.06149887527835222 4 0 0 0 0
6276 8 2.25785146408591e-05 -0.008915764632089578 0.04443837730760975 4 0 0 0 0
6277 8 0.0003501404806008687 -0.00932260088229734 0.09540650615500433 4 0 0 0 0
6278 8 0.0006499999999989098 -0.009000000000000043 0.08699999999999994 4 0 0 0 0
6279 8 0.0006570571848101581 -0.009000362473879319 0.01511358067967051 3.999999992274162 -1.308132142583366e-07 -3.309991781046637e-08 2.493313308528464e-07 2.835027585906505e-07
6280 8 -0.0007811652361846224 -0.009583971322374535 0.09060524632277586 4 0 0 0 0
6281 8 -0.0008307101775827192 -0.008733212017715493 0.06706542434905272 4 0 0 0 0
6282 8 -6.545340760419474e-07 -0.008273668666338538 0.08787078605647544 4 0 0 0 0
6283 8 5.071392053553437e-05 -0.008275129961272826 0.01597730341879895 3.999999991582514 2.24803817030429e-08 -1.077902962555137e-07 -2.506070009805489e-07 2.737297654052821e-07
6284 8 -0.0007755576608159478 -0.008622093453969682 0.06874523404040765 4 0 0 0 0
6285 8 0.0001110151667847602 -0.008176307735078709 0.04187281436061097 4 0 0 0 0
6286 8 0.0002249243506554537 -0.008704334897920777 0.08947800774313885 4 0 0 0 0
6287 8 0.0002630489298207518 -0.008109523921516912 0.03789908488664875 4 0 0 0 0
6288 8 -9.035467130627146e-08 -0.00824258593604809 0.06974523659173883 4 0 0 0 0
6289 8 0.0005780080301643792 -0.009548727264473186 0.09576666088736979 4 0 0 0 0
6290 8 0.0006467758965887406 -0.008997077941223262 0.08901702426221142 4 0 0 0 0
6291 8 -0.0008194440614228992 -0.008728451005650799 0.0225826112361333 3.999999999998129 -9.354862495369523e-11 4.515388965382526e-11 -1.930153466209364e-10 2.191920231504723e-10
6292 8 0.0006804354724262837 -0.008993487648398489 0.0430404443837982 4 0 0 0 0
6293 8 0.00011083617276299 -0.008211151184009577 0.04572645051440058 4 0 0 0 0
6294 8 0.0007464862179412561 -0.009019370651254518 0.05094755629075633 4 0 0 0 0
6295 8 -0.0006633570114482886 -0.009626331936635049 0.04862215595715799 4 0 0 0 0
6296 8 0.0007173013063697221 -0.008999832087202949 0.0528649650706688 4 0 0 0 0
6297 8 0.000599780414561798 -0.009002034679670453 0.02491422031384755 3.999999999999964 -5.050883183548194e-13 -1.710221098384588e-12 -1.074252732705414e-12 2.081823563230884e-12
6298 8 0.000295320969794528 -0.00817626798198174 0.05411670535509733 4 0 0 0 0
6299 8 0.0007822324166059478 -0.008943716982630275 0.07107733366958323 4 0 0 0 0
6300 8 -0.0005954542316984549 -0.0084405125427102 0.009780421187624247 3.999999178143302 8.568649929082645e-05 -8.501821295311733e-06 4.211287603422906e-05 9.585380250114527e-05
6301 8 0.0006073746731502679 -0.009001205345744638 0.07291805320528727 4 0 0 0 0
6302 8 0.0006648883486362981 -0.00899362864673576 0.0229957717481909 3.99999999999899 3.452556197828394e-11 1.313695636822462e-11 -8.10919464148665e-11 8.910947102238092e-11
6303 8 -0.0001847487228312225 -0.008148828355213538 0.004470385844795369 1.985308064392037 1.745469810266079 0.402389277619503 -52.81769605983111 52.84806145033129
6304 8 9.530695518395351e-06 -0.008282008819686529 0.07358561927731515 4 0 0 0 0
6305 8 -0.0008374258295858056 -0.008632602776311997 0.01344006848760755 3.999999993151928 7.53350630791605e-09 -2.841311490653542e-07 5.674454924807631e-07 6.346508099129991e-07
6306 8 -0.0008756055424390121 -0.008999999999999994 0.004176658051456217 1.542030825991107 -0.002765449234148418 0.001103769789121217 -44.01526180305471 44.01526190376997
6307 8 0.0001245679412432695 -0.00883544760836461 0.07589822536323777 4 0 0 0 0
6308 8 0.0008253595770097657 -0.008921292196900991 0.06877769913694985 4 0 0 0 0
6309 8 0.0003597164692599878 -0.008141935846359255 0.005913656889658085 3.562737130408464 8.081934245801776 21.80040571691562 -41.63135710616036 47.68380485108376
6310 8 0.0008456389224928932 -0.008949588978817473 0.04084736042372285 4 0 0 0 0
6311 8 0.0006860238077504923 -0.00900030495557369 0.09098995003899366 4 0 0 0 0
6312 8 -0.0008325230935052601 -0.008650073927255544 0.0870235564030214 4 0 0 0 0
6313 8 -0.0006068869850005671 -0.008553666134546681 0.02707878241435745 3.999999999999999 -1.629985371566272e-14 4.170747075451843e-14 -1.691982309986318e-13 1.75023540476581e-13
6314 8 -0.0006745996535338651 -0.009700123058997246 0.01734365576685845 3.999999997884716 -3.335828368313547e-08 -2.434074801509043e-08 -1.522938053073645e-07 1.577930614419282e-07
6315 8 -1.197960914963913e-05 -0.008232669782566059 0.02180957372323917 3.999999999995398 -2.755259697940242e-11 5.202631568316388e-11 -2.788558999807633e-10 2.850026246860809e-10
6316 8 -6.25749405109636e-05 -0.008326470689173559 0.02364575943872236 3.999999999999572 4.906533606421148e-12 2.480188073697223e-11 -3.96151699603416e-11 4.69954152137066e-11
6317 8 -0.0008742685139679729 -0.00862024717482731 0.07267084310745925 4 0 0 0 0
6318 8 0.0001697972475907464 -0.009844317932443137 0.01200872344924772 3.999999836428569 9.555921983072161e-06 -7.172862888853661e-06 -1.89627015474733e-05 2.241315812078704e-05
6319 8 0.0001869986833797696 -0.009845715268803307 0.04396168264927591 4 0 0 0 0
6320 8 0.000180699956794344 -0.009845268265320872 0.02408333243484847 3.999999999999901 -1.584285926296177e-12 -2.250801870948012e-12 -3.044475030766083e-12 4.104253789847961e-12
6321 8 -2.11544339563414e-05 -0.008239858771730189 0.07184720462132678 4 0 0 0 0
6322 8 0.0001272534034424743 -0.008211200546559921 0.05822583747562385 4 0 0 0 0
6323 8 0.0001826799913885828 -0.00822068278751863 0.09204110917971925 4 0 0 0 0
6324 8 0.000632286666800272 -0.008998981276265052 0.02692044829019426 3.999999999999996 2.356574494357006e-13 -1.175048324305272e-13 -4.099122269533855e-13 4.872061708609097e-13
6325 8 -0.0005592002124001506 -0.008194767671514929 0.0929566547172698 4 0 0 0 0
6326 8 -9.916555617537303e-06 -0.008291798027702933 0.04402315510503841 4 0 0 0 0
6327 8 2.063570781803558e-05 -0.00821435452283102 0.01976148566191438 3.999999999938307 -1.017136181804568e-09 1.925294026591788e-09 -4.532549088770669e-09 5.028451485624756e-09
6328 8 -0.0007749330152097825 -0.009721395082831387 0.01866653760033956 3.999999999621544 -1.24514655282147e-08 -7.359168798033309e-09 -2.683770033298159e-08 3.048702213009966e-08
6329 8 0.0001669320382535633 -0.009855929482488717 0.01812682145835835 3.999999999231696 1.401337686028585e-08 -2.774940990428402e-08 -5.660238399718653e-08 6.45773517204703e-08
6330 8 0.0002310592758369886 -0.008193139574213243 0.05181356056198606 4 0 0 0 0
6331 8 0.0001815489536901816 -0.009847388441250002 0.06197010837600334 4 0 0 0 0
6332 8 0.0008042024577516948 -0.008930434390840384 0.02083622639448426 3.999999999991055 -1.137492980110744e-09 -7.923372614042462e-10 4.10053575996454e-11 1.386856176740284e-09
6333 8 -0.0008240402433859625 -0.008748726837183403 0.03492977867532013 4 0 0 0 0
6334 8 -0.0008711779471361277 -0.00880494830914046 0.02817130527251572 4 0 0 0 0
6335 8 -0.0008085428599332949 -0.00857876862094452 0.09138053191483973 4 0 0 0 0
6336 8 0.0001634982163803054 -0.009830366566222428 0.08999912461268353 4 0 0 0 0
6337 8 -3.808490294906596e-05 -0.008634665219327917 0.009621885146937098 3.999998602209369 6.63557452160592e-05 -1.924614379615752e-06 6.61558824883732e-05 9.37197409914487e-05
6338 8 0.0006615108053786923 -0.008713530983538595 0.09490704679236749 4 0 0 0 0
6339 8 4.174344749116421e-05 -0.008217285359132621 0.06785916945540403 4 0 0 0 0
6340 8 0.0001581268698762178 -0.009849523107829165 0.05585822573125756 4 0 0 0 0
6341 8 -0.0008202627948677584 -0.0085200622700642 0.08522080291475684 4 0 0 0 0
6342 8 0.000158697026124158 -0.009849436664555804 0.07386075574351014 4 0 0 0 0
6343 8 0.0001881278494759978 -0.008201972140544102 0.04997894547619074 4 0 0 0 0
6344 8 0.0001582810534357613 -0.009849499837719742 0.05185894900776223 4 0 0 0 0
6345 8 0.0006626404806008687 -0.00932260088229734 0.09490650615500432 4 0 0 0 0
6346 8 -0.0006905303459690122 -0.009710355927864588 0.02747843151709289 3.999999999999999 3.713984756520241e-14 -1.45902469820375e-14 -8.498082549401033e-14 9.388282210184546e-14
6347 8 -0.000912058315934381 -0.008706400287606835 0.03804473974212649 4 0 0 0 0
6348 8 -0.0006572703269773243 -0.009716818755689768 0.02328305315076055 3.999999999999551 -3.289675604410832e-11 -2.510803946232606e-11 -4.277186200953701e-11 5.951506014136401e-11
6349 8 0.0001806999567747183 -0.009845268265302437 0.03808333243485153 4 0 0 0 0
6350 8 0.0004027655484440859 -0.009867939710630328 0.03997692012180764 4 0 0 0 0
6351 8 -0.000194162675510238 -0.009847928520865641 0.004526925058309574 2.050936324294225 3.280171231358237 -0.7509732551753436 -53.0764446634248 53.18300914997772
6352 8 0.0001224200034005114 -0.008212579027126198 0.07619114663704793 4 0 0 0 0
6353 8 -0.0001902049796814751 -0.008142721843147762 0.09552420182498278 4 0 0 0 0
6354 8 -0.0007780581398194997 -0.009707927100708749 0.05529043238431192 4 0 0 0 0
6355 8 0.0001726356095481952 -0.009848248583747285 0.04799594580970905 4 0 0 0 0
6356 8 -0.0001578204146535269 -0.009566427231214657 0.09517136246046555 4 0 0 0 0
6357 8 -0.0006677150531710456 -0.009712039666540368 0.03734937964409619 4 0 0 0 0
6358 8 0.0004154563117442113 -0.009846680944287116 0.06606069407329335 4 0 0 0 0
6359 8 -8.535856813509965e-06 -0.008184180815205664 0.02551698315295597 3.999999999999985 -7.777935356441916e-13 -1.271698090848647e-12 -3.846838604308067e-13 1.539532555951297e-12
6360 8 -0.0001084174655521848 -0.01001078899776216 0.08506412124817886 4 0 0 0 0
6361 8 -0.0001943312200322196 -0.009852896247676065 0.09553151719283101 4 0 0 0 0
6362 8 0.0006642872119305835 -0.008996604386543448 0.03105806308002863 4 0 0 0 0
6363 8 3.72992997264445e-05 -0.00924413667657675 0.03011351065759908 4 0 0 0 0
6364 8 0.0007794011101633207 -0.009033825179512255 0.05496079788015203 4 0 0 0 0
6365 8 -0.0001536941743027853 -0.008465582771799996 0.09516404709261732 4 0 0 0 0
6366 8 -0.0009343997387597198 -0.008811735976787374 0.02995230755039095 4 0 0 0 0
6367 8 -0.0007704723622669978 -0.009688766280259902 0.06127898702691437 4 0 0 0 0
6368 8 0.0004590663145379673 -0.009860719597512869 0.01998981659771352 3.999999999948913 1.097512682477698e-09 -4.640665568669534e-09 -4.191176126645379e-09 6.348721787336131e-09
6369 8 0.0008296645111881707 -0.008928809270791784 0.06690352643441122 4 0 0 0 0
6370 8 -0.0007841726628818332 -0.009592936551990386 0.08801899075044069 4 0 0 0 0
6371 8 0.0002049324033304848 -0.008148828355213539 0.004237587369528321 1.593860693568052 -0.0006455794017038552 0.002904151878866812 -39.48786787760424 39.487867989675
6372 8 0.0003343342129043545 -0.008184440604438585 0.009318328512304977 3.999998602209369 6.113749313563424e-05 -5.999754537506133e-06 7.381094551606631e-05 9.603044204519605e-05
6373 8 0.0002765296324819361 -0.008689489630203349 0.02737467521633796 3.999999999999999 9.832941277309268e-15 -1.369708399678733e-14 -1.690354273375161e-13 1.698742845146221e-13
6374 8 0.0001948405630808571 -0.008146347716615102 0.09576720152473298 4 0 0 0 0
6375 8 -0.0007176193704495873 -0.009683244111381033 0.0358183548202766 4 0 0 0 0
6376 8 0.0002620447678389633 -0.008413375759838193 0.09434435909252641 4 0 0 0 0
6377 8 -0.0006933530604268711 -0.009758610631409531 0.07457980574059889 4 0 0 0 0
6378 8 0.0001584772061075439 -0.009849470119690012 0.02814017019099063 4 3.205750223470576e-14 -7.532892016722758e-14 -5.561678845183997e-14 9.897149499116112e-14
6379 8 0.0002282361563642209 -0.009634851206463981 0.0939224925974395 4 0 0 0 0
6380 8 -0.00102928564200175 -0.009106569201036103 0.08395060666262691 4 0 0 0 0
6381 8 0.0001580673425627406 -0.009849532070920385 0.02985793996193533 4 0 0 0 0
6382 8 0.0002007953954022006 -0.009852231624367528 0.004251805066994186 1.59768238520225 0.0002659352409757685 -0.001753153475119606 -37.74194713956765 37.74194718122248
6383 8 -0.0008295508499703782 -0.009383586658682334 0.09467357898042812 4 0 0 0 0
6384 8 -0.0008150822299643229 -0.008631811856091 0.09471228963598775 4 0 0 0 0
6385 8 -0.0009134444484544758 -0.008999698477604678 0.09446372196398213 4 0 0 0 0
6386 8 -0.001005362019988179 -0.009276098433966507 0.06525513263182078 4 0 0 0 0
6387 8 0.00045778475288601 -0.009864479870205015 0.08604040230906834 4 0 0 0 0
6388 8 0.0008386858458435436 -0.009559852450408964 0.0451764394241994 4 0 0 0 0
6389 8 -0.0005895524974423568 -0.008330030688496078 0.09438915715705851 4 0 0 0 0
6390 8 0.0002806955604850517 -0.009627287037332496 0.09442955624461445 4 0 0 0 0
6391 8 0.0008272493941408996 -0.009560546934583589 0.01476753322614703 3.999999994674417 -6.730460194451662e-07 4.878605102805608e-07 2.493313309682754e-07 8.67850755824182e-07
6392 8 -0.0006305934235478873 -0.008175263278430055 0.05723345409833248 4 0 0 0 0
6393 8 -0.0005024875759213432 -0.008206845506748814 0.0751851750891275 4 0 0 0 0
6394 8 0.0001959702383030296 -0.009853392237030006 0.09576666088736979 4 0 0 0 0
6395 8 8.510942322640428e-05 -0.0100756930187728 0.06848285653692754 4 0 0 0 0
6396 8 -0.0002406602118425141 -0.008165427548099595 0.09460135939277624 4 0 0 0 0
6397 8 -0.0005865000000244999 -0.009686646869822971 0.09443618429095009 4 0 0 0 0
6398 8 0.0007432477117977445 -0.009786487652653952 0.06771826435843045 4 0 0 0 0
6399 8 -0.000227265334769344 -0.009871113386249816 0.09469441255007567 4 0 0 0 0
6400 8 -0.0007074580709124376 -0.008995696896498111 0.004684576518038652 2.38675514693061 8.560954547220341 -0.2087213596249128 -58.88399554636045 59.50343216041688
6401 8 -0.001019821618052588 -0.008986463023095101 0.005078131877883847 2.941186693284831 -4.721428062021984 1.894305045041964 -50.12494062518395 50.38243689249991
6402 8 -3.971830678717889e-05 -0.008756737641309806 0.004722190911789556 2.372782998657077 2.462499898653224 -1.23845923690643 -62.48903981468147 62.54980242968951
6403 8 -0.000319465446729741 -0.00929894121003756 0.004759723533576622 2.442380844187285 4.122816395381513 -0.4791378487419571 -63.96976221470296 64.1042718226622
6404 8 -0.0003520818539273296 -0.008747503767906796 0.005115746271634749 2.927214545011299 2.407317365586024 -0.8556370668443417 -48.70915564520269 48.7761123436195
6405 8 -0.0006318289938698916 -0.009289707336634551 0.005153278893421816 2.996812390541507 9.137909818142552 2.775555957735746 -39.59594710840553 40.73136548325721
6406 8 -0.0004052771424322363 -0.008927519412746894 0.06071074213808931 4 0 0 0 0
6407 8 -0.0002006469345926517 -0.009464917913806537 0.0605419404883548 4 0 0 0 0
6408 8 -0.0002606995951366371 -0.008404307559390938 0.02023618313599426 3.999999999967631 -1.562713296179049e-09 7.009557426423434e-10 -3.391220110275362e-09 3.799182232472418e-09
6409 8 -0.0008848428739011551 -0.009185530478118202 0.02021709039518044 3.999999999947697 -1.98669667941098e-10 7.975949632156257e-11 -3.380268093829423e-09 3.387040537161386e-09
6410 8 -0.0003058357383530963 -0.009022342866143614 0.02013977333922352 3.999999999959218 -1.930307201832832e-09 -7.777092686931745e-10 -3.631852435511873e-09 4.185841577674972e-09
6411 8 -0.0004303776285443175 -0.008954883929667888 0.0414583044061344 4 0 0 0 0
6412 8 0.0001531851481007302 -0.008799380807135004 0.0415787286473723 4 0 0 0 0
6413 8 -5.683454189689538e-05 -0.00888351113691432 0.08584535011760694 4 0 0 0 0
6414 8 0.0002042074693270332 -0.008807948140058088 0.02050012111531307 3.999999999984031 -7.835763788919058e-10 -6.686649702163612e-10 4.846701476282922e-10 1.138424321575145e-09
6415 8 0.0001590713261105738 -0.009425983446810764 0.02040371131854233 3.999999999975617 -1.023913605716553e-09 -9.801921036606185e-10 -1.623509430976581e-10 1.426721227421391e-09
6416 8 -5.840749925702874e-06 -0.009457079016845719 0.01972587861839471 3.999999999932514 -1.827108007404667e-09 -1.243473088965193e-09 -4.924723345975123e-09 5.397911543189209e-09
6417 8 -0.0005875527100729704 -0.009615764777119496 0.01954048803876425 3.999999999888352 -5.238832726216686e-09 -3.032530355554056e-09 -5.672545054911406e-09 8.295744456685946e-09
6418 8 -0.0003909103028457193 -0.008967859388066671 0.07140078413210196 4 0 0 0 0
6419 8 0.000189076209390005 -0.008806282113142355 0.07158070185747711 4 0 0 0 0
6420 8 9.666858875567337e-05 -0.008879836135592633 0.05350815227668935 4 0 0 0 0
6421 8 -0.0006845963721998556 -0.008966309254635353 0.05895150648723497 4 0 0 0 0
6422 8 -0.0003960003825353685 -0.00942493966723181 0.0589023716116783 4 0 0 0 0
6423 8 0.0001019833646284997 -0.008820122187433763 0.06525359981620162 4 0 0 0 0
6424 8 -0.0001148569526662559 -0.00938267894131266 0.0653934455571336 4 0 0 0 0
6425 8 0.0001040310170045095 -0.009166145145662266 0.02904621621173072 4 0 0 0 0
6426 8 0.0004229976450510348 -0.009539505240275491 0.02900159062642082 4 0 0 0 0
6427 8 -0.0004219008422993113 -0.009394406161681459 0.02954020014882284 4 0 0 0 0
6428 8 -0.000102934214252786 -0.009767766256294684 0.02949557456351294 4 0 0 0 0
6429 8 -0.000746104277135325 -0.009028992083792192 0.03324768723841141 4 0 0 0 0
6430 8 -0.0004327042950995479 -0.00942559511532259 0.03306319024541682 4 0 0 0 0
6431 8 -0.0003018275313286294 -0.009574961752743721 0.06749416133815531 4 0 0 0 0
6432 8 0.0002660978770699361 -0.009394922560498183 0.0676304501255397 4 0 0 0 0
6433 8 -0.0003204618045503029 -0.008950995143211508 0.06727150063422016 4 0 0 0 0
6434 8 0.0002474636038482626 -0.00877095595096597 0.06740778942160455 4 0 0 0 0
6435 8 0.0003133274558242415 -0.008771660443166424 0.04605838772231321 4 0 0 0 0
6436 8 -0.0004421586278067778 -0.009533722711750823 0.04576845128842588 4 0 0 0 0
6437 8 -2.45992039875419e-05 -0.0092394120468629 0.04577237234933215 4 0 0 0 0
6438 8 0.0001473431866869642 -0.009072970831391938 0.08003342865545443 4 0 0 0 0
6439 8 0.0001048062285435164 -0.008806295731685607 0.04973815771040732 4 0 0 0 0
6440 8 -0.0004262048032987123 -0.009029699355119169 0.0495713728552833 4 0 0 0 0
6441 8 0.0002391918663487429 -0.009731781929678709 0.07233381158945879 4 0 0 0 0
6442 8 -0.0001561562431646225 -0.01003309976975802 0.07230880095782682 4 0 0 0 0
6443 8 -5.396434086992857e-05 -0.00928209716027098 0.07208717977735268 4 0 0 0 0
6444 8 -0.0004493124503832939 -0.009583415000350291 0.07206216914572072 4 0 0 0 0
6445 8 -0.0005743025863481732 -0.009221026944575141 0.01169188811816974 3.999999875711243 1.032545607925563e-05 -3.32033088439168e-06 -1.968413990146482e-05 2.24745412430804e-05
6446 8 5.037292431543487e-05 -0.009235264238626879 0.01179511277512307 3.999999825615186 7.832268999601142e-06 -3.224257510950605e-06 -2.388646053559211e-05 2.534370278979443e-05
6447 8 -0.000444322573330472 -0.008807651439338343 0.05410752208685757 4 0 0 0 0
6448 8 -0.000213548387744376 -0.009355209585248591 0.05390849438078449 4 0 0 0 0
6449 8 0.0003427922122217392 -0.009311290194831533 0.09146302880600343 4 0 0 0 0
6450 8 -0.0002476650763224778 -0.009454104745018644 0.09130602622314368 4 0 0 0 0
6451 8 -0.0003955132086319282 -0.009380693756668166 0.08419745695141331 4 0 0 0 0
6452 8 -0.0006656505189015442 -0.00886529102825258 0.08424426293251337 4 0 0 0 0
6453 8 -0.000422725170350723 -0.009201241364282367 0.0550072463273704 4 0 0 0 0
6454 8 -0.000639893704349126 -0.008652841001329825 0.0549131538023157 4 0 0 0 0
6455 8 -0.0001535067322962077 -0.009531471107820608 0.03130953313421676 4 0 0 0 0
6456 8 0.0003774825321200812 -0.009308046195747604 0.03151483919631237 4 0 0 0 0
6457 8 -0.0001818778969931918 -0.00927731740615223 0.03928940857540085 4 0 0 0 0
6458 8 0.0001534884591056424 -0.008808532643563389 0.0391677032955083 4 0 0 0 0
6459 8 -0.0004810550335905418 -0.008840679125136103 0.03962717335301708 4 0 0 0 0
6460 8 0.0004356468800805075 -0.009311665375033565 0.07550284008325901 4 0 0 0 0
6461 8 -9.145586599411179e-05 -0.009538825916011158 0.07532826713403917 4 0 0 0 0
6462 8 -0.0002123013060735944 -0.009235148438826656 0.01687208240714577 3.999999996033434 3.54438452676155e-08 -5.730131871423289e-09 -2.835449934394457e-07 2.858091389077576e-07
6463 8 -0.0004393326014166824 -0.009776365414329677 0.01689025310353135 3.999999996245237 5.435128045771028e-08 1.130171536185771e-08 -2.847669373020955e-07 2.901275564952918e-07
6464 8 -0.0001472415516967681 -0.009469350568015077 0.01556652277024737 3.999999990391171 3.451135528632116e-09 2.181649156745185e-08 1.962353776049941e-08 2.954577592461283e-08
6465 8 4.876632946636417e-05 -0.0088995457099212 0.01552239241693118 3.999999990342331 -5.761638939678539e-09 4.11286353744934e-10 5.741395986501654e-08 5.770379907005887e-08
6466 8 -0.0001822358847236837 -0.009536205406064893 0.02663529886493217 3.999999999999994 4.945057793685732e-13 -2.740413566511748e-13 -7.528226042638748e-13 9.414757057273326e-13
6467 8 0.0003462492418800089 -0.009310358831846936 0.02646347423698417 3.999999999999992 2.14542247990732e-14 -3.240422711093849e-13 -7.241144400732059e-13 7.936027970905785e-13
6468 8 -0.00053212311796601 -0.009031830063267229 0.01476440366222393 3.99999998976765 9.883959732876475e-09 3.452565813863968e-08 -1.310200830269036e-07 1.358527728325192e-07
6469 8 0.0005470108469626775 -0.008626532647168355 0.08525876990087375 4 0 0 0 0
6470 8 0.0008763299873870937 -0.008938579705342894 0.08490330880591773 4 0 0 0 0
6471 8 0.0005077903257773907 -0.008520611872208867 0.01068437918835333 3.999998333731101 3.717689880154012e-05 -6.443866718788146e-06 -9.266287093228425e-05 0.0001000502517348289
6472 8 0.0004312870913547843 -0.009114131722407154 0.01100279572297411 3.999998845211227 4.069655297346362e-05 3.660269622635648e-06 -9.266288007374714e-05 0.0001012719918891396
6473 8 9.946761069316498e-05 -0.008223165646356383 0.01112968804061421 3.999999106332308 3.62905419920554e-05 2.695393652867584e-05 -7.222645484074226e-05 8.52066834897991e-05
6474 8 2.296437627055872e-05 -0.00881668549655467 0.01144810457523499 3.999999617812435 1.719702139915238e-05 4.082471007731317e-06 -5.406469754751297e-05 5.688053828363377e-05
6475 8 0.0007382285921720033 -0.00901642900694747 0.008771473941661431 3.999999213884519 5.21263217370799e-05 3.005076930981259e-05 0.0001000849849225441 0.0001167784498993501
6476 8 0.0002191745583774531 -0.008781925955531927 0.009042485364638787 3.999999213884519 6.774883399751476e-05 2.371329282843457e-05 8.925347579823525e-05 0.0001145356176342367
6477 8 -0.0005834707933862651 -0.009154942591631269 0.02597146619137817 3.999999999999982 4.828233909663277e-14 -3.381045103056394e-13 -2.285451464115277e-12 2.310829772827138e-12
6478 8 4.07585683820586e-05 -0.009176875557949431 0.02591995439060754 3.999999999999981 -1.408786044823513e-13 -3.554629206404009e-13 -2.030696949179819e-12 2.066381080188096e-12
6479 8 -0.0008874347675823624 -0.009516665245406942 0.0862273582780477 4 0 0 0 0
6480 8 -0.0005979273604114241 -0.009684266791130141 0.08650512961921542 4 0 0 0 0
6481 8 0.0007025492634709313 -0.008998052649852555 0.0570640233574192 4 0 0 0 0
6482 8 0.0003005895921881667 -0.008698631178989192 0.05666331490134727 4 0 0 0 0
6483 8 -0.0003097197982468448 -0.008630518127721459 0.01803224330785838 3.999999998923782 -1.07108664563138e-08 2.05401999885052e-08 -1.022940173135027e-07 1.048841668410822e-07
6484 8 1.683991808840227e-05 -0.008302787213583103 0.01763786085886347 3.999999997996653 6.543372387303434e-09 5.701475201421543e-08 -1.334670540133006e-07 1.452823188706414e-07
6485 8 0.0001023895995615033 -0.009212100511637594 0.03202641357618495 4 0 0 0 0
6486 8 -0.0005125467956521439 -0.009133433639002573 0.0320488654642419 4 0 0 0 0
6487 8 8.919427937006442e-05 -0.00858840880251344 0.03231963745990121 4 0 0 0 0
6488 8 -0.0005257421158435828 -0.008509741929878419 0.03234208934795817 4 0 0 0 0
6489 8 -0.000141429428205064 -0.009367658229334417 0.05774998834268752 4 0 0 0 0
6490 8 -0.0001362506395683662 -0.008745266505615797 0.05774296482131318 4 0 0 0 0
6491 8 5.509408222310015e-05 -0.008515490379915332 0.00741340623874603 3.987924992461791 0.468567017189398 0.4212179418346852 -1.820385777233426 1.926339529282146
6492 8 0.0005999928224611239 -0.008724409205146041 0.007497787436702254 3.987924992461791 0.410646949055616 0.4264147586641276 -1.82449560405078 1.91813572835081
6493 8 -0.0003071529006699019 -0.009005645538531922 0.007665047580779357 3.997912679186047 0.1169926515356054 -0.07226065706201908 -0.3088546245431996 0.338082922038495
6494 8 0.00078293666097344 -0.008981371309260024 0.08089424770884765 4 0 0 0 0
6495 8 0.0004944612113721247 -0.009292946454254198 0.08127529628863367 4 0 0 0 0
6496 8 -0.0007704700657252373 -0.008646580954170991 0.08348687626779468 4 0 0 0 0
6497 8 -0.0004068349426250316 -0.008405302781387467 0.08378053253768111 4 0 0 0 0
6498 8 0.0005964416805181066 -0.009255783964583228 0.04696553149960252 4 0 0 0 0
6499 8 0.0008864473089126299 -0.008944094610825236 0.04662191202416051 4 0 0 0 0
6500 8 0.0002435191690970192 -0.008703458892119622 0.03056363377569237 4 0 0 0 0
6501 8 -0.0003752140394815221 -0.008641189542005046 0.03072176110801756 4 0 0 0 0
6502 8 -0.0001696657317669239 -0.008367408355130564 0.04000418166984405 4 0 0 0 0
6503 8 0.000186426381276947 -0.008187103757894311 0.03961250674382078 4 0 0 0 0
6504 8 -0.0009271151184323711 -0.009563234466305618 0.09355185583128232 4 0 0 0 0
6505 8 -0.0006203398572980458 -0.009755265151863946 0.09330302044323296 4 0 0 0 0
6506 8 -0.0007013871854797999 -0.009406210156255619 0.09400431348545757 4 0 0 0 0
6507 8 -0.0003946119243454746 -0.009598240841813949 0.09375547809740822 4 0 0 0 0
6508 8 0.0002752763376378706 -0.008629398159244883 0.02874885251145359 4 0 0 0 0
6509 8 -0.0001454917051956937 -0.008336252664821056 0.02925442320711733 4 0 0 0 0
6510 8 -0.0005178022536836554 -0.009175017707584929 0.02776083381528858 4 3.181753052503158e-14 -1.906285194580154e-14 -9.338940546859782e-14 1.00485464753849e-13
6511 8 0.0001027201717864763 -0.0092277285737085 0.02784439711713432 4 5.341472464522701e-15 -1.630741585064408e-14 -1.517764657735022e-13 1.527434407839177e-13
6512 8 0.0007213091512670215 -0.00900031992972862 0.07504576135706917 4 0 0 0 0
6513 8 0.0004335387033895759 -0.008688799947621825 0.07464616686284015 4 0 0 0 0
6514 8 -0.0006446077824582259 -0.00903143305223069 0.08556129946076679 4 0 0 0 0
6515 8 -0.0009047960492058345 -0.009488128464601992 0.08567806702464309 4 0 0 0 0
6516 8 -0.0001691184985042149 -0.009188825057373553 0.05312311734735824 4 0 0 0 0
6517 8 -0.0004318791685566041 -0.009722687148573057 0.05320365843154828 4 0 0 0 0
6518 8 -0.0002402928471367275 -0.008570732529438206 0.01455883912648998 3.999999990954014 -2.780138692568451e-07 -1.347977233784641e-08 1.506627638250415e-07 3.165006858836842e-07
6519 8 0.0003617342318999838 -0.008688334912511298 0.01454427304515229 3.999999993382847 -2.331829605749922e-07 -1.394179603576561e-08 1.504161217953601e-07 2.778375001240434e-07
6520 8 -7.010063780598611e-05 -0.009130916990142478 0.01421279167296649 3.999999993354269 -2.928931080984546e-07 1.358191837707122e-07 4.423387914244161e-07 5.476283683763366e-07
6521 8 0.0005319264412307252 -0.00924851937321557 0.01419822559162881 3.999999995783102 -9.023560641716975e-08 2.260292922142877e-07 6.216767401516617e-07 6.676179108217236e-07
6522 8 -0.000350924168906043 -0.008978850524626374 0.01378542917657855 3.999999993151928 -3.52282064126199e-07 5.474294069407716e-08 3.722855476799857e-08 3.584486121481914e-07
6523 8 -0.0004590878384928655 -0.009589839094366037 0.01384059901715041 3.999999992613451 -4.471837431963519e-07 -6.820682358373858e-08 2.04694227962498e-07 4.965130390268187e-07
6524 8 -3.779548167824579e-05 -0.009408060375663239 0.01342978262162639 3.999999993416266 -1.63658419933201e-07 4.332772215812159e-08 -4.112636919557662e-07 4.447462132986977e-07
6525 8 -0.0002690624116887308 -0.008929190470189308 0.04623468669159014 4 0 0 0 0
6526 8 -0.0004457811943863627 -0.009527674089636206 0.04612648593826018 4 0 0 0 0
6527 8 -0.0004216699204274115 -0.008894484765049131 0.08008975238308991 4 0 0 0 0
6528 8 -0.000388882375922026 -0.008965672478601265 0.08037514806621561 4 0 0 0 0
6529 8 -7.640019790390487e-05 -0.008675015594125741 0.01000940976464689 3.999998392027821 7.585711704364115e-05 7.891600635055233e-06 2.577012024463505e-05 8.050266246639813e-05
6530 8 -0.0001499675271809086 -0.009690357244551695 0.01003635375021414 3.999998670025165 8.215978984835791e-05 1.260263421389146e-06 1.057857511778068e-05 8.284760457213084e-05
6531 8 -0.0004213604572035677 -0.009184832204716727 0.01015179863603345 3.999998877861556 7.637156676090258e-05 1.819634923863786e-05 1.49589541667119e-05 7.9921797057444e-05
6532 8 -0.0001782643073928086 -0.009741905559882141 0.01426796151353835 3.999999992815792 -4.525432400534376e-07 -7.475679349911153e-08 2.626794552217012e-07 5.285683101434494e-07
6533 8 -0.0006426669252742494 -0.009642678497679517 0.01438668518860704 3.999999990243349 -2.351737933479436e-08 1.405593736836457e-07 1.054239429151226e-07 1.772687575431338e-07
6534 8 -6.225416043199991e-05 -0.009526814263682555 0.007999428778735581 3.997912679186047 0.1344390284191037 -0.1030041534886005 -0.2221735737347685 0.2793650029338935
6535 8 0.0004870140173365686 -0.009322860641512828 0.008087283462957624 3.998390361709053 -0.1310697222237577 -0.07556155613499857 -0.2516600200323612 0.293635124826789
6536 8 0.0008319264412318095 -0.008936269473295606 0.01344822559162881 3.999999939780803 7.484008754626139e-07 -7.517476060929523e-07 -7.353807442015515e-06 7.429920068742494e-06
6537 8 0.0005430280494228954 -0.009247876941259382 0.01310714511801433 3.999999937616309 7.796936698249611e-06 1.873402708849111e-06 -4.422538479346606e-06 9.157549136495864e-06
6538 8 -0.0007053444422484204 -0.009371731526928455 0.08028090684435438 4 0 0 0 0
6539 8 -0.0005632342981261662 -0.00984102373498533 0.08027316554000888 4 0 0 0 0
6540 9 -0.0004575250442297251 0.008693462676706426 0.03772336651879354 4 0 0 0 0
6541 9 -0.0005177475392772688 0.008211181233282844 0.03754573623012104 4 0 0 0 0
6542 9 -0.0004282301874373651 0.008449835406385104 0.0952098292807822 4 0 0 0 0
6543 9 3.910505226797619e-05 0.007947666040112995 0.03694725659179621 4 0 0 0 0
6544 9 -0.0002878071468208511 0.008508170694569703 0.0382404404735896 4 0 0 0 0
6545 9 -0.0007787954734623106 0.00880046315944282 0.03802163908966724 4 0 0 0 0
6546 9 -4.582499389708237e-05 0.008325072074510616 0.02567804479061431 3.999999999999995 -3.438057284141265e-14 1.297406872098649e-13 -7.043469326697645e-13 7.170211093600366e-13
6547 9 -0.0004446272090937723 0.009541288716583914 0.09519644891737197 4 0 0 0 0
6548 9 -0.0002922125959757062 0.009388833791938863 0.00605398894726513 3.722799813652553 1.618083362957271 -4.14055981207658 -30.18252841441697 30.50815384145607
6549 9 -0.0001690217119549242 0.009684517364513076 0.006580316459402135 3.899784530882259 3.240114083081636 -0.6357562432158039 -10.01221210941092 10.54262380036423
6550 9 0.0004116542837271754 0.009210717452976717 0.02530642606983502 3.999999999999985 5.160408849765356e-13 2.387573715071376e-13 -1.71286696053411e-12 1.80477602541305e-12
6551 9 -0.0001652098314246217 0.008999899538209843 0.09521410665700725 4 0 0 0 0
6552 9 -0.0006889779233892591 0.009490695402867181 0.03860819761573712 4 0 0 0 0
6553 9 -0.0005192256336987565 0.008885701199887255 0.03163792992178285 4 0 0 0 0
6554 9 -0.0007212907386123711 0.00841678281987578 0.03150560865431405 4 0 0 0 0
6555 9 -7.906614221190404e-05 0.008876880166366631 0.02540858706269083 3.99999999999999 -1.351731426366139e-14 1.604775963778437e-13 -7.917385386276521e-13 8.079515395568988e-13
6556 9 -0.0003510929802987285 0.008359205114156741 0.01497797979769625 3.999999993053974 -1.708875518659697e-08 3.350559134973305e-08 -2.40677304213211e-07 2.435984707851452e-07
6557 9 -0.0003843272579779026 0.008219542576470926 0.06452298027221695 4 0 0 0 0
6558 9 -0.0007014948638421168 0.008842765881128013 0.09420105267202605 4 0 0 0 0
6559 9 -0.0006643536220739484 0.008860257602242128 0.01468453364558085 3.999999992266245 3.364142088058397e-08 1.071532591353474e-08 -7.245617980079565e-08 8.060062902746533e-08
6560 9 0.0007880564579459664 0.008716085032942866 0.02527065273103719 3.999999999999981 1.044501873728343e-12 4.035357725142141e-14 -2.121085965163015e-12 2.364660281526825e-12
6561 9 -0.000473912944268395 0.008140692501358453 0.09471515606273403 4 0 0 0 0
6562 9 -0.0004513719906874475 0.008452511110959373 0.01450399350600249 3.999999991742601 -3.90135182555332e-08 -7.001569447548413e-08 -2.174761477152246e-07 2.317760274588667e-07
6563 9 -0.0008254396361321638 0.008292701749303273 0.09444100774305184 4 0 0 0 0
6564 9 -0.0007819154883920416 0.008286933987856749 0.0538094411032785 4 0 0 0 0
6565 9 -0.000774605539081257 0.008748587724243091 0.02344569301875762 3.999999999999814 6.032754245155696e-12 2.400897463386978e-13 -1.478097310368341e-11 1.596649406602944e-11
6566 9 -0.0003888229617786628 0.009279865839827742 0.0247031688935076 3.99999999999997 4.289413784648671e-13 1.7822505493734e-13 -2.747574370135956e-12 2.786560567401103e-12
6567 9 -0.0001487839133948645 0.008827546028878515 0.01511187207104281 3.999999993167195 1.120587315818421e-08 5.968978992953404e-08 -2.288271485240109e-07 2.367494593799507e-07
6568 9 -0.0005647388886229639 0.008835601078091768 0.06496643237710983 4 0 0 0 0
6569 9 -0.0008791421983979638 0.009284143544970194 0.03183116934301697 4 0 0 0 0
6570 9 -0.0006102334504152427 0.008337234174737085 0.06235311652954578 4 0 0 0 0
6571 9 -0.0004870452241032559 0.0091063958523871 0.02395115505566132 3.999999999999885 3.48701565019162e-12 1.855834518119352e-12 -5.513285118013409e-12 6.782308802747978e-12
6572 9 4.069145635049901e-05 0.008485628305717282 0.06127360702399297 4 0 0 0 0
6573 9 -0.0008390179685098544 0.008318181716019238 0.03784400880099474 4 0 0 0 0
6574 9 -0.0002152494168682368 0.009127095208817175 0.03845607310651546 4 0 0 0 0
6575 9 0.0003026168063783322 0.009415572794047904 0.00651980111518736 3.884055744943622 0.1210121297220577 2.334241214657931 -10.40568582723291 10.66497180112651
6576 9 -0.0002875491991739158 0.008541061717248936 0.05395726448175084 4 0 0 0 0
6577 9 -0.0005332466415844418 0.008329294131055928 0.01539819570321572 3.999999994355525 -3.919063623221584e-08 2.000221595991096e-08 -1.727552846546802e-07 1.782705331447472e-07
6578 9 0.0006072585007916726 0.008727812737040734 0.02456185202439856 3.999999999999925 2.861056080085602e-12 2.66306663741955e-13 -1.095049572513391e-11 1.132121538346145e-11
6579 9 8.583146863903437e-05 0.00901272881376076 0.02445334651654434 3.999999999999924 2.319611758424593e-12 7.055786185602979e-13 -1.17416871037833e-11 1.198939764708562e-11
6580 9 -0.0003875237946108851 0.0087796870222724 0.05912826750081367 4 0 0 0 0
6581 9 0.0001794259223575503 0.009119889221473691 0.005993473603050354 3.707071027713917 -5.379188673890538 2.036446193315016 -33.13318479709533 33.62871865959286
6582 9 -0.0006827246347999856 0.009271433693062221 0.02851514476894008 4 0 0 0 0
6583 9 -9.384359377978695e-05 0.00855026461567319 0.0652366053962489 4 0 0 0 0
6584 9 -0.0003695182924018336 0.008599334867914778 0.02418280172822867 3.999999999999913 3.503094310710905e-12 1.755344603573056e-12 -5.364210964771776e-12 6.642865624232203e-12
6585 9 -0.0008795433877177422 0.008946028553217657 0.02480532988636341 3.999999999999975 -6.797925260714296e-14 -5.205951171585414e-14 -1.91335449689285e-12 1.915269381138123e-12
6586 9 -0.0003309375746805779 0.008797635045777701 0.01553208797656228 3.999999994468746 -8.369955357443328e-09 4.899404448684257e-08 -1.546280129009965e-07 1.624201185862609e-07
6587 9 0.000175791364015412 0.008212106492950271 0.06403814446581335 4 0 0 0 0
6588 9 -0.0006254118800188898 0.008250830575440496 0.05307777443059875 4 0 0 0 0
6589 9 -0.0004703713457317383 0.008852213642762972 0.05879676939233891 4 0 0 0 0
6590 9 -0.0001475269401870508 0.008748960391531901 0.06470390125823275 4 0 0 0 0
6591 9 -0.0005141650009551191 0.009845953689140735 0.09471941799485412 4 0 0 0 0
6592 9 -0.0004720428612711228 0.008317735946822004 0.06576113048940513 4 0 0 0 0
6593 9 -0.0005301304766094727 0.008275201587389208 0.05650764362160159 4 0 0 0 0
6594 9 -0.0001818600865361112 0.00856575347343343 0.06975278032248435 4 0 0 0 0
6595 9 -0.0005541507352434763 0.008780235705762428 0.07040925636576706 4 0 0 0 0
6596 9 -0.0004951000480837071 0.008885977626358607 0.04873759671222179 4 0 0 0 0
6597 9 -0.0005231256238653252 0.008293411170206846 0.06313093759620955 4 0 0 0 0
6598 9 -0.0003212907590809423 0.008169322313232133 0.02282943411315418 3.999999999999242 3.711712862471879e-11 5.798173687728994e-12 -6.451958504918157e-11 7.46597408941095e-11
6599 9 -0.0005266051558257995 0.008934780101944109 0.06922329293451304 4 0 0 0 0
6600 9 -6.218249143725638e-05 0.008531893706576735 0.06431306500795805 4 0 0 0 0
6601 9 -0.0001436342407103516 0.007948526363009644 0.03087658726566044 4 0 0 0 0
6602 9 -0.0009209765323077915 0.009182646668754417 0.07013574816020128 4 0 0 0 0
6603 9 -0.0002847448132262048 0.008572029958439347 0.06377168576523218 4 0 0 0 0
6604 9 -0.0006101284155662637 0.009111048730084823 0.02608301611767959 3.999999999999997 -1.631546679206056e-13 1.318260405467603e-13 -5.894351343279506e-13 6.256447300271364e-13
6605 9 -0.0005105820253746154 0.008899871988133249 0.05675746472649365 4 0 0 0 0
6606 9 -0.0008063485040547857 0.009294976976162404 0.04838580250547768 4 0 0 0 0
6607 9 0.0003233683546561262 0.008463623929113324 0.06497407427737181 4 0 0 0 0
6608 9 -0.0001381113489122277 0.007951458622873985 0.0147974396581179 3.99999999253033 -4.278557228796187e-08 -3.67553466111894e-08 -2.566866438901047e-07 2.628109469791594e-07
6609 9 -0.000296036960917828 0.009176501408006819 0.06998238610736554 4 0 0 0 0
6610 9 -0.0001774957681947668 0.007933805751740812 0.0654830417040384 4 0 0 0 0
6611 9 0.0004597417514786066 0.008175248415297156 0.02591921990566505 3.999999999999997 8.194571755213468e-14 -4.083839887555041e-14 -5.596879997128569e-13 5.671274393559456e-13
6612 9 -0.0006437928383935986 0.008272236252184484 0.05894603898094199 4 0 0 0 0
6613 9 -0.0005174010614828959 0.008890841856886073 0.04139948734657638 4 0 0 0 0
6614 9 -0.0007605265182842072 0.008402010746540033 0.06946822906751128 4 0 0 0 0
6615 9 -0.0004899279103829324 0.008881561345046573 0.01944683762887613 3.999999999878047 1.317788524392303e-09 -4.368673520157684e-10 -1.005596517033399e-08 1.015134745663095e-08
6616 9 -0.000700370006414962 0.009192627721309483 0.01578560294908354 3.999999994798872 1.580084862486132e-10 4.576713749215579e-08 -1.693116008314159e-07 1.753883519992258e-07
6617 9 -0.0005519532780990732 0.008968995531634317 0.04904079586331321 4 0 0 0 0
6618 9 -0.0001227902377567515 0.00847930564406061 0.01911774620623598 3.999999999748511 1.155382510430477e-08 -4.727333410623537e-09 -2.319438781111399e-08 2.634042865346755e-08
6619 9 -0.0004886809310273324 0.008886473525774732 0.03527374806421248 4 0 0 0 0
6620 9 5.085140388622928e-05 0.008353931683928522 0.06764237451451297 4 0 0 0 0
6621 9 -4.86221675664162e-05 0.008582315869842408 0.06889976765999266 4 0 0 0 0
6622 9 -5.5222036369809e-05 0.008534324164482085 0.06215027617626194 4 0 0 0 0
6623 9 -3.22605333570932e-05 0.008230865096430021 0.02396631517147348 3.999999999999862 5.314507447955691e-12 -3.054820341844381e-12 -1.044259529210519e-11 1.210882790240328e-11
6624 9 0.0003427990540157501 0.00870998374899809 0.0633510383891879 4 0 0 0 0
6625 9 -0.0005339858837276725 0.008293350605746526 0.04643034107480147 4 0 0 0 0
6626 9 7.937644216790322e-05 0.008169004569069615 0.03607992795136863 4 0 0 0 0
6627 9 -0.0002938805936063952 0.008332568243754123 0.03250614526653544 4 0 0 0 0
6628 9 -0.0002060905099613016 0.009206873522143945 0.05563433339105681 4 0 0 0 0
6629 9 -0.0002256389611966795 0.008582203121399925 0.05588451228616474 4 0 0 0 0
6630 9 -0.0002779732582881302 0.008788002397818909 0.05650017889510753 4 0 0 0 0
6631 9 -0.0007876643228073932 0.009385030845865739 0.004525800515121151 2.157656039430992 1.591794780079926 3.311442367871101 -63.56575013670184 63.67184661700359
6632 9 0.0001521395715568765 0.008812850193195236 0.05848740021695691 4 0 0 0 0
6633 9 0.0003408836033287848 0.00932279702656468 0.03831629094773015 4 0 0 0 0
6634 9 -0.0001808323986494565 0.007955192457866307 0.0300275397996699 4 0 0 0 0
6635 9 0.0005165505661835608 0.008752030353822302 0.06082283722797473 4 0 0 0 0
6636 9 -4.111048176682743e-05 0.008932569600662729 0.02593682281328998 3.999999999999996 -1.798556649994322e-14 1.013978710991965e-13 -7.474694216440233e-13 7.545300160753207e-13
6637 9 -0.0001402392914847728 0.008486335948917198 0.03493787532268319 4 0 0 0 0
6638 9 -0.0002825163469568082 0.008817169634686961 0.02834759882966564 4 0 0 0 0
6639 9 0.0002720033788256887 0.008774156728806975 0.06667722588136889 4 0 0 0 0
6640 9 -0.0004293623845246202 0.00828488909460841 0.04718499153141197 4 0 0 0 0
6641 9 7.40004420871914e-05 0.008467010631112932 0.0592844809238548 4 0 0 0 0
6642 9 0.0001472901685753784 0.008999899538209842 0.09471410665700725 4 0 0 0 0
6643 9 -9.254389044046783e-05 0.009556331626994138 0.02390840514303941 3.99999999999987 1.369330642893467e-12 -7.163341725126039e-12 -1.304002103611893e-11 1.494090625440515e-11
6644 9 -0.0003612925588355517 0.008337041990063963 0.01782765124628483 3.999999998943255 2.369269676141058e-08 -1.163148416277871e-09 -7.137870600199875e-08 7.521712879780918e-08
6645 9 -0.0001463891079589979 0.008485448957662109 0.04109644642219439 4 0 0 0 0
6646 9 2.202674171347051e-05 0.009100252297738894 0.05625017889510753 4 0 0 0 0
6647 9 -0.0002681142098202669 0.00880275105987178 0.0631780972429257 4 0 0 0 0
6648 9 -0.0005227186686788733 0.008891817172065811 0.06404660630737688 4 0 0 0 0
6649 9 -5.07465992604269e-05 0.008468728736585079 0.05271159830256633 4 0 0 0 0
6650 9 -0.0001449974529896365 0.009436336091870839 0.0308055281280542 4 0 0 0 0
6651 9 -0.0004549646854866829 0.008408661671629649 0.06846545730512421 4 0 0 0 0
6652 9 4.097175567517655e-05 0.00841876936870372 0.04446173027612155 4 0 0 0 0
6653 9 -0.0007645990714281709 0.008353821809777605 0.01688324751781694 3.999999997576762 -3.095633321061747e-09 3.342962797129023e-08 -1.035125462978764e-07 1.088208170022048e-07
6654 9 -0.0002337840443058933 0.009246202287395656 0.05051860260208949 4 0 0 0 0
6655 9 -0.0004895283595063992 0.008267277078314393 0.01838673077153059 3.999999999420521 3.71302698490487e-09 -1.524389748711501e-08 -4.413531537192765e-08 4.684110420312288e-08
6656 9 -0.0005567530782318349 0.008470752625627197 0.06017603663534685 4 0 0 0 0
6657 9 3.206961988299894e-05 0.008386091660626371 0.09445223191422611 4 0 0 0 0
6658 9 2.54856670979703e-05 0.009101977370937608 0.04169996801272041 4 0 0 0 0
6659 9 5.206127592229647e-05 0.009098522828837507 0.06950784418948611 4 0 0 0 0
6660 9 -0.0008052897125921865 0.009299335347019167 0.03951183428020844 4 0 0 0 0
6661 9 7.407610642124576e-05 0.00883188069030766 0.05070201783630661 4 0 0 0 0
6662 9 0.0001023342970890591 0.008794200723580939 0.05538433339105712 4 0 0 0 0
6663 9 5.576606004950186e-05 0.009156604307909422 0.06063259467072153 4 0 0 0 0
6664 9 -0.0007518850026515125 0.008364220455462878 0.03278549001065578 4 0 0 0 0
6665 9 -0.0001618512985125613 0.009130066241853939 0.06641977304814781 4 0 0 0 0
6666 9 -0.0004860184679643728 0.008191502578426178 0.04444354899634246 4 0 0 0 0
6667 9 -0.0003639946333848442 0.008766038425917229 0.06803743760120229 4 0 0 0 0
6668 9 -0.0001217209506492385 0.00931914672565653 0.02278285496640414 3.999999999998944 3.273467033193652e-11 2.003895700182723e-11 -1.131472889876927e-10 1.194798202406e-10
6669 9 6.994706920889306e-09 0.00960723909770215 0.09447377599080381 4 0 0 0 0
6670 9 -0.0006158898292495908 0.008874392597654308 0.02742731624660719 4 0 0 0 0
6671 9 -0.000861438370958438 0.009383247843206552 0.04939818182927289 4 0 0 0 0
6672 9 -0.0007875283406639825 0.008616921324846358 0.09544652953709662 4 0 0 0 0
6673 9 8.718266283238107e-05 0.008779521337247652 0.03184481893156834 4 0 0 0 0
6674 9 -0.0004932722097008822 0.009810823943442456 0.02309215700532445 3.999999999999345 -1.090588678570444e-11 6.844156256000479e-11 -8.255198625134786e-11 1.077869022018927e-10
6675 9 -0.0004684463062448729 0.008897080707490313 0.03453249398917896 4 0 0 0 0
6676 9 -1.546991927170251e-05 0.008535161645946544 0.005983303295963321 3.703763898894978 -5.372407512890611 2.01968670839771 -33.11333821774052 33.6070686732288
6677 9 -0.0007903119598993874 0.008440959883831185 0.04883394884704627 4 0 0 0 0
6678 9 8.278584585368131e-05 0.008169530322836918 0.05563451228616505 4 0 0 0 0
6679 9 -7.435163008164913e-05 0.009484377692518746 0.02566736508536649 3.999999999999992 1.879100179880895e-15 1.448843278553987e-13 -8.376000172389469e-13 8.500404627747322e-13
6680 9 7.078883614648713e-05 0.008774090445014829 0.07025589431293131 4 0 0 0 0
6681 9 -0.0002039733392570399 0.008566908258492845 0.02144063010082321 3.999999999993089 -2.667340765444021e-11 5.023202988851209e-11 -5.762259257799954e-10 5.790259450522343e-10
6682 9 -0.0005565674563078021 0.009607526763471338 0.006927372108059032 3.950925234072641 -0.9398071997473623 1.283643119157745 -6.111079372507386 6.31476589646388
6683 9 0.0005311401764892579 0.008156318340530287 0.03618872594391834 4 0 0 0 0
6684 9 0.0003250110663714099 0.009589760086454895 0.02423481192811951 3.999999999999899 2.829937684036338e-12 -4.004950702360276e-12 -6.182651752052729e-12 7.891347167057455e-12
6685 9 -0.0009243809468679149 0.009191071157614283 0.02197992549341947 3.999999999995436 -1.4888278123693e-10 4.913482091320664e-11 -3.630609096972619e-10 3.954662277934992e-10
6686 9 -0.0005647315522308673 0.009846528105597425 0.01238222733165707 3.999999989096044 -3.542871244862175e-07 9.329302205074771e-07 -2.375510140517288e-07 1.025820962541635e-06
6687 9 0.000330451548762791 0.008687579499175847 0.05650017889510783 4 0 0 0 0
6688 9 -4.751916791902868e-05 0.009101431036898807 0.06347859086268189 4 0 0 0 0
6689 9 -0.0001152135539854585 0.00899343122011868 0.09421190124802267 4 0 0 0 0
6690 9 4.628889871387758e-05 0.008591602571524956 0.02669357407158364 4 8.672252591737331e-15 3.231878735780917e-15 -2.102718424952568e-14 2.297379991732297e-14
6691 9 4.784883892039937e-05 0.009098140744397765 0.01970939372856229 3.999999999920524 8.706853511722553e-11 -1.174019661485131e-09 -1.221107948816608e-08 1.226769600869175e-08
6692 9 -0.00021799779916059 0.009208974520911267 0.05823378820722172 4 0 0 0 0
6693 9 -0.0003469915351111731 0.008713188558989966 0.06703894980224084 4 0 0 0 0
6694 9 -0.0001928050674544793 0.008572344491182556 0.02003464051948409 3.999999999961912 -3.603813413910779e-11 -1.941217155568573e-09 -5.430727034477025e-09 5.767358053319179e-09
6695 9 -0.0006433695638810854 0.009662856821940837 0.0258135583897561 3.999999999999992 -2.294079293530741e-13 2.66156049357746e-13 -6.904682377795922e-13 7.747344242011215e-13
6696 9 -0.001018277314929911 0.008783429016786665 0.06001982321230571 4 0 0 0 0
6697 9 -0.0007381139141686399 0.009202688314267942 0.006010514295020091 3.719088265799384 8.342664111648263 -4.990869923500711 -24.97719864985734 26.80241182184027
6698 9 -0.0001737804570713835 0.008570725053393027 0.0478597984838683 4 0 0 0 0
6699 9 0.0004149865115465803 0.008695885043411802 0.01938030230592214 3.999999999790988 5.955522338516598e-09 -5.124845386722227e-09 -2.418780380121403e-08 2.543191182920392e-08
6700 9 0.0003964976206218685 0.008696584471713646 0.04139692708833842 4 0 0 0 0
6701 9 -0.0005133375584212059 0.008891352867645572 0.05717307562462021 4 0 0 0 0
6702 9 3.430674339174496e-05 0.008184594730145817 0.05440748443828355 4 0 0 0 0
6703 9 0.0006224601194937722 0.008787434506695248 0.03724080423195449 4 0 0 0 0
6704 9 -0.0001496433640462873 0.009856897112521877 0.02448463430508276 3.999999999999945 3.338446256020929e-13 1.807304602018231e-12 -5.019932516288346e-12 5.345795041582564e-12
6705 9 0.000137467998899695 0.00816172570358923 0.04821159269061241 4 0 0 0 0
6706 9 0.0001128953989844472 0.008784298273675814 0.04850212432320461 4 0 0 0 0
6707 9 -0.0006217025869841873 0.009697714927275891 0.009845025048839875 3.999999888738642 2.661944878035488e-06 -2.934683706938515e-06 -4.510635895234232e-06 6.003678470141891e-06
6708 9 -0.0004390142108921669 0.008889706240121878 0.01865835247767348 3.999999999634163 1.006214171627107e-08 -3.872461501380802e-09 -3.095107087105679e-08 3.277516501961782e-08
6709 9 -0.0004313327257682278 0.008817219567123889 0.05297579536516704 4 0 0 0 0
6710 9 -3.790407086947709e-05 0.008549360352821818 0.03870604042437289 4 0 0 0 0
6711 9 -0.0002161211386321534 0.009217771723949872 0.04570899275713883 4 0 0 0 0
6712 9 -0.0008405087164492049 0.009248337970479002 0.05854315738260372 4 0 0 0 0
6713 9 -0.0003576481855886039 0.009021681269732459 0.06868026359432977 4 0 0 0 0
6714 9 -0.0002682256899046066 0.008724757820553708 0.07087713942765238 4 0 0 0 0
6715 9 -0.0005766588247373753 0.009832108783811454 0.02839629618853741 4 0 0 0 0
6716 9 -0.000453749553765708 0.008907454296673367 0.04697563689417996 4 0 0 0 0
6717 9 -0.0001373424231163545 0.009244640769471391 0.070623251818277 4 0 0 0 0
6718 9 -0.0002995628728451734 0.009180409514273536 0.02176890097356798 3.999999999995111 -6.281188293628566e-11 5.852937894591759e-11 -4.446676514797379e-10 4.528800515702829e-10
6719 9 -0.0005916738826313499 0.008890387612259921 0.01140912200110768 3.999999987134755 4.607771502001167e-07 1.404978502061616e-07 -2.179775256220992e-07 5.287432550259406e-07
6720 9 -0.0004658964844218682 0.008244379117829081 0.04355945744830104 4 0 0 0 0
6721 9 -0.0007886132824960417 0.008358862428015491 0.01813950976534493 3.999999999303438 9.682473395628129e-09 -1.162666335553739e-08 -4.112726867275006e-08 4.382216129221163e-08
6722 9 0.0001478671596975484 0.008966963176372515 0.06735737035618232 4 0 0 0 0
6723 9 -0.0001748709172373266 0.008794867039479497 0.04723387457665191 4 0 0 0 0
6724 9 -0.0005295906621679419 0.008848179622765177 0.04508595482813387 4 0 0 0 0
6725 9 -0.0005826753538743914 0.00922404312328799 0.0711091485718692 4 0 0 0 0
6726 9 -0.0005022388574545463 0.008877228288053802 0.02077301986572065 3.999999999985103 -4.882530692296696e-10 -2.003257022945048e-10 -1.137413179200374e-09 1.253886034227466e-09
6727 9 0.0001791140554995722 0.008827943824116892 0.006858001516447807 3.93518777508885 1.694730458563658 -0.6006911147759997 -7.112986548709091 7.33672398176943
6728 9 0.0001746178263535955 0.009061311521637711 0.06449398599397385 4 0 0 0 0
6729 9 0.0001165061943211851 0.008162322791225493 0.02028464051948388 3.999999999963535 4.569552492102471e-10 -2.61597807142694e-09 -3.803467398587743e-09 4.638805193375469e-09
6730 9 -0.0007306368223615762 0.008281034044632835 0.02319459814883891 3.999999999999662 -1.023740732809536e-11 -2.595452842128215e-11 -3.082435521170049e-11 4.157623033163986e-11
6731 9 -0.0001104618008220914 0.007930435838574345 0.03849040779144702 4 0 0 0 0
6732 9 7.225609997312294e-05 0.008407373288533537 0.07118433222184331 4 0 0 0 0
6733 9 0.0001237017462614132 0.008572404398523047 0.06825000856009728 4 0 0 0 0
6734 9 0.0004347525966009606 0.008698048304079839 0.04737646998357282 4 0 0 0 0
6735 9 -0.000452756978824544 0.008910448972336091 0.04670131936855073 4 0 0 0 0
6736 9 -0.0007446272456322971 0.00835336190519757 0.02101587689174502 3.999999999986289 -3.965339359822863e-10 -1.146768377450503e-10 -1.215344343278749e-09 1.283530993876059e-09
6737 9 0.0003660359710912078 0.008246375798591041 0.03206290584530132 4 0 0 0 0
6738 9 -0.0001983530569866314 0.009193297623479611 0.0481503301164605 4 0 0 0 0
6739 9 -5.933394389498062e-05 0.008864641791941515 0.03281223350095262 4 0 0 0 0
6740 9 -0.0007671986660296027 0.008375254560315999 0.04169203543438979 4 0 0 0 0
6741 9 -0.0001707620646655197 0.008000926859700677 0.04951940444891313 4 0 0 0 0
6742 9 -0.0005368325443358487 0.008924662839201347 0.05111651729025515 4 0 0 0 0
6743 9 0.0004493005377059743 0.008719958286974243 0.03138442951330933 4 0 0 0 0
6744 9 -0.001011737300702904 0.009215800138389732 0.03820565449740235 4 0 0 0 0
6745 9 0.0005385477835324866 0.008160297656534338 0.06785494547340794 4 0 0 0 0
6746 9 -0.0002435649565667674 0.008075682330678785 0.07461315155462102 4 0 0 0 0
6747 9 -0.0007837844454795048 0.00862028868544615 0.004459733666436885 2.074120142801794 -0.4981832925605165 1.026986011007523 -63.32977323513884 63.34005892698474
6748 9 -0.0005173383529400979 0.00889629400365027 0.03309157824507296 4 0 0 0 0
6749 9 -0.0008284708582659989 0.009231788063424151 0.03655394409699145 4 0 0 0 0
6750 9 0.0004163687958574303 0.009818214979128831 0.02556520409251068 3.999999999999987 5.768971901403897e-13 7.364570573923808e-13 -1.296889312998082e-12 1.599093885781432e-12
6751 9 1.307779271478698e-05 0.008229725651255456 0.006542768841006479 3.881305734711062 1.951850678525972 -4.603545728369024 -10.15469644821605 11.31902002382974
6752 9 -0.0008870177813776607 0.009387593374514711 0.01125116580425493 3.999999980811237 -8.595428727410438e-07 1.185026664452117e-06 -1.347118732845005e-06 1.989429824327656e-06
6753 9 -0.0002057114809524994 0.009194433427981685 0.03620648721532622 4 0 0 0 0
6754 9 -0.0008755985477320936 0.008997909152588515 0.09568360538858872 4 0 0 0 0
6755 9 -0.0002727339018668263 0.00917796368233059 0.03203805835280246 4 0 0 0 0
6756 9 0.0005300442641816798 0.008746058596735806 0.06918431891496572 4 0 0 0 0
6757 9 -0.000567198320858165 0.009823468653061121 0.02415822752000267 3.999999999999917 -9.613419035913079e-13 3.407283993503331e-12 -6.043697180292417e-12 7.004287121117972e-12
6758 9 -0.0004403489814042925 0.008891504695204482 0.04073299640766694 4 0 0 0 0
6759 9 -0.0008592859816993199 0.009219531273172961 0.06524452116247657 4 0 0 0 0
6760 9 -0.0008637264928260645 0.008575492349424346 0.03031839194995781 4 0 0 0 0
6761 9 -0.0008660799527163941 0.008584210389980567 0.01430189235593878 3.99999999152192 8.13616068556645e-08 -1.449796804008853e-08 -1.097934122654082e-07 1.374208700463981e-07
6762 9 -0.0008356311738479872 0.00937414550183416 0.06900378886885014 4 0 0 0 0
6763 9 0.0005479832159860924 0.008716641895193698 0.02921671895172871 4 0 0 0 0
6764 9 -0.0009033115069069554 0.009363839906502469 0.02725619114185363 4 -4.568829429398754e-14 3.47393768364885e-14 -3.669035854768897e-14 6.812067930400828e-14
6765 9 0.0005489259321329522 0.008717144969135351 0.01321333078544873 3.999999990493999 4.045301203542061e-09 4.978254060628507e-09 3.194710840656999e-09 7.166146291763406e-09
6766 9 -0.0007866271048037705 0.008356374182402376 0.04021873207022926 4 0 0 0 0
6767 9 6.119406392000442e-06 0.008644818143673979 0.03225614526653544 4 0 0 0 0
6768 9 -0.0004842992022280723 0.00826834140925858 0.04045875763864104 4 0 0 0 0
6769 9 -0.0001861067887426613 0.008571337040646996 0.03586186854883004 4 0 0 0 0
6770 9 -7.355606651277474e-05 0.008613932685929289 0.04927731723822303 4 0 0 0 0
6771 9 1.277217488043222e-05 0.009469629354616867 0.009342975845431261 3.999999889249479 -3.680362566718667e-06 1.717895442349338e-06 1.114281910667703e-05 1.185995999223755e-05
6772 9 -0.0005447298941349426 0.009685529117728027 0.004283236053006635 1.706598307538161 -0.001672195774822461 0.001100345945659831 -46.72876079394572 46.72876083682082
6773 9 -6.211559845942032e-05 0.009709270763410896 0.06973744997436729 4 0 0 0 0
6774 9 -0.0008384952824339096 0.008388742269168263 0.05770043119287344 4 0 0 0 0
6775 9 9.876253841116483e-05 0.009106285639473074 0.01842090857735964 3.999999999332661 2.257428002550004e-08 -3.268885271873135e-10 -4.945045546929156e-08 5.436039478240831e-08
6776 9 4.612221761351892e-06 0.009668518202048679 0.01213883169542759 3.999999989111428 1.076414459235706e-07 4.432520418881612e-07 -4.126725763890418e-07 6.15107883888762e-07
6777 9 -0.0002147921907963378 0.009216434932681487 0.03375708115825985 4 0 0 0 0
6778 9 3.841504892071105e-05 0.009090774641349077 0.02119777307479884 3.999999999991903 -9.798925931501886e-11 -4.317880293869313e-11 -3.739768109799279e-10 3.890050888035287e-10
6779 9 -0.000511568955677846 0.009243232399319274 0.004841458755348326 2.677558604180095 7.440307681730189 0.3045340278178036 -73.06689849631454 73.44537136704834
6780 9 -0.0004849988395832224 0.009526803257466033 0.008405897010620887 3.999999965173551 -4.819776150715139e-06 2.087330027756094e-06 5.846780399882835e-06 7.859518422411693e-06
6781 9 0.0002107704325044878 0.00908453180263623 0.01230623941455588 3.999999991103342 4.369716351904143e-08 -1.138867457292338e-08 8.015817364579487e-08 9.200259132419696e-08
6782 9 -5.80963033355232e-06 0.009656290855968769 0.02814245999847751 4 0 0 0 0
6783 9 -3.408803711371193e-05 0.008241864510367684 0.01049063371581781 3.999999931003792 1.623888710777925e-06 -5.869876438829422e-08 -5.254754426830794e-06 5.500264009684493e-06
6784 9 6.476365540309061e-05 0.009098753333174532 0.04756675923031106 4 0 0 0 0
6785 9 2.766095320682919e-05 0.009042480669523654 0.04470993612706724 4 0 0 0 0
6786 9 8.704898756152299e-05 0.009052313101948661 0.05338110580528141 4 0 0 0 0
6787 9 -0.0004187469936618468 0.008876751497374505 0.09290892050988597 4 0 0 0 0
6788 9 -0.0008755777629728095 0.009004166700694538 0.004242564462114517 1.661268080745989 -0.00244602074845513 -0.0006586029010020729 -47.93421102782569 47.93421109475884
6789 9 -0.0005715936140177724 0.009153230588958752 0.01001968872539253 3.999999896642482 1.26517961041178e-06 5.809412185071649e-07 -6.814565217160699e-06 6.955319636429281e-06
6790 9 0.0002334774530457838 0.008845737943425639 0.04557060766438672 4 0 0 0 0
6791 9 -0.0004205601801447001 0.008241164970793387 0.05179477199470067 4 0 0 0 0
6792 9 -0.0008014334416205302 0.0092141669635433 0.05255916661339732 4 0 0 0 0
6793 9 -0.0007305818167578111 0.008355765091831363 0.01977208441979794 3.999999999919435 -1.57123049059887e-09 -2.880749952300221e-09 -7.917097094339304e-09 8.57017572418799e-09
6794 9 9.782153318505059e-05 0.008476258505618159 0.05170008243481504 4 0 0 0 0
6795 9 0.0001092872965858701 0.008786455994925352 0.02044672837872999 3.999999999980603 -1.560952691636919e-10 -3.068044168023183e-10 -1.654971050425282e-09 1.690391629466515e-09
6796 9 -0.0007282719243585321 0.008372997008441855 0.04756091543862837 4 0 0 0 0
6797 9 0.0003469187317979341 0.009296246837576077 0.02733226903540671 4 7.180851221156991e-15 4.299878611876221e-15 -1.838842232391253e-14 2.020365451842381e-14
6798 9 0.0002082883103904067 0.009073808874025556 0.02830789978917393 4 0 0 0 0
6799 9 -0.0009603693801171376 0.009221916767115453 0.09407114056879665 4 0 0 0 0
6800 9 -0.0002825785728564086 0.009449638022361187 0.04429340938775223 4 0 0 0 0
6801 9 -0.0008382216010645047 0.009260242933747501 0.04541904189558373 4 0 0 0 0
6802 9 -0.0008015392064138158 0.00830618326303079 0.06478551139109404 4 0 0 0 0
6803 9 -0.0001775527984271292 0.008595655125047248 0.03395909124969539 4 0 0 0 0
6804 9 -0.0005028628816335082 0.008903674974287894 0.05507984201086336 4 0 0 0 0
6805 9 9.38101317553848e-05 0.008804286761603289 0.03350708115826027 4 0 0 0 0
6806 9 4.123211536374013e-05 0.009723905989454001 0.06199999999999987 4 0 0 0 0
6807 9 4.218396674268515e-05 0.009726699068433072 0.04199999999999997 4 0 0 0 0
6808 9 0.0001258527507329501 0.009086002443971813 0.09319493676906998 4 0 0 0 0
6809 9 -0.0008178531638678198 0.00930601922478059 0.04262602134849837 4 0 0 0 0
6810 9 -0.0002669788775735252 0.009379069918361222 0.06775243344287166 4 0 0 0 0
6811 9 -5.963629500754549e-05 0.009509638038985409 0.009703866559313422 3.999999863852292 1.43382632183441e-07 -1.523940759277241e-06 -2.094629778089647e-06 2.594306829243262e-06
6812 9 -6.652254695477667e-05 0.008533488043505694 0.04532060766438672 4 0 0 0 0
6813 9 -0.000374338630078014 0.009026936420242852 0.007241980549114591 3.982471987045241 -0.363372249083473 -0.1159906187721782 -4.208450847463151 4.225701332389743
6814 9 -0.0007777961795183974 0.008381652210890158 0.0561419770126588 4 0 0 0 0
6815 9 7.856885990271098e-05 0.009103620986483953 0.03433011782230337 4 0 0 0 0
6816 9 6.109373921768123e-05 0.008471645908106623 0.04357763872808014 4 0 0 0 0
6817 9 0.0001849657105282039 0.00816334251044144 0.07002628852805012 4 0 0 0 0
6818 9 -0.0002859183508880214 0.009421234987126787 0.06422752729339266 4 0 0 0 0
6819 9 5.858752635279401e-05 0.008479476923310116 0.04025923830478507 4 0 0 0 0
6820 9 0.0001025377471765739 0.009102640209256019 0.04053347707381097 4 0 0 0 0
6821 9 0.0006455131211967724 0.008775975059219135 0.0647641590131129 4 0 0 0 0
6822 9 0.0001017344884626045 0.009108177017287264 0.04650020241379067 4 0 0 0 0
6823 9 0.0006499999999995845 0.008999999999999973 0.0549999999999999 4 0 0 0 0
6824 9 0.000143728974485526 0.008812430331368743 0.02202818221194985 3.999999999996969 -8.455268940516047e-11 -2.745367507441417e-11 -2.236138225513342e-10 2.406366622041551e-10
6825 9 -0.000811287688683869 0.0093163477728509 0.05532984201086305 4 0 0 0 0
6826 9 -0.0005017760834368237 0.008892010352550347 0.04286850567821688 4 0 0 0 0
6827 9 0.0004644562636088614 0.008782745941449271 0.0261779979283407 3.999999999999999 4.460538188066394e-14 3.048333710416546e-14 -3.615192400434028e-13 3.655339038383247e-13
6828 9 -0.0007092848222215008 0.00832964593114084 0.01153022922400555 3.999999989181726 3.92060600825249e-07 3.633496957335896e-08 -1.379261376471395e-07 4.171994297450679e-07
6829 9 5.83342351202515e-05 0.009093013804768372 0.03557137189733688 4 0 0 0 0
6830 9 0.0002100372748532547 0.008257706001819432 0.02990306077985 4 0 0 0 0
6831 9 -3.790543839380299e-05 0.009039238853941587 0.0277097784076207 4 0 0 0 0
6832 9 -8.261317297885554e-05 0.008844619351535916 0.05735773171116883 4 0 0 0 0
6833 9 4.15751929488483e-05 0.009724922698482914 0.05599999999999959 4 0 0 0 0
6834 9 0.0004084797666026706 0.009287994024120507 0.01129456340094433 3.999999963772741 1.114657116325711e-06 8.694479194462198e-07 -3.410078541117925e-06 3.691481522126024e-06
6835 9 -0.0004517920870861394 0.009743926072205674 0.07085526096249381 4 0 0 0 0
6836 9 -0.0007331219548902452 0.008364796761653356 0.03556424471570564 4 0 0 0 0
6837 9 0.0006242732895696653 0.008756448827812235 0.02697603623259715 4 9.493035014379541e-15 3.395276214939091e-15 -2.041270806321124e-14 2.276673592840784e-14
6838 9 0.0006059734426707298 0.008628097408850753 0.0713408147923878 4 0 0 0 0
6839 9 0.0004470675804343513 0.008168864860838794 0.02422962744858163 3.999999999999872 3.294548024702071e-12 -7.321070048935548e-13 -1.181264839289256e-11 1.228530379794451e-11
6840 9 -0.0004440072909224923 0.00810015706654597 0.06732395396057149 4 0 0 0 0
6841 9 -0.000721955639312201 0.008313717506905077 0.02754616482700986 4 0 0 0 0
6842 9 0.0005518145408005021 0.008772634549894534 0.03322773641413993 4 0 0 0 0
6843 9 0.0002755605056082256 0.008691704036217241 0.01573995467107187 3.999999995341326 -4.190266221568003e-08 4.321829540583832e-08 -1.73696204314984e-07 1.838315140338575e-07
6844 9 -0.0005219849292389333 0.008877431564895198 0.01714874551659852 3.999999997986484 -2.321960214382561e-08 1.215505285738743e-08 -1.182867151147102e-07 1.211554464574831e-07
6845 9 -0.0008516029264620264 0.008402935852683082 0.04613924442952724 4 0 0 0 0
6846 9 -0.0001459386674644952 0.007969296271739597 0.0686849613707871 4 0 0 0 0
6847 9 -0.0003854736630669209 0.008704362324597002 0.07375163990334198 4 0 0 0 0
6848 9 0.000707826410849054 0.009007765998971073 0.01892090857736006 3.999999999460149 2.69610406792647e-08 -6.409651186592459e-10 -4.379406114964226e-08 5.143178339092384e-08
6849 9 0.000166989414695171 0.009125537929171326 0.09145459976211068 4 0 0 0 0
6850 9 0.0005285671671186561 0.00875271557338053 0.05694212081304258 4 0 0 0 0
6851 9 -0.0002000239651897944 0.009196477694882415 0.0201967283787302 3.99999999997898 1.793037318688211e-10 -5.992123644204878e-10 -7.494181917593909e-11 6.299377447001225e-10
6852 9 3.288169700128298e-06 0.009268433024336876 0.008110217277035817 4 0 0 0 0
6853 9 0.0004676351140693238 0.008703822271409851 0.05261690874268071 4 0 0 0 0
6854 9 -0.000339305056147682 0.008880385011442945 0.09118180012044565 4 0 0 0 0
6855 9 -0.0008115501192302105 0.009287249988010865 0.02052301986572086 3.999999999983482 3.252838981674216e-10 -6.396033578623206e-10 -3.752478039465174e-10 8.09761066094458e-10
6856 9 -0.0007808462124494232 0.009069098072036928 0.06678149696901975 4 0 0 0 0
6857 9 0.0004790205244449384 0.00929901816609929 0.01364708604259199 3.999999990568779 2.758877459041965e-08 -3.250088442187973e-09 -3.038842894555421e-08 4.117232288882941e-08
6858 9 -1.248627506490465e-05 0.009053280122739947 0.0116879463818068 3.999999987331388 1.255278528453889e-07 2.623649572415344e-07 -1.162578272429327e-06 1.198407631882025e-06
6859 9 0.0007131959202664384 0.009009056269289193 0.04094695907561798 4 0 0 0 0
6860 9 0.0008187014657093179 0.00905764770270873 0.06882429487976678 4 0 0 0 0
6861 9 0.0006582610471735363 0.009000440296282913 0.04299248432971848 4 0 0 0 0
6862 9 0.000313884767820925 0.008212098865822776 0.09232206899474495 4 0 0 0 0
6863 9 0.0005182289493275446 0.008745062170569322 0.03906625826558757 4 0 0 0 0
6864 9 -0.0001583782186136082 0.008003752340144416 0.02661875401029591 4 4.926282123610151e-15 -8.517541498474763e-15 -2.710639064914616e-14 2.88370106419469e-14
6865 9 0.0002909156294285393 0.008760445743049555 0.008373854856305134 4 0 0 0 0
6866 9 -0.0007957177721746266 0.009372212412501333 0.095429247392639 4 0 0 0 0
6867 9 6.694168581471181e-05 0.009781363299766536 0.0601554649127045 4 0 0 0 0
6868 9 -0.00031098463985577 0.009235941059663966 0.07299751448892491 4 0 0 0 0
6869 9 0.0008182289493281051 0.009057312070489265 0.03881625826558757 4 0 0 0 0
6870 9 0.0001726546540009684 0.009889984755915246 0.03800003268214257 4 0 0 0 0
6871 9 -1.949017064908158e-05 0.009094696847166713 0.08148997486492879 4 0 0 0 0
6872 9 0.000503097123373503 0.009308485082315783 0.02257183044655266 3.999999999998618 -3.863825023237925e-11 -7.45022300082637e-12 -6.854714074891682e-11 7.903879242899534e-11
6873 9 5.201603636325889e-05 0.009752287988098154 0.0681407095219997 4 0 0 0 0
6874 9 0.0004547529356501581 0.008671995481563017 0.07225134396518461 4 0 0 0 0
6875 9 0.0007668620736344101 0.009027931346189524 0.06699564643531036 4 0 0 0 0
6876 9 0.000240666056103415 0.009176891691861372 0.03256223350095262 4 0 0 0 0
6877 9 -0.0008168879457874324 0.009297218284347847 0.03486836673070824 4 0 0 0 0
6878 9 -0.0009513666416466617 0.008643023308206035 0.02620645379049161 3.999999999999997 -5.599327391339273e-13 -2.822208586578581e-14 -4.043039304408061e-13 6.912183639447976e-13
6879 9 3.934182691042537e-05 0.009718083739806656 0.04008651799819297 4 0 0 0 0
6880 9 0.0002210182461594921 0.009185423996625856 0.06846481484930284 4 0 0 0 0
6881 9 -0.0008593942557721571 0.008903508772180581 0.07394046069217186 4 0 0 0 0
6882 9 1.927358290127669e-05 0.009090330116142964 0.01672505794542412 3.999999997358012 -2.340621579801731e-08 1.212011997103865e-08 -1.180637616150095e-07 1.209702444933527e-07
6883 9 -5.717448466742251e-05 0.009704275897129768 0.02152604394754361 3.999999999993925 -1.00967435680632e-10 -1.631318073601146e-11 -3.494536209604422e-10 3.641131364507641e-10
6884 9 -0.0008113609349281905 0.009296897594428446 0.04103603733204893 4 0 0 0 0
6885 9 0.000487597148273609 0.009238495508723795 0.07046988976544125 4 0 0 0 0
6886 9 -0.0002579757985797698 0.008101541020090959 0.07361507362615005 4 0 0 0 0
6887 9 -8.362120461333797e-05 0.008604335708318037 0.09204282787491772 4 0 0 0 0
6888 9 -4.387758614534282e-05 0.009686670294762997 0.09348061682659078 4 0 0 0 0
6889 9 0.0004315462478550287 0.008187196664205537 0.06199578073173612 4 0 0 0 0
6890 9 0.0007294049580983864 0.009013569922892909 0.06294950638024369 4 0 0 0 0
6891 9 3.909134924361602e-05 0.009092782148893705 0.05141449945394847 4 0 0 0 0
6892 9 -0.0007552142576657445 0.00837731940445666 0.05146120685014078 4 0 0 0 0
6893 9 0.0008280003995889531 0.009064528589257517 0.06109550455547405 4 0 0 0 0
6894 9 4.802152110973792e-05 0.009095347749200506 0.04332595759040345 4 0 0 0 0
6895 9 4.195441859955652e-05 0.009726578865029555 0.050066471035607 4 0 0 0 0
6896 9 3.258206877946047e-05 0.009696107495757941 0.06596220949065539 4 0 0 0 0
6897 9 -7.127975104300136e-05 0.007926091023424502 0.01759199460797758 3.99999999863073 2.434401652228604e-08 1.132372061106934e-08 -5.14393841961924e-08 5.802471917552363e-08
6898 9 -9.087810915280567e-05 0.00891775892617943 0.07660402324947019 4 0 0 0 0
6899 9 0.0007103654273597278 0.009008363606224881 0.04691711534634081 4 0 0 0 0
6900 9 -0.0007603393298893948 0.008397407575672625 0.0549614980299375 4 0 0 0 0
6901 9 0.0005917879127888949 0.009003111330532642 0.0809899748649279 4 0 0 0 0
6902 9 -0.0008217623654705263 0.00930402566620862 0.0569230756246199 4 0 0 0 0
6903 9 0.000585085945087964 0.008453003074793254 0.09576329974368558 4 0 0 0 0
6904 9 -0.000147512867497501 0.007916380217190079 0.04554974238201508 4 0 0 0 0
6905 9 -6.990199685487838e-05 0.009120921223281916 0.08347063253647452 4 0 0 0 0
6906 9 -0.0005445731272322507 0.008314347199701028 0.09576292414850793 4 0 0 0 0
6907 9 4.132946753350233e-05 0.009724400794118192 0.03412810773086783 4 0 0 0 0
6908 9 -0.0008259406754918206 0.009308442174728468 0.03334157824507254 4 0 0 0 0
6909 9 4.136344741802197e-05 0.008313464018839178 0.0761644473884362 4 0 0 0 0
6910 9 -2.78355791518366e-05 0.009060829704540679 0.08053351717471249 4 0 0 0 0
6911 9 -0.0003108477418003922 0.008959473919646476 0.01772738114099671 3.999999998857708 2.346177737788795e-08 -4.167126108881712e-09 -5.932515531083471e-08 6.39319481197903e-08
6912 9 4.113047674276265e-05 0.009724322670628267 0.04608297405607219 4 0 0 0 0
6913 9 -2.083493400784195e-05 0.008548522953007013 0.01749172450268947 3.999999998545183 2.347283584869524e-08 -2.826096049203007e-09 -4.381571411275224e-08 4.978732413847474e-08
6914 9 0.0006500000000007106 0.009000000000000018 0.05099999999999993 4 0 0 0 0
6915 9 0.0006499412029611273 0.009000002348220628 0.02087148158780818 3.999999999987402 3.639254940767904e-10 -1.338900676800339e-10 -8.149761817032366e-10 9.025267265881864e-10
6916 9 -0.000724567964574713 0.008389114846053605 0.03416146741657099 4 0 0 0 0
6917 9 -0.0002854188050924969 0.008001401746767278 0.06024810730962651 4 0 0 0 0
6918 9 0.0009058695457117369 0.009067417007238305 0.02665871782345396 3.999999999999999 1.754133782470198e-13 4.674386078998182e-14 -8.480942626621777e-14 2.003683622061883e-13
6919 9 -0.0008119977370314837 0.009288382531534661 0.01738440215490576 3.999999998299009 -9.815886832281384e-09 5.223992750376061e-09 -1.272167077650521e-07 1.277017324437644e-07
6920 9 -0.0005076890783499555 0.008749667575848158 0.00477539190666406 2.594029636199693 7.314917892110153 4.15051524356008 -70.65985410552076 71.1586240927185
6921 9 0.0002173868270227452 0.009156869251455901 0.05760773171116883 4 0 0 0 0
6922 9 3.866140864690806e-05 0.009717283847315078 0.06380107474230377 4 0 0 0 0
6923 9 0.0007958902077911723 0.009043131213834521 0.06517064145879391 4 0 0 0 0
6924 9 -9.387192612615841e-05 0.009086696711749023 0.01599346964359312 3.999999995671451 -3.536157258164736e-08 3.066165678981424e-08 -2.268948024937081e-07 2.316718140197514e-07
6925 9 0.0008285671671202569 0.009064965473300513 0.05719212081304258 4 0 0 0 0
6926 9 0.0001493727802094525 0.009137350901483092 0.08979567214375879 4 0 0 0 0
6927 9 -6.896917377516147e-05 0.009102766244498246 0.08539468305181289 4 0 0 0 0
6928 9 -9.527322041130598e-06 0.008965153700668273 0.009878530235866073 3.999999871756131 1.322532720731812e-06 5.736331473309994e-07 -6.902668416203471e-06 7.051594078587912e-06
6929 9 -0.0005307313140801439 0.009908781201134429 0.03072758847721545 4 0 0 0 0
6930 9 3.85454522619304e-05 0.009716414434497221 0.05791581381260978 4 0 0 0 0
6931 9 3.952188957608759e-05 0.009719416712483473 0.04383336024930732 4 0 0 0 0
6932 9 4.01910554878428e-05 0.009721325903261116 0.04785729086290325 4 0 0 0 0
6933 9 -7.420407291136563e-05 0.009107911658403245 0.08247077391549321 4 0 0 0 0
6934 9 0.0008306374366969619 0.009028124580281786 0.01283463035971315 3.999999990538846 -9.996890203177798e-09 6.043456524634772e-10 1.1860202464365e-08 1.552312629265682e-08
6935 9 0.0001983102794442043 0.008806743516413714 0.09253350583116354 4 0 0 0 0
6936 9 0.000765823787827356 0.008977828021738674 0.007217109537634512 3.95214132336692 3.447065289946793 -0.8130569633540223 -5.964108694648267 6.936419340004862
6937 9 0.0007843766442447703 0.008981992249770695 0.01087734076035945 3.999999932725847 2.202431341592179e-06 4.516486294358571e-07 -4.211430899732199e-06 4.773975337401523e-06
6938 9 3.872954291041345e-05 0.009716110192103061 0.03591599056383306 4 0 0 0 0
6939 9 -0.0008061518835183477 0.009291961941107842 0.01898744390031364 3.999999999763699 -6.482514456257265e-09 3.224925263118293e-09 -1.656535410977402e-08 1.807855341033928e-08
6940 9 3.037650805971365e-05 0.009057718374008029 0.0795435423097845 4 0 0 0 0
6941 9 0.0003752883017163171 0.009739578829994407 0.007943300145129058 3.999434208368466 0.06068761263845487 0.113155045940501 -0.09541987189089113 0.1599750064892204
6942 9 0.000776802842112488 0.009029303964910428 0.09099655186197657 4 0 0 0 0
6943 9 0.0001310495241245935 0.008183506953969048 0.03370909124969581 4 0 0 0 0
6944 9 0.000381603715147011 0.008714459664450461 0.08946040726915636 4 0 0 0 0
6945 9 0.0008298586453575334 0.009027637692068538 0.02883629025078546 4 0 0 0 0
6946 9 -0.000822745920022414 0.009311154001430786 0.04689160861528895 4 0 0 0 0
6947 9 -0.0008132170913877164 0.008333096752126387 0.06599608436523569 4 0 0 0 0
6948 9 0.0005370740105266108 0.009016326141769174 0.08297077391549232 4 0 0 0 0
6949 9 0.0005018831589908957 0.008749467883656515 0.004315658240227175 1.730122126850805 0.00134268587897779 -0.001419449743344807 -44.66993791984878 44.66993796258046
6950 9 0.0002304107703398177 0.00917237247089424 0.01780369356982231 3.999999998757711 2.1771814086814e-08 -5.287858828171172e-09 -6.557436121530633e-08 6.929624945415826e-08
6951 9 0.000520423578132368 0.008761421504254779 0.01706803693151506 3.999999997916711 3.579175332314247e-08 -6.742933106908505e-11 -6.101900443775769e-08 7.074159353049988e-08
6952 9 4.086679598228079e-05 0.009723022208116897 0.01812810818856857 3.999999999118585 2.284521818724964e-08 1.348093696802455e-09 -5.121738179924834e-08 5.609760733764298e-08
6953 9 3.872191656316898e-05 0.009716085316473866 0.08200000000000079 4 0 0 0 0
6954 9 -0.0001596290297664189 0.0087056748122071 0.007768005702208055 3.999991326954844 0.0002474205840907484 -0.0009058619823737871 -0.002733949057893757 0.002890723149611553
6955 9 -0.0009265728156224934 0.008500443354602791 0.05010681448725248 4 0 0 0 0
6956 9 0.0005768783549422041 0.00954898731082808 0.09576720152473298 4 0 0 0 0
6957 9 4.062994118508428e-05 0.009722273948097625 0.01987148158780839 3.999999999937592 7.519628501235027e-10 2.969584055225136e-09 -7.833593282807008e-09 8.4112461210841e-09
6958 9 0.0005277878312763113 0.008980358182733756 0.07705625674444934 4 0 0 0 0
6959 9 0.0002123711022497698 0.009176820617864633 0.007601088570301296 3.999425535323311 0.06324194920324046 0.03578750483296226 -0.2403012039370536 0.2510477210706999
6960 9 -0.0001324161601236162 0.008486523189096092 0.08196074878042119 4 0 0 0 0
6961 9 -3.818725215541172e-05 0.009710037230517983 0.03234414658721964 4 0 0 0 0
6962 9 -2.783557915155441e-05 0.008436329904700834 0.08003351717471249 4 0 0 0 0
6963 9 0.0008986866569627203 0.009007233726455054 0.02299355957380789 3.999999999999083 -4.209545902442527e-12 -2.071968315572438e-11 -4.384647337962707e-11 4.867790848638348e-11
6964 9 -3.874217088341501e-05 0.009708518496095744 0.01634218310159753 3.999999996146362 -2.09556685908381e-08 7.215229857284859e-08 -1.656952977468975e-07 1.819341252510577e-07
6965 9 -0.0001991956929900587 0.009198980358908976 0.09225426471133633 4 0 0 0 0
6966 9 -0.0001852749740056332 0.008147261281239774 0.09552622389219351 4 0 0 0 0
6967 9 0.000839474642777707 0.00907385283039224 0.01730369356982273 3.999999998012745 2.261468182448683e-08 -5.14496322251302e-09 -6.728324733461791e-08 7.116832056803894e-08
6968 9 0.0002393185080736595 0.00819892907558805 0.02169991133920509 3.999999999994947 -7.391503279784037e-12 -1.233487557463356e-10 -3.825618792598243e-10 4.020238069165962e-10
6969 9 0.0004924219674217252 0.008130577694462768 0.06369455594350688 4 0 0 0 0
6970 9 -8.726748107126238e-05 0.00890214991609741 0.07755625674445039 4 0 0 0 0
6971 9 3.494468765287139e-05 0.008921791733363646 0.07850000000000097 4 0 0 0 0
6972 9 0.000742910023839001 0.009015994463011025 0.09281952209034761 4 0 0 0 0
6973 9 -0.0005408500168070569 0.008311457012194797 0.00421716920432237 1.623050564895917 -0.00173499259310148 -0.001968135151221745 -47.57864254391795 47.57864261625876
6974 9 -0.0006896833428406339 0.008857416999385762 0.07548689653341256 4 0 0 0 0
6975 9 -0.0001936393310540884 0.009854605421810608 0.004516034528273677 2.121682780241871 -0.9735380667891551 -0.2202811088736323 -61.09286476623291 61.10101820329704
6976 9 -0.0005846788042878601 0.008979510107371681 0.07904354230978557 4 0 0 0 0
6977 9 -0.0006391136625898132 0.009152415221174747 0.08103351717471338 4 0 0 0 0
6978 9 -0.0008446926950629878 0.009338984436289343 0.05093310205603803 4 0 0 0 0
6979 9 3.037650805943143e-05 0.009682218173847871 0.0800435423097845 4 0 0 0 0
6980 9 -7.136730447388134e-05 0.008921703861789095 0.07578534039478199 4 0 0 0 0
6981 9 5.141492631845023e-05 0.009720182579762267 0.09166603659852929 4 0 0 0 0
6982 9 0.0004363195355548294 0.009800603796230621 0.009591241167663418 3.999999904387887 -5.363157789205384e-06 -6.971267995344576e-06 4.176627443266447e-06 9.736850401165481e-06
6983 9 0.0002589209508522429 0.008444802911099695 0.00454845671549422 2.133107708868525 4.112498916220284 3.276413113364518 -57.18314054472226 57.42437716495319
6984 9 -0.0006811800802928549 0.009212506739915987 0.08297063253647541 4 0 0 0 0
6985 9 -0.0008397562272716385 0.008374939968694347 0.06347452611851602 4 0 0 0 0
6986 9 -0.0006390330809969687 0.009196365513064856 0.08910465134938245 4 0 0 0 0
6987 9 -0.0002211397078418441 0.008830282828850821 0.08948525735474563 4 0 0 0 0
6988 9 0.0008518145407988976 0.009084884449814389 0.03297773641413993 4 0 0 0 0
6989 9 -0.0001463534025252342 0.007899755362844461 0.06424805973007226 4 0 0 0 0
6990 9 0.0008573227104582083 0.009090136807179147 0.03689929464404287 4 0 0 0 0
6991 9 -0.000286944763710414 0.009338819371231872 0.08769137409389305 4 0 0 0 0
6992 9 0.0005794875119499986 0.009005181827287595 0.0889395852109868 4 0 0 0 0
6993 9 -6.218184712291123e-05 0.009124315232985035 0.08442079051372157 4 0 0 0 0
6994 9 5.759139142737457e-05 0.009705956752559964 0.08594614065291588 4 0 0 0 0
6995 9 -0.0001964625620575317 0.008517730715220204 0.08391917493537154 4 0 0 0 0
6996 9 -7.317283782508003e-05 0.008964050998783106 0.08713081157364408 4 0 0 0 0
6997 9 -0.0008605281670543102 0.00879815507532733 0.005847760298125812 3.621437042658844 5.417379361459579 -7.191709021478698 -27.72178954402256 29.14732051696458
6998 9 -0.0006759451811566507 0.00920736132601099 0.08489454167279509 4 0 0 0 0
6999 9 0.0007089049301277441 0.009008096014765482 0.05308132576181414 4 0 0 0 0
7000 9 0.0006500000000004451 0.008999999999999994 0.0789999999999999 4 0 0 0 0
7001 9 3.880421427558677e-05 0.009717293311104807 0.05191469701004441 4 0 0 0 0
7002 9 0.000544794160258578 0.009019720151472291 0.08492093189273937 4 0 0 0 0
7003 9 -0.0009426610651329403 0.00860229569902383 0.06825288634622925 4 0 0 0 0
7004 9 6.437871807974204e-05 0.009727505741046747 0.08397224811482457 4 0 0 0 0
7005 9 5.326745192615217e-05 0.009740024338576207 0.08990060571359818 4 0 0 0 0
7006 9 -0.0007059334215003795 0.008839550659543083 0.07710402324947124 4 0 0 0 0
7007 9 3.494468765095203e-05 0.008297291933523753 0.07800000000000097 4 0 0 0 0
7008 9 3.422283004436259e-05 0.009699860321216641 0.08814021605280634 4 0 0 0 0
7009 9 -0.0007463387620942027 0.008555790614585321 0.00740889768102135 3.983037778676774 -1.813960606808798 -0.8887323799000862 -2.901447309574023 3.535349320275345
7010 9 -0.0006850340020317285 0.008260352756844745 0.07066314397514244 4 0 0 0 0
7011 9 -0.0004680836279570207 0.008032481418047877 0.02530456622747451 3.999999999999987 -8.076162599483281e-13 -1.223484206079377e-12 -1.400284638936483e-12 2.027302319808292e-12
7012 9 -8.726748106934303e-05 0.009526649715937301 0.07805625674445041 4 0 0 0 0
7013 9 0.000571420950852243 0.008444802911099693 0.00454845671549422 2.133092238717822 -5.006494661629089 2.410009080518327 -62.3154791904879 62.56270517892614
7014 9 -0.0009518802590593188 0.008699216954743724 0.01016263827071316 3.999999919533154 5.78886240141259e-08 3.784981833215663e-08 -6.182537459474578e-06 6.182924319393243e-06
7015 9 0.000501883158990897 0.009238112560199033 0.004315658240227175 1.730132951231055 0.00134269632253849 0.0002178242033291792 -44.67025315816999 44.67025317888043
7016 9 -0.0003574572517628903 0.008719501398679729 0.08813095930487991 4 0 0 0 0
7017 9 -0.000203608861044709 0.009525998769129346 0.07622491625581598 4 0 0 0 0
7018 9 0.0001279984299619921 0.008197687530919779 0.008031643281477372 3.999991326954844 0.0003884150606921432 -0.001312061217444071 -0.002046987920950622 0.00246222063312999
7019 9 -0.0006869361718588196 0.009047097091809061 0.08660456273271758 4 0 0 0 0
7020 9 -0.0001436853258775563 0.008344733026230962 0.08757039678463091 4 0 0 0 0
7021 9 -6.576857810533804e-05 0.009095888141873962 0.08630340469163086 4 0 0 0 0
7022 9 -0.0001295589432826993 0.009543730671181562 0.004831692768500852 2.641579025955157 0.7419095408189118 -4.663126354210113 -72.28005191396714 72.43411545568755
7023 9 0.0005479947559284015 0.009012842048848007 0.08682965353255734 4 0 0 0 0
7024 9 -0.000589915675456191 0.008359182790589656 0.09177002823325267 4 0 0 0 0
7025 9 -0.0001923291433078741 0.008492697633812244 0.08575194709052786 4 0 0 0 0
7026 9 -0.0001897594537262029 0.008142380708112212 0.004449967679589415 2.026050858319237 4.606258131963326 -1.054446848579185 -59.53334482799588 59.72058789516243
7027 9 0.0008576822815139038 0.008942117754205097 0.008864951972034194 3.999999964611524 4.436820691912898e-06 -1.664526703936369e-06 4.505515666098861e-06 6.538784169688275e-06
7028 9 0.0002589209508522462 0.009542777532755854 0.004548456715494217 2.14520964117796 6.409017246863969 -5.109356593351003 -57.67782223202778 58.2572931425587
7029 9 -0.0007563423014472322 0.008308653472841668 0.04481788655973241 4 0 0 0 0
7030 9 0.0002030481532266143 0.008148338102236434 0.09576329974368558 4 0 0 0 0
7031 9 -0.000552762558742892 0.009678968232469644 0.09574564200405031 4 0 0 0 0
7032 9 -0.0006095226904906292 0.008399572977471103 0.005881064643283818 3.621841461693074 -0.1302861335348006 5.216807903045326 -26.8271742887711 27.33000804050318
7033 9 -0.0005678900293100553 0.009742927334216733 0.07265085199299483 4 0 0 0 0
7034 9 -0.0008162529660961097 0.009268988339869767 0.09262967939005873 4 0 0 0 0
7035 9 -3.628965800811366e-05 0.009080542348664497 0.08857980126379317 4 0 0 0 0
7036 9 -0.001081207303311578 0.008815225164958718 0.03169884807554817 4 0 0 0 0
7037 9 0.0006890803877713894 0.008689125249370953 0.00504845671549422 2.783260279493013 15.8531569449698 2.56470798392376 -60.08139538608197 62.19062938822341
7038 9 0.0006890803877713915 0.009298455194484594 0.005048456715494217 2.795351387422199 16.05582456950259 -4.310098515263544 -60.33981029799487 62.58801130101457
7039 9 -0.001018814497739645 0.008813435644576269 0.02867614676965477 4 0 0 0 0
7040 9 0.0006555638855933981 0.008166467512310633 0.06053841982639786 4 0 0 0 0
7041 9 0.001029517134851611 0.009020403393503473 0.02493533058753837 3.999999999999932 1.195933212769757e-11 6.55385834464366e-13 -6.360706969966228e-12 1.356148032813427e-11
7042 9 -0.001020471982982372 0.00883171836460417 0.01266041222953632 3.999999991196669 2.331624896793228e-07 1.508554436711675e-08 6.390802430680216e-08 2.422324417024098e-07
7043 9 0.0001948405630808509 0.008146347716615102 0.004232798475267046 1.613199617142193 -6.417719706350018e-05 -0.002331198953577474 -42.98891543022575 42.98891549348167
7044 9 0.0008204017645187097 0.008434366607057868 0.05072199376392692 4 0 0 0 0
7045 9 -0.0007628404463353129 0.009278855485188857 0.09083585397206727 4 0 0 0 0
7046 9 -0.0009736091956562684 0.009407890688466126 0.0065788350874597 3.896638774660623 -11.20188395396715 3.694040886216287 -8.119066648948662 14.31947573891079
7047 9 0.0001553836551218695 0.009137052275819206 0.09017142777176773 4 0 0 0 0
7048 9 -0.0002886974616159557 0.009812675241646734 0.005392208112715625 3.307453420640238 8.531070057529281 6.96975237365031 -34.88482205793094 36.58288417402299
7049 9 -0.0009809546701455975 0.009235837500220823 0.008518522402270893 3.999999924637955 -6.033323191959318e-06 2.188044795731471e-06 6.024339950370772e-06 8.802340632149784e-06
7050 9 0.0008904312241829638 0.008939336680123328 0.07088025994536112 4 0 0 0 0
7051 9 5.153492821342679e-05 0.009843382962117463 0.005645895443718877 3.45738476102399 0.179240384074462 7.740414237869738 -42.27677784267362 42.97990326243044
7052 9 0.0005714209508522462 0.009542777532755852 0.004548456715494217 2.145194171027258 -7.892413114309446 -3.801339573235437 -65.71403958172417 66.29536458506266
7053 9 -0.0003509108157209835 0.008891899358090824 0.0903986281301027 4 0 0 0 0
7054 9 -0.0007287663070765181 0.008352493662352892 0.04310032439843779 4 0 0 0 0
7055 9 -0.0002016719956620377 0.009848044536552225 0.09551284352878325 4 0 0 0 0
7056 9 0.0004300528737592039 0.009855294336745198 0.07004856140558817 4 0 0 0 0
7057 9 -0.0001256790659548109 0.008440835902596804 0.00476562591981659 2.545958950045569 6.73916765490068 4.402658770693709 -69.30431476706036 69.77025032392966
7058 9 0.0005231734465466832 0.009574438391652292 0.005585380099504103 3.441655975085354 1.415501393336547 7.318180484844156 -42.46084267867246 43.11012144249033
7059 9 -0.000810877215095488 0.009333070118816051 0.005334907487113173 3.320136173839379 -2.588960131385475 -2.094521238807083 -40.78505617058909 40.92078372440862
7060 9 0.0008029027773825757 0.008232424087119321 0.02561398883894373 3.999999999999989 2.308358157892153e-12 -1.307899793239475e-12 -1.482708324865628e-12 3.039332694998847e-12
7061 9 0.0006816037151457159 0.008402209764530594 0.08921040726915636 4 0 0 0 0
7062 9 -0.0006575435128949469 0.00959784798858669 0.005652858369213431 3.534969770503318 3.396659356681772 3.298163702670862 -35.9117333318318 36.2224760265163
7063 9 -0.0007892418495688822 0.008614078907372719 0.005173153253984556 3.162252807744234 -1.609938975869287 -4.355890733508218 -43.00932188633648 43.25930485699912
7064 9 -0.0004274341786859921 0.008272880011202573 0.0899624577130806 4 0 0 0 0
7065 9 0.0003282776049174284 0.008380380871011504 0.005575209792417073 3.42625773833723 3.093480903069644 -8.785611508116506 -44.65824401268312 45.61924322000041
7066 9 0.0001948405630808572 0.0098536522833849 0.09576720152473298 4 0 0 0 0
7067 9 -0.000898790655260324 0.008952205973643644 0.005449432781427035 3.392001568255219 -2.467242281909608 -0.6669946426459886 -42.0719786718337 42.14953802468292
7068 9 -0.0005250724118890458 0.008301167828318735 0.005457341868792892 3.354193998416607 0.4304884759425239 -7.354198276850979 -42.54481386321655 43.1778964202623
7069 9 6.603597109281216e-05 0.007934125898671185 0.03231290584530132 4 0 0 0 0
7070 9 0.0001948405630808571 0.0098536522833849 0.004232798475267042 1.625313395464675 -0.0001973107126464385 0.001348476173722944 -44.70182764333646 44.701827664111
7071 9 -0.0009824693272903957 0.008513396368775033 0.02450624427045742 3.999999999999961 -2.03489960919319e-12 -1.203235962085761e-12 -2.609997286150807e-12 3.521459787313441e-12
7072 9 -0.001111863298125997 0.009117057495727847 0.02366217957551281 3.999999999999866 -9.675473840937235e-12 2.502042687400912e-12 -1.002327270758416e-11 1.415418692213857e-11
7073 9 -0.0008882600659225195 0.009611296697544704 0.09432763114884356 4 0 0 0 0
7074 9 -0.0002564983409680203 0.007945845723987379 0.02184369123357923 3.999999999995152 -3.152882432939886e-11 -2.01545322502378e-10 -3.649182703588067e-10 4.180668939629695e-10
7075 9 -0.0006432182374507715 0.008183365880616363 0.008956823658092859 3.999999932541795 5.348038295863485e-07 6.833046423687209e-06 5.111657850829592e-06 8.550180381041829e-06
7076 9 -3.764179853261147e-05 0.01003326546421364 0.07124268802781614 4 0 0 0 0
7077 9 -0.0001739818488087719 0.008132091524237356 0.005292378996739442 3.188940938739083 2.731917784513343 -8.265477885759452 -41.96230576540411 42.85576512688329
7078 9 -0.0007327964189937587 0.009439862821122951 0.03059526720974666 4 0 0 0 0
7079 9 -0.0005172577959653324 0.009031169414530226 0.03042663523935205 4 0 0 0 0
7080 9 -0.0003470625579032512 0.008967417711859363 0.03067320686058541 4 0 0 0 0
7081 9 -0.0001315239348748249 0.008558724305266637 0.0305045748901908 4 0 0 0 0
7082 9 -0.0005013247762718424 0.008584289509903892 0.02503510849955102 3.999999999999982 -9.866967592199175e-14 -4.728086154423357e-14 -1.948088960010002e-12 1.951159086524665e-12
7083 9 -0.0001571077588251632 0.008826138149613846 0.03117754050352383 4 0 0 0 0
7084 9 -0.0003591728637387779 0.00835721976960237 0.03104521923605504 4 0 0 0 0
7085 9 0.000365797823886028 0.008423494376480127 0.02489717416789738 3.999999999999973 6.513741131528799e-13 2.770924692240028e-14 -2.593330660613105e-12 2.674026917016116e-12
7086 9 -1.060435033276296e-05 0.008918126796513978 0.02493294750669521 3.999999999999977 4.519137987926859e-13 1.073660829989435e-13 -2.416146350425e-12 2.460389551268217e-12
7087 9 3.346328241173448e-05 0.008401170211833309 0.0379421679027159 4 0 0 0 0
7088 9 0.0004060210123642039 0.008707844826160866 0.03790780053564177 4 0 0 0 0
7089 9 -0.0003849673142771121 0.0093123871909539 0.03743899915171942 4 0 0 0 0
7090 9 0.0002377920630363874 0.009275032555511431 0.03759154227005418 4 0 0 0 0
7091 9 -0.0002378670988667349 0.008295742754869634 0.03716066350708979 4 0 0 0 0
7092 9 -2.992578197272526e-07 0.008824789142137714 0.03708826111361972 4 0 0 0 0
7093 9 -0.0003487917340810872 0.008287722976039361 0.03695320388554982 4 0 0 0 0
7094 9 -0.0008005554684024419 0.008300409204578689 0.03684440589300011 4 0 0 0 0
7095 9 2.91193141770337e-05 0.008430913968418569 0.05365673666839495 4 0 0 0 0
7096 9 -0.0004652469750410921 0.00817678623902638 0.05350891328992261 4 0 0 0 0
7097 9 -0.00013852676365971 0.008218858281235844 0.04617392609473915 4 0 0 0 0
7098 9 0.0002427021412432735 0.008523706747905497 0.04619490438848841 4 0 0 0 0
7099 9 -0.0004561438063940638 0.008328443528172403 0.04588282944946492 4 0 0 0 0
7100 9 -7.491490149108033e-05 0.008633291994842054 0.0459038077432142 4 0 0 0 0
7101 9 0.0001206370734628774 0.009112976112507042 0.06244950638024369 4 0 0 0 0
7102 9 -0.0003585733414877314 0.009262541706184976 0.01254963505078536 3.999999991087958 2.24940026401874e-08 -2.597692803197796e-08 1.214419876333945e-07 1.262098938479264e-07
7103 9 -0.0006024572623159077 0.008701692594071284 0.0123379649142681 3.999999991191916 -1.509523634833996e-08 -6.787802032117978e-08 1.471769407967922e-07 1.627769753541243e-07
7104 9 -0.0001346269944689463 0.009145254041429046 0.06170076979601812 4 0 0 0 0
7105 9 0.0003521412897558914 0.008798126541152498 0.06154627435149231 4 0 0 0 0
7106 9 -0.0001497874650585155 0.008737926080902344 0.02373466849890614 3.999999999999834 5.139278772465759e-12 -1.606094283709777e-13 -1.811097557693776e-11 1.882672085197087e-11
7107 9 5.717855863887741e-05 0.008460002655855102 0.02875641799222042 4 0 0 0 0
7108 9 -0.0004802471575248845 0.008415179171272913 0.04987679041487279 4 0 0 0 0
7109 9 -0.000460773708614654 0.008379820336166435 0.05023256984653079 4 0 0 0 0
7110 9 -6.338227978789414e-05 0.008680568894453506 0.05024059636601648 4 0 0 0 0
7111 9 -0.000152913557887515 0.00796549873907844 0.05041598508074792 4 0 0 0 0
7112 9 0.0002444778709392449 0.00826624729736551 0.05042401160023361 4 0 0 0 0
7113 9 -0.0008388644667987113 0.008406998709604614 0.01597218756003396 3.999999995679988 -4.423552510737611e-08 1.741911541358199e-08 -1.700894931462086e-07 1.766087283858052e-07
7114 9 -0.0009026790733188258 0.008724286806587709 0.01565171067573697 3.999999994685651 -4.113255794905694e-08 1.958577664089017e-08 -1.714277516207889e-07 1.773780256847456e-07
7115 9 -0.0007292649317755702 0.009240760215257745 0.05961430659117321 4 0 0 0 0
7116 9 -0.0002310656590578537 0.009131400581288798 0.0270498068743932 4 8.200987201501347e-15 4.393225244748755e-15 -1.792662414246043e-14 2.01970411762548e-14
7117 9 -0.0005184873367152184 0.009620847890136959 0.02687868176963963 4 -4.026393732433586e-14 3.391932344801695e-14 -3.995490969219628e-14 6.60916027990001e-14
7118 9 -0.0006467446108543396 0.009073348285220361 0.0289545372312663 4 0 0 0 0
7119 9 -0.0003577708458219577 0.008586534560502837 0.02908112974214966 4 0 0 0 0
7120 9 -0.0004452650025068419 0.008589137324765541 0.03909671566599153 4 0 0 0 0
7121 9 -0.0007507645596993436 0.009010049589304838 0.03906509844080077 4 0 0 0 0
7122 9 -0.0001860267665682218 0.007959587919050572 0.01400655009167412 3.999999990900649 -3.729665299725384e-08 -6.742437258519967e-08 -3.691512328646665e-08 8.543894118351668e-08
7123 9 -0.000459749492918981 0.008467136117336077 0.01416349493646468 3.999999991169368 -3.987680060250378e-08 -3.916800268664078e-08 -1.320743386329967e-08 5.74345537982666e-08
7124 9 -0.000388390686856143 0.008934194810754383 0.06551469418161562 4 0 0 0 0
7125 9 0.0001791983481741702 0.009114710278809904 0.06565864550841954 4 0 0 0 0
7126 9 -0.0007093796405777078 0.008432881917835285 0.06098908400235591 4 0 0 0 0
7127 9 -0.0004200930497835599 0.008890202259804402 0.06108336446673979 4 0 0 0 0
7128 9 -0.001006697691807825 0.008844786342884632 0.06126175132985524 4 0 0 0 0
7129 9 -0.0007174111010136765 0.009302106684853749 0.06135603179423911 4 0 0 0 0
7130 9 -0.0004810890995372156 0.00882309197470949 0.02223920673180134 3.999999999997293 -3.702525086598287e-11 -9.722074600296712e-12 -2.987483257313391e-10 3.011908864217193e-10
7131 9 -0.0005813164149896781 0.008268757267248088 0.02230471575343072 3.999999999997619 -6.871219929593207e-12 5.231662752849061e-11 -3.313596498713052e-10 3.35534589486851e-10
7132 9 -6.220763584590903e-05 0.008245456640362865 0.01807487225247048 3.999999999060338 2.646662692935353e-08 -1.485936731235582e-10 -5.738575527425537e-08 6.319516856132281e-08
7133 9 0.0002883065127687017 0.008555635902250417 0.01809649395861338 3.999999998971787 2.158947658358051e-08 -6.415097882349586e-09 -6.169241049429294e-08 6.567505228463425e-08
7134 9 -0.0001135281272469264 0.008617899685161991 0.0263955357673272 4 4.253583626935605e-15 2.906900874597035e-15 -3.447459152765202e-14 3.485743116416533e-14
7135 9 -0.0005751617715334893 0.009032140972937287 0.02647711141443733 4 -4.353219850825695e-14 2.546937476991875e-14 -8.102864616332045e-14 9.544308700578292e-14
7136 9 0.0003415627475289663 0.008687968498707366 0.04244245234243892 4 0 0 0 0
7137 9 -0.0002082348570175955 0.008484631102057209 0.04248500043025234 4 0 0 0 0
7138 9 2.548566709797029e-05 0.009101977370937608 0.0421999680127204 4 0 0 0 0
7139 9 -0.0005243119374485915 0.008898639974287449 0.04224251610053383 4 0 0 0 0
7140 9 0.0007722831738684599 0.009001990385621333 0.09503050126841853 4 0 0 0 0
7141 9 0.0004597831738684598 0.009001990385621333 0.09553050126841853 4 0 0 0 0
7142 9 -0.0004902761903731396 0.00920574342338073 0.06277656523398151 4 0 0 0 0
7143 9 -0.0007452876044181979 0.008696403533715796 0.06272940558726534 4 0 0 0 0
7144 9 6.245251507986489e-05 0.008464862197699777 0.09361803048063556 4 0 0 0 0
7145 9 -0.0006935591316550862 0.008914864709500293 0.09389286196215976 4 0 0 0 0
7146 9 -0.000107277821798428 0.009065530048490958 0.09390371053815637 4 0 0 0 0
7147 9 -0.0002998358815540194 0.00821455381655823 0.01189368396441783 3.999999989338574 5.818615122104916e-08 -1.576695548984479e-07 -4.103426025737471e-07 4.434257189460143e-07
7148 9 0.0001936719356782313 0.0084692937233275 0.01185535410093509 3.999999989323302 5.205753201571827e-08 -1.649474141102035e-07 -4.074669643388407e-07 4.42658969285296e-07
7149 9 0.0001761925023301561 0.008456756871998374 0.02787521819831711 4 0 0 0 0
7150 9 -0.0003146121550170589 0.008200117632659779 0.02791491723880882 4 0 0 0 0
7151 9 0.0002059550052245491 0.009195800458254867 0.05987104751112764 4 0 0 0 0
7152 9 -0.0002677406950774937 0.008928083824098276 0.05977052001421433 4 0 0 0 0
7153 9 3.454215628871893e-05 0.007888567284448011 0.06634411409548865 4 0 0 0 0
7154 9 0.0004186196582203984 0.008192759511858936 0.06637366189913305 4 0 0 0 0
7155 9 -0.0003993125210495311 0.008244476797494975 0.06608666126226757 4 0 0 0 0
7156 9 -1.523501911785162e-05 0.0085486690249059 0.06611620906591197 4 0 0 0 0
7157 9 0.0003309809463176913 0.008253305010153918 0.05817931811551595 4 0 0 0 0
7158 9 -3.763352627409264e-05 0.007945884425342577 0.05813869928915724 4 0 0 0 0
7159 9 -3.915642439977529e-05 0.008649429337869947 0.05792570610578077 4 0 0 0 0
7160 9 -0.0004077708969915592 0.008342008753058607 0.05788508727942206 4 0 0 0 0
7161 9 -0.0005819520310126143 0.0082716823829143 0.0573824567982615 4 0 0 0 0
7162 9 -0.000151227645570264 0.008224948866804643 0.05756711288481012 4 0 0 0 0
7163 9 -0.0002330822031334552 0.008473925756487061 0.03943269473818031 4 0 0 0 0
7164 9 0.0003060497791759496 0.008689086613973985 0.03947576123097409 4 0 0 0 0
7165 9 -0.0005437403762227592 0.008879759596373826 0.03976921273637329 4 0 0 0 0
7166 9 -4.608393913354484e-06 0.009094920453860754 0.03981227922916707 4 0 0 0 0
7167 9 -0.0004208473151127293 0.008865676133004491 0.05229496955079662 4 0 0 0 0
7168 9 9.753439821702135e-05 0.009100769667829262 0.05220027999091099 4 0 0 0 0
7169 9 -0.0007962579940276106 0.008598659931263712 0.04402702225702744 4 0 0 0 0
7170 9 -0.0002692677703880612 0.008825926721541253 0.04404520353680653 4 0 0 0 0
7171 9 -0.0002296195257894265 0.00916246085077903 0.05368163361863729 4 0 0 0 0
7172 9 -0.0008348167045119938 0.009271935101485985 0.05387714223844353 4 0 0 0 0
7173 9 -3.585617234146669e-05 0.008468508331796245 0.0163763444874197 3.999999996883101 -1.901042269802141e-08 2.408032369805524e-08 -9.86222869003043e-08 1.032841402830391e-07
7174 9 -0.0005785396461101558 0.008257151244373609 0.01648895467720711 3.999999997004859 -5.119551581238137e-09 3.325227007377341e-08 -1.006477317115555e-07 1.061220484731301e-07
7175 9 0.0002051890366783251 0.008819099739290667 0.01059851637966034 3.999999932529214 1.68049058686309e-06 2.704313001767707e-07 -4.864133040340614e-06 5.153345703015079e-06
7176 9 -0.0005283328983849216 0.009030191396357475 0.01041090359294531 3.999999934671563 1.641358419424086e-06 1.508926265256611e-07 -5.347895536885654e-06 5.596142664299727e-06
7177 9 3.373339359172018e-05 0.008842114508066996 0.01026974510341886 3.999999909785212 1.424794620533759e-06 2.747923730136437e-07 -5.530506396424439e-06 5.717696350791989e-06
7178 9 0.0001947793794593391 0.008571041466397753 0.06034817726914467 4 0 0 0 0
7179 9 -0.0003945072113351844 0.008425971024348573 0.0605038968047608 4 0 0 0 0
7180 9 -0.0003830411593721396 0.009028184997501524 0.04963470320418269 4 0 0 0 0
7181 9 0.0002123561831175557 0.009160945472087404 0.04978846479953401 4 0 0 0 0
7182 9 4.480282127701732e-05 0.00910947425070693 0.05469550861980615 4 0 0 0 0
7183 9 -0.0002126736269788692 0.00860320685209166 0.05457716463888029 4 0 0 0 0
7184 9 4.451568631011403e-05 0.009733985412918077 0.0541957061759021 4 0 0 0 0
7185 9 -0.0002129607619457725 0.009227718014302807 0.05407736219497625 4 0 0 0 0
7186 9 -0.0002421935639966619 0.008906658591267816 0.07141634136606012 4 0 0 0 0
7187 9 0.000457714166893939 0.008721615019318054 0.0153197387655524 3.999999994039775 -1.240131443382604e-08 5.515233293290157e-08 -2.367601519351395e-07 2.434151638086226e-07
7188 9 -0.0005539944772049323 0.009287957343461325 0.008851878729702202 3.999999924637955 -4.687111618240609e-06 1.637233382785147e-06 6.501122114677824e-06 8.180106186444359e-06
7189 9 -0.0003315326937707567 0.008720592425170804 0.008703815608053233 3.999999959464404 -3.468847012948573e-06 -6.627038048864505e-08 7.464885147634619e-06 8.231755683324687e-06
7190 9 -7.645158536540692e-05 0.008365037891771907 0.009447920773821918 3.999999897153319 -1.895844097119659e-06 4.373669574071206e-06 3.987930145377152e-06 6.215046035883201e-06
7191 9 0.0002352339583146079 0.008902264436326348 0.009194912723782292 3.999999924075928 -2.946963708255639e-06 -3.809590346796671e-07 8.950051371778026e-06 9.430437128858111e-06
7192 9 0.0001330338115252573 0.00884317379984143 0.02954143070165795 4 0 0 0 0
7193 9 0.0001757876267359497 0.009457932435937309 0.02968024729082363 4 0 0 0 0
7194 9 -0.0003810922089038346 0.008677940559951376 0.07413303694839748 4 0 0 0 0
7195 9 -0.0004620445551700844 0.009328598516963901 0.01481842591892741 3.999999992379466 1.296511062308571e-08 -7.517299898361405e-09 -8.30156315503828e-08 8.435756618667745e-08
7196 9 -9.519054946825856e-05 0.009526556079304744 0.01454467823029342 3.999999991856409 3.111100601369645e-08 4.99776196971912e-09 -9.632629489196431e-08 1.013490375262829e-07
7197 9 -0.0005238124445292717 0.009042396203225774 0.03008841673799683 4 0 0 0 0
7198 9 0.0008202163338441291 0.009058873774919308 0.04922188003375114 4 0 0 0 0
7199 9 0.0005218412759769206 0.00874669316051517 0.04893107883357434 4 0 0 0 0
7200 9 0.0007907290684205548 0.009040038990184115 0.04519458896332008 4 0 0 0 0
7201 9 0.0004907290684199944 0.008727789090264173 0.04494458896332008 4 0 0 0 0
7202 9 0.0005555989953125313 0.008713250827203922 0.0140062648676371 3.999999990843113 3.772862014967047e-08 7.900408178723976e-09 -8.252454145865552e-08 9.108328700014028e-08
7203 9 -0.0004403921648229041 0.009140106029710687 0.07251428571580291 4 0 0 0 0
7204 9 -0.0001021524538052994 0.008866731856195817 0.07215468146925451 4 0 0 0 0
7205 9 -0.0007633202246840754 0.008623897256637911 0.07231701402710036 4 0 0 0 0
7206 9 -0.0004250805136664707 0.00835052308312304 0.07195740978055196 4 0 0 0 0
7207 9 8.073449586450934e-05 0.009422867364340594 0.07161361305476269 4 0 0 0 0
7208 9 0.0006376398853199668 0.009228130989707794 0.07171027555069279 4 0 0 0 0
7209 9 0.0006871711824528292 0.009003722715325612 0.03483011782230378 4 0 0 0 0
7210 9 0.000406775874662811 0.008692876227910838 0.0352354991558076 4 0 0 0 0
7211 9 -0.0007121552888764905 0.009532728841502486 0.01343611858173699 3.999999990845242 2.818828338531976e-08 -3.127436758556664e-08 -5.147041915760491e-08 6.649713855759341e-08
7212 9 -0.0003824555894712488 0.009658607509855043 0.01371110856236394 3.999999990895622 5.02084474569565e-08 -4.077745543158343e-08 -3.154003623008175e-08 7.19615380109931e-08
7213 9 -0.0001087328631204896 0.009151059311569539 0.01355416371757338 3.999999990626903 -1.479095463427918e-09 -1.510175700248371e-09 -2.929315463272929e-08 2.936932519436807e-08
7214 9 7.262457446664735e-05 0.008493428884344912 0.09074457427848108 4 0 0 0 0
7215 9 0.0005789190453095003 0.008738581802073294 0.09051737392014612 4 0 0 0 0
7216 9 -0.0002445908026808508 0.008677023096921494 0.07346946072056754 4 0 0 0 0
7217 9 0.0005476961423892342 0.008734727265269523 0.0588850084207681 4 0 0 0 0
7218 9 0.0007887391117692793 0.009038947814830164 0.05921578551290665 4 0 0 0 0
7219 9 0.000461410843541501 0.009330156229231236 0.0310124171378397 4 0 0 0 0
7220 9 0.0008383814010854279 0.009024378863800151 0.03063087536830099 4 0 0 0 0
7221 9 0.0004602436814465103 0.009329987492165674 0.01500903295976728 3.999999993063169 -1.000339805724245e-07 -1.767424968950926e-08 -1.458465053269267e-07 1.777368264804134e-07
7222 9 0.0008373104998765409 0.009024230438350357 0.01462756444190152 3.999999992318592 2.012558835649909e-09 -1.352044952765106e-08 -1.94002367986095e-07 1.94483345643551e-07
7223 9 -0.0002154128480730332 0.008656582945953178 0.07495186537819239 4 0 0 0 0
7224 9 0.0004029031902937193 0.008720869808356509 0.0752503092395618 4 0 0 0 0
7225 9 0.0006928738024449754 0.009032556633043023 0.07488362835614636 4 0 0 0 0
7226 9 0.000894815271502048 0.00903205134276865 0.07305352446795861 4 0 0 0 0
7227 9 0.0005948152715008757 0.008719801442848684 0.07280352446795862 4 0 0 0 0
7228 9 0.0004673174070137247 0.009322622747354726 0.07344009074515054 4 0 0 0 0
7229 9 0.0001673174070125524 0.00901037284743476 0.07319009074515052 4 0 0 0 0
7230 9 -0.0003824432191083813 0.00965099356978001 0.02971393771817693 4 0 0 0 0
7231 9 -0.0007141707993514557 0.009523048658401659 0.02944852861812789 4 0 0 0 0
7232 9 -0.0008561210841885362 0.008400948790346164 0.09358387662549356 4 0 0 0 0
7233 9 -0.0004821472293149319 0.008255611251102466 0.09333201422145153 4 0 0 0 0
7234 9 -0.0002629876273555781 0.008517205691926856 0.03652200349953003 4 0 0 0 0
7235 9 -0.0002172004011766459 0.009140177671160942 0.03663795353315839 4 0 0 0 0
7236 9 0.0001887761069657766 0.008504519463387527 0.03663080149207974 4 0 0 0 0
7237 9 0.0002345633331447088 0.009127491442621613 0.0367467515257081 4 0 0 0 0
7238 9 -0.0001970251690909063 0.008914082882618732 0.02349495625770035 3.999999999999782 3.738415668461506e-12 -9.093770714184228e-13 -1.244556862554768e-11 1.302669938170974e-11
7239 9 -9.76826761116649e-05 0.009509572587581729 0.02351388613257968 3.999999999999809 7.57454074280091e-13 -5.33266128161655e-12 -6.163377477581449e-12 8.185244953588991e-12
7240 9 0.0001745260899607375 0.008422405664832806 0.02318565421878003 3.999999999999382 2.959736869044899e-11 -4.400181156778366e-12 -6.848616737548431e-11 7.473768092062857e-11
7241 9 0.0002738685829399789 0.009017895369795803 0.02320458409365937 3.999999999999408 2.859099514712004e-11 -6.904385969898063e-12 -6.640259460934124e-11 7.262520306323749e-11
7242 9 0.0002527910900639471 0.008872464637915307 0.03004187736901568 4 0 0 0 0
7243 9 -0.0001380785834387642 0.008569951093962186 0.03016635638883558 4 0 0 0 0
7244 9 -0.0001707078409637746 0.009125101513640479 0.01101573902024521 3.999999963576109 1.557037317759082e-06 9.039046170800146e-07 -3.180616775963348e-06 3.654823093011815e-06
7245 9 -0.0004660517397100855 0.009622307275895269 0.01085778282339247 3.99999995725259 1.90090188426077e-06 6.755646271258252e-07 -2.991055939065623e-06 3.607801431568752e-06
7246 9 -3.21543922528967e-05 0.00856529197267417 0.01391334254261849 3.999999990901237 -5.24107378491061e-10 6.373123196539379e-09 -6.428157054521266e-08 6.459885215374658e-08
7247 9 -0.0003058771186036559 0.009072840170959676 0.01407028738740905 3.999999991169955 3.104688466681212e-08 -8.340015258780124e-10 -1.337612093122327e-07 1.373195751622122e-07
7248 9 -3.882745543247579e-05 0.008569186114605599 0.01312040846043012 3.999999990552123 5.039785264910741e-09 5.006171230035841e-09 3.576512125304791e-09 7.953151883580634e-09
7249 9 -0.0003264597248606854 0.00905817562930078 0.01298510367092402 3.999999990581586 1.312288349708594e-08 2.905025890645929e-09 1.490257042527352e-08 2.006827974649673e-08
7250 9 -0.0002827113762606521 0.008008337002491907 0.01290873832391286 3.999999990656081 1.093577683915069e-08 1.547947872564009e-08 6.996641062928333e-09 2.020293203613535e-08
7251 9 -0.0005703436456888617 0.008497326517187088 0.01277343353440676 3.999999990685543 9.359269227372008e-09 1.044359263840758e-09 1.077379808708787e-08 1.430948398663421e-08
7252 9 -0.0003529401004101005 0.009258841175225768 0.07447175077196883 4 0 0 0 0
7253 9 0.0002653759379566521 0.009323128037629099 0.07427019463333825 4 0 0 0 0
7254 10 0.006943549036592193 -0.000386217453957853 0.005549348423721408 1.210134917130257 -0.8721413026235325 0.09697926022656111 -0.66982925880314 1.103950481047373
7255 10 0.003185868791443879 -0.0003862174539578529 0.008580069404314666 1.210133136809944 -0.3747679742444935 -0.08227400434579846 -0.631282733498162 0.7387407772171002
7256 10 0.006580069404314664 0.0003868232814870903 0.00518586879144388 1.210131925654806 -0.8721586348862638 -0.08458253832034177 -0.6698081148823405 1.10293145795993
7257 10 0.003549348423721408 0.0003868232814870904 0.008943549036592193 1.210135664196028 -0.3747553417281466 -0.2072570879836284 -0.6312974671037961 0.762845697795368
7258 10 0.003650980685903567 -0.001331663943113175 0.007560541789070981 1.210126846995232 -0.8284307843537915 -0.348845986591623 -2.100117282137274 2.284400071256734
7259 10 0.005560541789070982 -0.001331663943113175 0.005650980685903566 1.210126066464489 -1.978427756856956 -0.1433349152234138 -1.0676289579264 2.252676825207549
7260 10 0.005592204861136168 0.001439729763712498 0.005732172732050089 1.210128401076587 -1.463555279926731 0.05517424572114422 -0.8371367054880441 1.686960615565071
7261 10 0.00658774964946298 -0.001522858987186172 0.005541668178573093 1.210133488325763 -0.9244885106501314 0.1389769339886936 -0.7853227773503066 1.220952685049751
7262 10 0.003541668178573093 -0.001522858987186172 0.00858774964946298 1.210133791208613 -0.4286464263795982 0.05094112335304719 -0.6076061710259708 0.7453308097518256
7263 10 0.00658774964946298 0.001523222483703715 0.005541668178573093 1.210133604098298 -0.7914009459727087 -0.124925789760521 -0.6570400319953895 1.036158054487003
7264 10 0.006580069404314666 -0.0007727984044332483 0.005178188546295565 1.210131799390817 -0.9932917670756529 -0.06324032947874347 -0.7165171346853227 1.226386838689375
7265 10 0.003549348423721408 -0.0007727984044332485 0.008951229281740509 1.210134987439123 -0.3931061470056852 -0.05351321448121529 -0.6431474747143824 0.7556684333550364
7266 10 0.006951229281740507 0.0007732830664566381 0.005549348423721408 1.210134920243873 -0.8354017746123493 0.004511974753840021 -0.6130407786352103 1.036212082158525
7267 10 0.003178188546295565 0.0007732830664566382 0.008580069404314666 1.210133415248652 -0.4793011429834856 0.1513502336935047 -0.9023025183473078 1.032853481148342
7268 10 0.003682643757968752 0.001076250131434969 0.008005213467495033 1.210130335183683 -0.1711687030647497 1.057801830888338 -1.210431441882 1.616597573249486
7269 10 0.00404612339024628 0.001439729763712498 0.008005213467495033 1.210131197616317 -1.483988008451724 -0.3486877340558266 -1.281936122562889 1.991774025194895
7270 10 0.003319164125691223 0.0006897903464654213 0.007634053590069189 1.210127950456429 -0.7380205636451367 0.1646845033174464 -1.573295658062386 1.7455814405733
7271 10 0.003231414476228245 0.001826068383176198 0.008327024921199468 1.210130358338119 -0.2663956090361606 -0.1819568210654581 -1.115204562345061 1.160928990559385
7272 10 0.00517402142134851 -0.001695143575390704 0.006093768245348342 1.210124479467543 -1.896146793373374 -0.01410190143771213 -1.223800901471867 2.25682524181374
7273 10 0.005495832875052945 -0.001639058131927171 0.00483627177188553 1.210119256835565 -2.775393779807391 -0.9400004425228794 -1.864289284197934 3.473036999531104
7274 10 0.003791956265299225 0.0001079446550934745 0.006970325361954718 1.21012312973529 -0.9049070076156508 -0.3791007363939817 -2.00633186777024 2.233370015110974
7275 10 0.006580069404314666 0.001807757685331539 0.006678127963542642 1.21013711238081 -0.5665033671936789 -0.2327200192285654 -0.6757695645733545 0.9120028381508366
7276 10 0.005205684493413696 0.0009973057007852651 0.005368693099772561 1.21012166198887 -2.216082939737267 -1.680107820182192 -1.957263401395161 3.400686093374818
7277 10 0.005830069404314665 0.0006943386358069342 0.004814708914018037 1.210123870421514 -2.548769444852924 -0.05126201001472802 -1.316269690905803 2.869045028556347
7278 10 0.00658774964946298 -0.001522858987186172 0.00858774964946298 1.210141789924935 -0.4925141803560826 0.2334945858217816 -0.4892884565711698 0.7324569155886963
7279 10 0.00658774964946298 0.001523222483703715 0.00858774964946298 1.210141945365143 -0.4942534142285726 -0.2340339849032759 -0.5092257002976467 0.7472410303308674
7280 10 0.006943549036592193 -0.0003862174539578529 0.008580069404314666 1.21014190732845 -0.5584253300036679 0.07483074575738029 -0.5395892645586472 0.7801250310862053
7281 10 0.006943549036592193 0.0003868232814870904 0.008580069404314666 1.210141948242934 -0.5584459213595947 -0.09485939067826726 -0.5396098552777534 0.7823291807135259
7282 10 0.004291668178573093 -0.001886338619463701 0.008508805218813276 1.210135896375108 -0.7280153598132613 0.1769529181053993 -0.7336189341302373 1.04857781774384
7283 10 0.006951229281740507 0.001444278053054011 0.006291668178573094 1.210137035349717 -0.6457566573189765 0.02072038857808303 -0.3111442391528261 0.7171065001327179
7284 10 0.004291668178573093 0.001444278053054011 0.008951229281740509 1.210137092629014 -0.1684031897155705 0.2052646540436845 -0.7279882805293828 0.7748936372781617
7285 10 0.004432643757968752 0.001803209395990026 0.007562425908050257 1.210130630089693 -0.9023007822243934 0.08315593146111205 -1.472513400833757 1.728975802657433
7286 10 0.006580069404314666 -0.0007727984044332483 0.008951229281740509 1.210142076142989 -0.5477197897633455 0.08972094591888721 -0.5444940652155212 0.7775092303567255
7287 10 0.006580069404314666 0.0007732830664566382 0.008951229281740509 1.210142192976581 -0.5352679857709992 -0.1271180393111802 -0.5502402749035087 0.7780971485846419
7288 10 0.005830069404314665 -0.002249818251741229 0.006371036688493264 1.210131547064325 -1.768271883820242 -0.3341365961704817 -0.6005344478387329 1.897122648394288
7289 10 0.005109312507330473 -0.0020025377642047 0.005279059331330306 1.210117669838619 -1.975359079012 -0.03280876987407892 -1.609900258413084 2.548509122693953
7290 10 0.005166341176200196 0.0001124929444349875 0.005287501053626039 1.210119440035692 -2.18205790003211 0.4004928938933039 -1.174940933492528 2.510429731011778
7291 10 0.007314708914018036 -0.0006934904772660012 0.006299348423721408 1.210138535261852 -0.5826379820808379 0.08809310852339104 -0.2225370680382311 0.6298810686023173
7292 10 0.004299348423721407 -0.0006934904772660013 0.009314708914018036 1.210137747568766 -0.363796046394974 -0.05409566125334063 -0.6241777419375054 0.7244803361508533
7293 10 0.007314708914018036 0.0006943386358069341 0.006299348423721408 1.210138351495292 -0.6413571657227772 0.01047010063436722 -0.3132381410189818 0.7138394567550013
7294 10 0.004299348423721407 0.0006943386358069342 0.009314708914018036 1.210138479143755 -0.252160967058067 -0.2048211935573538 -0.551949736732493 0.6404571699317503
7295 10 0.005527495947118131 0.002189548015453726 0.005359887880959284 1.210126011512434 -1.475902870468859 0.06741976995305118 -0.8493806856771101 1.704195486920458
7296 10 0.006580069404314664 -0.001807030692296453 0.007451289864493432 1.210139189321453 -0.5835490577709949 0.1594076600048663 -0.5709559597227383 0.8318239073485182
7297 10 0.004678188546295564 -0.001443551060018925 0.008872284851090805 1.210137733992117 -0.4209858662360446 0.2246284538529 -0.504553412720087 0.6944502776573307
7298 10 0.004678188546295564 0.001807757685331539 0.008508441722295732 1.21013652510239 -0.7247277963852841 -0.1814204960661659 -0.6070676850955028 0.9626395740533297
7299 10 0.004541956265299225 0.0004154600094133183 0.005841485239380562 1.210117231603047 -1.330243516285134 -0.4257140991389068 -1.554326720987589 2.089667883277225
7300 10 0.002504455211673187 0.0009971845352794173 0.007569344676051152 1.210123625039714 -0.928370929028777 0.1679691691508211 -1.738599696786819 1.978083701292286
7301 10 0.006951229281740507 -0.001443551060018925 0.00783774964946298 1.210140878968946 -0.5209252050843911 0.2619058055255515 -0.3946462647763026 0.7040620672654438
7302 10 0.00583774964946298 -0.0018863386194637 0.008508805218813276 1.210140088772528 -0.4878678254815734 0.2348888815702621 -0.4906823927497747 0.7307236224319642
7303 10 0.00583774964946298 0.001886702115981243 0.008508441722295732 1.210140057991216 -0.5787186498063267 -0.2086683951745854 -0.4838596813852825 0.7826736012212638
7304 10 0.002977247351281189 0.0004153388439074705 0.006905616447936682 1.210118804318575 -1.094174301842204 -0.3431049330876841 -2.153445682592781 2.439726768676866
7305 10 0.005830069404314665 -0.002249818251741229 0.007758865801566199 1.210138405329849 -0.4710149204757081 0.2067226864078751 -0.5731920110456967 0.7701547934753353
7306 10 0.005830069404314665 0.002250181748258772 0.00775838113954281 1.210138524604684 -0.5796601466922843 -0.210234610194225 -0.4792669529438536 0.7809617719011118
7307 10 0.003239094721376558 0.002189548015453726 0.007576964338446543 1.210125846649364 -0.4866604165335128 0.03830965795623274 -1.337512470321528 1.423813751576691
7308 10 0.005140975579395659 0.001747123952526494 0.004996408248681756 1.210119272424717 -2.638268740664677 0.3869837140915447 -2.127417610991759 3.411176341747573
7309 10 0.005198004248265381 0.001803209395990026 0.007175844957574861 1.210132240507955 -1.196347781055818 -0.01755222265613236 -1.239588806387819 1.722828053718457
7310 10 0.005451229281740508 -0.001443551060018925 0.008872284851090805 1.210139540818197 -0.4617953630612189 0.2272874371410421 -0.5072149982944114 0.7226213330104405
7311 10 0.005451229281740508 0.001444278053054011 0.008871921354573261 1.210139668907184 -0.4160613800472484 -0.1612887897455301 -0.5869536115851954 0.7373165451943304
7312 10 0.007314708914018036 -0.000693490477266001 0.007830069404314665 1.210141202184522 -0.6074696310096377 0.07695636014365044 -0.4325951147118648 0.7497200592475275
7313 10 0.005830069404314665 -0.000693490477266001 0.009314708914018036 1.210141029953729 -0.4897863354126185 0.09087182909157959 -0.5710493431589727 0.7577900078528784
7314 10 0.005830069404314665 0.0006943386358069342 0.009314708914018036 1.210141303349751 -0.4225837887370624 -0.1293573489513749 -0.6018934982723314 0.7467169246063752
7315 10 0.007314708914018036 0.0006943386358069342 0.007830069404314665 1.210141264652777 -0.6049935629306282 -0.09687738777181329 -0.4380639076676749 0.7531948132123983
7316 10 0.005443549036592193 -0.002249818251741229 0.007065132993288504 1.210132692269368 -1.13099307038258 0.0004280325105140315 -1.386244790225253 1.789083599749297
7317 10 0.004787501053626038 -0.001695143575390704 0.006787864550143581 1.210125624672587 -1.773723119959654 0.05586898285410327 -1.386236694329661 2.251858615062364
7318 10 0.00287561508909903 0.001747123952526494 0.007190443970724071 1.210121498078213 -0.9219084565612785 0.0761260000469024 -1.71983829351445 1.952832334329047
7319 10 0.004343952017033844 -0.002445325323649476 0.006723216218878468 1.210122407151055 -1.175968299674753 0.3546043536272899 -1.386233008675371 1.852103572641803
7320 10 0.005101632262182158 -0.0001949012443790085 0.004472792139608002 1.210112630406768 -2.59322973603906 -0.1060630591447901 -1.954832995910506 3.249224811904035
7321 10 0.002472792139608002 -0.0001949012443790085 0.007101632262182158 1.210117740103828 -0.7482423628485562 -0.1184182433648709 -1.971059426426894 2.111626097686124
7322 10 0.003989094721376558 0.002553027647731255 0.007497656411279295 1.210127936713056 -0.8761877165953068 -0.0744614754820504 -1.345253544219768 1.607157902721231
7323 10 0.004685868791443878 6.058275292381985e-07 0.009314708914018036 1.210138711887314 -0.369150674129568 -0.06069712346295756 -0.6276449577675957 0.7306808838460733
7324 10 0.007314708914018036 6.058275292380901e-07 0.006685868791443879 1.21013897503782 -0.6323790983362942 -0.00662483591068838 -0.2993618494878551 0.6996890233469847
7325 10 0.007314708914018036 6.058275292381985e-07 0.007443549036592194 1.21014030657749 -0.6385590776639978 -0.006624843199893757 -0.3648030533717568 0.735447382185752
7326 10 0.005443549036592193 6.058275292381985e-07 0.009314708914018036 1.210140187446198 -0.3668500887094144 -0.06069719747045206 -0.627428446752477 0.7293350349195479
7327 10 0.005133295334247345 0.002553027647731255 0.006803560106484056 1.210129850943802 -1.0984589285255 -0.2072009626586874 -1.118901081618287 1.581608006754724
7328 10 0.003239094721376558 0.0006896691809595732 0.004925144063180367 1.210086870407037 -1.84862791393439 0.1357484275234355 -3.557645857350258 4.011570371571955
7329 10 0.004098407228707032 0.0004153388439074705 0.005026776325362525 1.210102068287935 -4.322480517013501 -0.0200603993699639 -2.877246250350223 5.192570290784575
7330 10 0.002977247351281189 0.0004153388439074704 0.006147936202788367 1.210107564399157 -1.687128137021673 -0.05572100382112941 -3.686112576998172 4.054248649417197
7331 10 0.002867934843950716 0.001076128965929121 0.005288623695457895 1.210090628858028 -1.555998373480966 -0.2696919015789541 -3.693230775950699 4.016692448331349
7332 10 0.003348407228707032 0.0001078234895876266 0.005397936202788368 1.210096726500761 -1.749660091965999 -0.08879271273852793 -3.458691954800641 3.877079393236178
7333 10 0.003207431649311373 -0.002081845691371947 0.005949811986915982 1.210101569679438 -2.217433206368673 -0.2456270093896146 -2.96871249849437 3.713569246851985
7334 10 0.002472792139608002 -0.0001949012443790086 0.006343952017033843 1.210106500184411 -1.72397635655222 -0.1184171434973278 -3.635217047256532 4.025036655546088
7335 10 0.004343952017033844 -0.0001949012443790085 0.004472792139608002 1.210098905139117 -4.252659335717359 -0.1060618562008746 -2.927786141796606 5.164135187531504
7336 10 0.003949751404163058 -0.001639058131927172 0.004836271771885529 1.210094851604625 -4.702665163534602 0.3073707629082835 -3.289471953611549 5.747187325971699
7337 10 0.002843952017033845 -0.0005817245258660996 0.005207431649311372 1.210087198777569 -1.922322305515134 -0.5964504398270767 -3.631340712677299 4.151832311762917
7338 10 0.003981414476228243 0.002189548015453726 0.005359887880959284 1.210102868335699 -2.316993365371562 -0.1266078753855642 -3.478052250884116 4.181068675490221
7339 10 0.002843952017033845 -0.001639058131927171 0.006336332354638452 1.210106240210851 -1.750131100687246 -0.8303562709931049 -3.967179262045728 4.414856929004157
7340 10 0.00437561508909903 0.002553027647731255 0.006803560106484056 1.210125523994466 -1.059779012118439 -0.2284469218675595 -1.118897080994334 1.557963487535936
7341 10 0.002371159877425843 -0.0006363992022166245 0.004734639509703371 1.210062637573426 -7.336354464055309 -0.4888764021154336 -9.045338184282024 11.65672509012887
7342 10 0.007628840122574157 -0.0006363992022166245 0.004734639509703371 1.210137620888254 -2.059206986352411 0.07339595452762161 0.517232979869564 2.124441181640091
7343 10 0.007628840122574157 -0.0006363992022166244 0.009265360490296628 1.210145144748285 -0.1230642846302582 0.08348034013847504 -0.1042281687958464 0.1815965211994111
7344 10 0.002371159877425843 -0.0006363992022166244 0.009265360490296628 1.210133686642648 -0.3824265716784487 -0.08212189093372765 -0.6236245931560663 0.7361397427698982
7345 10 0.002734639509703371 0.0006366415332283189 0.009628840122574157 1.210136443023067 -0.4619044697038266 -0.2089891604745836 -0.5441489865896014 0.7437273209548879
7346 10 0.007265360490296628 0.0006366415332283188 0.004371159877425843 1.210134529966483 -2.016375598700197 -0.06184334949154249 0.4744055305872594 2.072355124577275
7347 10 0.002734639509703371 0.0006366415332283188 0.004371159877425843 1.210060843964324 -7.36906005212859 0.02603531518880691 -9.07804123930347 11.69250001633564
7348 10 0.007628840122574157 0.0006366415332283189 0.009265360490296628 1.210145217188759 -0.1256876666892036 -0.1034600270833403 -0.1068515497272793 0.1947270408571524
7349 10 0.003239094721376558 0.002189548015453726 0.006030882867556656 1.210106675752157 -1.780343881844722 0.3129331575856146 -2.843918939941081 3.369781363188722
7350 10 0.003207431649311373 -0.0009683054763414951 0.004836271771885529 1.210082704941405 -1.964295314319197 -0.5166518287517168 -3.589326468966441 4.124154421797509
7351 10 0.006023040735444943 0.002636520367722472 0.009193732808277696 1.210142747718506 -0.6243276360272563 0.01360784896184227 -0.2615840488854907 0.6770497657425762
7352 10 0.003976959264555057 -0.002193732808277696 0.004363479632277528 1.210088968264296 -4.778690847860364 0.6780045071701123 -2.918820722474615 5.640486746825546
7353 10 0.003976959264555057 -0.002636520367722472 0.00919409630479524 1.210137334534712 -0.6577620746635774 -0.1670186982530496 -0.3896479793083503 0.7825418456612767
7354 10 0.006023040735444943 -0.002636520367722472 0.00919409630479524 1.210142773294827 -0.5377556062183557 -0.009361203690794307 -0.2464328749119221 0.5916061916437039
7355 10 0.003976959264555057 0.002194096304795239 0.009636520367722471 1.210138429641575 -0.1478785225384705 0.3057567553313556 -0.6274972103077436 0.713518044483053
7356 10 0.007265360490296628 -0.00102298015269202 0.004363479632277528 1.210134503148813 -2.166966887683434 -0.08655795600980551 0.4571541658735929 2.216354597856715
7357 10 0.007265360490296628 -0.00102298015269202 0.009636520367722471 1.210145313562824 -0.1130414857088966 0.09835701546965182 -0.1098157525317609 0.1857740011074988
7358 10 0.002734639509703371 -0.00102298015269202 0.009636520367722473 1.210135537271827 -0.4018182838904145 -0.05334015738626497 -0.6344358086432677 0.7528691127596258
7359 10 0.002734639509703371 -0.00102298015269202 0.004363479632277528 1.210058143737262 -7.390246971021423 -0.4088425877519282 -9.015245143250292 11.66437085946554
7360 10 0.002363479632277528 0.001023101318197867 0.00926536049029663 1.210134194075691 -0.5963705814136596 0.1490237769451793 -0.7852339690720711 0.9972253219084197
7361 10 0.002363479632277528 0.001023101318197867 0.004734639509703371 1.210064602415316 -7.215765686792984 -0.3821652237040632 -9.352952123457902 11.81909633299447
7362 10 0.007636520367722471 0.001023101318197867 0.004734639509703371 1.21013752455555 -1.982892753803595 0.02731642249553618 0.5344470834854209 2.053836299482223
7363 10 0.007265360490296629 0.001023101318197867 0.009636520367722471 1.210145461922405 -0.1039843782385577 -0.1356894554511564 -0.118956707814287 0.2082668422296368
7364 10 0.003976959264555057 0.002636520367722472 0.00480590369520476 1.210094998939418 -2.522354614285765 -1.132151439939175 -2.472485245680502 3.709073061193701
7365 10 0.007265360490296628 0.002636520367722471 0.008022980152692019 1.210143143273511 -0.2313103269246874 0.02890935998124133 -0.4861895292089103 0.5391850116137434
7366 10 0.002734639509703371 0.002636520367722472 0.008022980152692019 1.210128247500975 -0.1596791526711853 -0.2886724953916332 -1.331018932847547 1.371291595902215
7367 10 0.002734639509703371 0.002636520367722472 0.005976898681802133 1.210102385886759 -0.7401860828965231 -0.7272194395116863 -2.864580138464806 3.046726590983253
7368 10 0.002734639509703371 -0.002636520367722472 0.00597701984730798 1.210098135642383 -0.9749978150493673 0.9968027864982031 -2.993387546102211 3.302212218450147
7369 10 0.007265360490296628 -0.002636520367722472 0.00597701984730798 1.210138083678091 -0.5167054227900796 -0.268809136672673 -0.5756724968807981 0.8189271454557818
7370 10 0.002734639509703371 -0.002636520367722472 0.008023101318197867 1.210127928883612 -0.1868036365452734 0.2927815899659443 -1.681298924872979 1.716794318731443
7371 10 0.006023040735444943 -0.002193732808277696 0.004363479632277529 1.210122755021031 -2.46060806876322 0.5941964354629554 -0.3300950780405538 2.552767955088387
7372 10 0.006023040735444943 0.002636520367722472 0.00480590369520476 1.210127485833405 -1.450910908920257 -0.05495226557842429 -0.7270096027941494 1.623793453512766
7373 10 0.00433627177188553 -0.0020025377642047 0.005279059331330305 1.210108037724869 -2.66629772245091 -0.3604034752467219 -1.937482411087449 3.315550075476173
7374 10 0.003989094721376558 0.0009971845352794173 0.004553984185754523 1.210092212194211 -4.407638936977367 0.08489310309233868 -2.914121870414114 5.28456186578769
7375 10 0.003957431649311373 -0.002445325323649476 0.006029119914083229 1.210111629832261 -2.455680607695293 -0.1996128197917525 -2.964004257626675 3.854287711635575
7376 10 0.004367934843950715 0.001747123952526494 0.004996408248681756 1.21010498594517 -4.205280515658328 1.075890246516716 -2.816303596778372 5.174310580855401
7377 10 0.003231414476228244 0.001826068383176198 0.00528094345030958 1.210093853035732 -1.517573149210034 0.05017797365765726 -3.654811245962477 3.95767499118579
7378 10 0.00287561508909903 0.001747123952526494 0.006417403235279127 1.210110932492291 -1.546140839410431 0.5995935617144724 -3.338479534589175 3.727668109879552
7379 10 0.003199751404163059 -0.001718366059094419 0.005199751404163058 1.210088487030252 -2.093894709720111 -0.1221098296534997 -3.718933628940783 4.269633848746112
7380 10 0.004363479632277528 -0.002557212440555225 0.004806267191722304 1.21010215438454 -2.630478705443908 -0.5349084814979712 -2.111979750091612 3.415553215537616
7381 10 0.005636520367722471 0.002194096304795239 0.009557212440555225 1.210142358634474 -0.4640771592833317 0.07379670984010106 -0.3520620465405069 0.5871637325022731
7382 10 0.005636520367722471 -0.002193732808277696 0.009557575937072767 1.210142225340496 -0.5123137623994466 -0.01891688379892595 -0.2608090159248485 0.5751909095458886
7383 10 0.004363479632277528 -0.002193732808277696 0.009557575937072769 1.210139172151721 -0.3633180336511972 -0.05642748665423174 -0.2232668885160814 0.4301536450315611
7384 10 0.004363479632277528 0.002557575937072768 0.009193732808277696 1.210137862114951 -0.6873457492217957 0.0009205161940869217 -0.4248768320238331 0.8080627133545661
7385 10 0.004363479632277528 0.002194096304795239 0.004442424062927232 1.210097116548889 -4.504199175871934 -0.3877883406043975 -1.352613691988636 4.71887209116641
7386 10 0.007628840122574157 0.002194096304795239 0.007636459784969548 1.210142707294791 -0.2453476166611713 0.03673497388855888 -0.465353964446499 0.5273511387434217
7387 10 0.002371159877425843 0.002194096304795239 0.007636459784969548 1.210123898929824 -0.3563567980578446 -0.3983166066567247 -1.622939662286574 1.708677685838797
7388 10 0.007628840122574157 -0.002193732808277696 0.006363540215030452 1.210140012874739 -0.2500047162305297 -0.1201274740456054 -0.1798137145411927 0.3305539896827548
7389 10 0.002371159877425843 -0.002193732808277696 0.006363540215030452 1.210102806173796 -0.1313777127759597 0.5264990193487427 -4.245572980271664 4.280111126080986
7390 10 0.002371159877425843 0.002194096304795239 0.006363419049524604 1.210106642626894 -0.2743290921616306 -0.4673863796291379 -3.556391419470451 3.597447207000001
7391 10 0.002371159877425843 -0.002193732808277696 0.007636580950475395 1.210123004750093 -0.3211831554379879 0.3677316999583016 -1.880846713505294 1.943185421465226
7392 10 0.005636520367722471 -0.002557212440555225 0.004806267191722304 1.210121168024085 -1.766276702540416 0.9862166856166503 -0.5908793618040071 2.107485506742964
7393 10 0.005636520367722471 0.002194096304795239 0.004442424062927232 1.210120746745688 -2.469843630708151 -0.4376588860546718 -1.302777131195765 2.826464419422065
7394 10 0.002726959264555057 0.002273040735444943 0.009273040735444944 1.210134802894811 -0.4893726843326489 0.0410186075782832 -0.8922325612169386 1.018453284954367
7395 10 0.002726959264555057 -0.002273040735444944 0.009273040735444944 1.210134516851664 -0.384986431246129 0.09460140605663293 -0.651266787516855 0.7624384609881946
7396 10 0.007273040735444943 0.002273040735444943 0.004726959264555057 1.210137164750349 -1.57840206468564 -0.9119249475240802 0.1299568250141612 1.827525366195624
7397 10 0.007273040735444943 -0.002273040735444943 0.004726959264555056 1.210136404381692 -1.547681069547637 0.7621676001008723 -0.1621343384502836 1.732773409128947
7398 10 0.007273040735444943 0.002273040735444943 0.009273040735444944 1.21014538527907 -0.2010613776868469 0.05915879130704849 -0.2160337063143491 0.3009916983077079
7399 10 0.007273040735444943 -0.002273040735444943 0.009273040735444944 1.210145181976554 -0.207754468059042 -0.05126585248928932 -0.2045287352326483 0.296010321046101
7400 10 0.002504455211673187 0.0009971845352794171 0.006038623695457894 1.210101819534375 -1.622643117841586 -0.2661571973620693 -3.51527779105532 3.880848913559128
7401 10 0.002726959264555057 0.002273040735444943 0.004726959264555057 1.210070249066262 -3.783698851651191 2.316332298052823 -5.920895260975778 7.398565604658422
7402 10 0.002726959264555057 -0.002273040735444944 0.004726959264555056 1.210065332994357 -4.238487093906051 -2.26673994110324 -5.86349492034748 7.581784452669542
7403 10 0.004999999999999999 0.002557575937072768 0.009557212440555223 1.210140528687805 -0.5112275978174844 0.1004402328467813 -0.3254397520757933 0.6142905903362879
7404 10 0.004999999999999999 -0.002557212440555225 0.009557575937072769 1.210140572459977 -0.4710342956477454 0.004389333769458071 -0.2841339998548874 0.5501133554103594
7405 10 0.002371159877425843 1.211655058473704e-07 0.009628840122574157 1.210135174543654 -0.3794486294130356 -0.08654278941588144 -0.6266037723567 0.7376335162497429
7406 10 0.007628840122574157 1.21165505847262e-07 0.004371159877425843 1.210138463337995 -2.083336355035826 0.03758339825481059 0.5413612751260358 2.15285273770512
7407 10 0.007628840122574157 1.211655058473704e-07 0.009628840122574157 1.210145316449173 -0.1873344785158972 -0.0119145740849553 -0.1684983600090166 0.2522456367158353
7408 10 0.002371159877425843 1.21165505847262e-07 0.004371159877425843 1.210046138853905 -7.526027119090327 -0.2071939767069048 -9.234987538748506 11.91507483745305
7409 10 0.002371159877425843 -0.002557212440555225 0.007000060582752923 1.210114619787666 -1.022718719792711 -0.2204666737140512 -2.922616858111069 3.104230731332322
7410 10 0.007628840122574157 -0.002557212440555225 0.007000060582752923 1.210140957457698 -0.3951265641981198 0.001488959425866502 -0.3952149960213336 0.5588578636964193
7411 10 0.007628840122574157 0.002557575937072768 0.006999939417247076 1.210141033247919 -0.2362186278249014 0.04439130487760486 -0.4789027909024156 0.5358336600236481
7412 10 0.002371159877425843 0.002557575937072768 0.006999939417247076 1.21011680186252 -0.9664982631134577 0.1134253945856749 -2.528553911979995 2.709348463842844
7413 10 0.002363479632277528 -0.001773040735444944 0.009636520367722473 1.210134853245701 -0.3568282943450764 0.06644318843671312 -0.6794252124671479 0.7702984799873891
7414 10 0.007636520367722471 -0.001773040735444944 0.009636520367722471 1.210145820386382 -0.09804889586771613 0.05843980225469003 -0.09482316133964717 0.1483921439796941
7415 10 0.007636520367722471 0.001773040735444943 0.009636520367722471 1.210146016608272 -0.07728888284671806 -0.06461377756087981 -0.09226121928499079 0.1366039686331759
7416 10 0.007636520367722471 0.001773040735444943 0.004363479632277529 1.210139494521688 -2.128905140659699 -0.3614266658066726 0.680457112511771 2.264042449834208
7417 10 0.007636520367722471 -0.001773040735444944 0.004363479632277528 1.210138857252203 -2.229620313615447 0.08023303780252676 0.5198014400391656 2.290815928945068
7418 10 0.002363479632277528 0.001773040735444943 0.009636520367722473 1.210135558567414 -0.5376665194000531 -0.007274896295081975 -0.8439395888699989 1.000685884712048
7419 10 0.002363479632277528 0.002636520367722472 0.008773040735444944 1.210131738954199 -0.3695071325472324 -0.07884580905540184 -0.7723659894629068 0.8598263803163368
7420 10 0.007636520367722471 0.002636520367722472 0.005226959264555056 1.210139858476413 -0.9160239702672313 -0.2495453695963714 0.7923387220632009 1.236597531969022
7421 10 0.007636520367722471 0.002636520367722472 0.008773040735444944 1.21014494961474 -0.1492875988566168 0.1109324764584157 -0.2678073349909869 0.3260576178845478
7422 10 0.007636520367722471 -0.002636520367722472 0.008773040735444944 1.210144797381327 -0.1531727756062256 -0.1058474626256901 -0.2591102966622482 0.3190669684683927
7423 10 0.006773040735444944 -0.002636520367722472 0.009636520367722471 1.210144769253917 -0.2673954634407155 -0.1109069012400485 -0.1448875992453626 0.3237176100035797
7424 10 0.003226959264555057 -0.002636520367722472 0.009636520367722471 1.210136664085234 -0.269278477237644 -0.02110706318768283 -0.5355593059748149 0.5998167858905407
7425 10 0.003226959264555057 0.002636520367722472 0.009636520367722471 1.21013697918557 -0.2036779294542242 0.3267143162752322 -0.6065385308134801 0.7184120911895396
7426 10 0.007636520367722471 -0.002636520367722472 0.005226959264555056 1.210139592136577 -0.9111181951684022 0.1256026565789955 0.4744321856357172 1.034890473274207
7427 10 0.006773040735444944 0.002636520367722471 0.009636520367722471 1.21014493684694 -0.2835169166377607 0.1416143828397908 -0.1335780128093658 0.3439179567178441
7428 10 0.002363479632277528 -0.002636520367722472 0.008773040735444944 1.210131872048194 -0.5221584420514493 -0.04257165287619518 -0.7884382163729591 0.9466237928932386
7429 10 0.004999999999999999 -0.002557212440555225 0.004442787559444775 1.210109373796933 -3.545441858167143 -0.01832790667704869 -1.595408583704596 3.887907204495131
7430 10 0.004999999999999999 0.002557575937072768 0.004442424062927232 1.210110460482817 -3.531156523330282 0.1620714170829523 -1.902492640757089 4.01432581944069
7431 10 0.002472792139608002 -0.0008889975491742478 0.005957431649311371 1.210097651397829 -1.836341462965092 -0.5887999731293645 -4.016713466329536 4.45565062000545
7432 10 0.003957431649311373 -0.0008889975491742481 0.004472792139608002 1.210089069515778 -4.544082155510142 -0.465401849821618 -3.01361120419933 5.472397464358635
7433 10 0.006773040735444944 -0.002636520367722472 0.004363479632277529 1.210132480705884 -1.919052006793432 0.3907891737742178 -0.5335097679693775 2.029805275300016
7434 10 0.002363479632277528 0.001773040735444943 0.004363479632277529 1.210049158300293 -7.015374074218383 -0.9154492408565189 -9.152533234732413 11.56816257348943
7435 10 0.002363479632277528 -0.001773040735444944 0.004363479632277528 1.210044493017141 -7.036879861836015 0.5317648575354503 -8.661859702970016 11.17265705047634
7436 10 0.006773040735444944 0.002636520367722472 0.004363479632277529 1.21013343604961 -2.166572189834535 -0.3237471493696731 -0.4582185637997516 2.238037426563754
7437 10 0.002363479632277528 0.002636520367722472 0.005226959264555056 1.210077828813821 -2.405709126314242 0.9383333815844198 -7.298945772896689 7.742255183802309
7438 10 0.002363479632277528 -0.002636520367722472 0.005226959264555056 1.210072539128682 -2.649738277116934 -0.6779793826146551 -7.45230389415859 7.938362697141046
7439 10 0.003226959264555057 -0.002636520367722472 0.004363479632277528 1.210066963857987 -6.526667668130249 0.02143186599006375 -3.575327960620998 7.44182908975306
7440 10 0.003226959264555057 0.002636520367722472 0.004363479632277528 1.210070138053995 -5.9461762316913 0.1538543584115057 -3.7584169906611 7.0360771185102
7441 10 0.003989094721376558 0.002553027647731255 0.00610982729820636 1.210115691052123 -2.44925403996454 0.1076303747928453 -2.830646913748575 3.74472850820657
7442 10 0.002472792139608002 -0.0008889975491742478 0.00748815262990463 1.210121356446577 -0.7549226893070271 -0.1090420236339475 -1.978670551491376 2.120597930086684
7443 10 0.003287501053626038 -0.0005816033603602518 0.007552861543922667 1.210126067141429 -0.9474732368897388 -0.1117830459454938 -2.11662475178159 2.321702247024292
7444 10 0.005552861543922667 -0.0005816033603602518 0.005287501053626039 1.210124377529543 -1.982633930334139 -0.08289542937960773 -1.097977550813273 2.267876464010802
7445 10 0.00548815262990463 -0.0008889975491742478 0.004472792139608002 1.210117567900619 -2.602050599581017 -0.09520120187982203 -1.962577204456091 3.260588884706254
7446 10 0.005584524615987851 0.001803209395990026 0.006482112149297165 1.2101312642628 -1.489057069437962 0.152196072485336 -0.6941005730347085 1.649918242219973
7447 10 0.005519815701969815 0.002553027647731254 0.006109827298206361 1.210128874698647 -1.444007811518781 0.08887717056966712 -0.6932039818792827 1.604241089010321
7448 10 0.007636520367722471 -0.002193732808277696 0.008023040735444943 1.210143585413841 -0.226750306085522 -0.03226967274426833 -0.4550074693694945 0.5094004615927744
7449 10 0.007265360490296628 -0.002557212440555225 0.007636580950475395 1.210141895766348 -0.2726210019674476 -0.1012245946750804 -0.5771364402637397 0.6462624079746326
7450 10 0.002843952017033845 -0.001639058131927171 0.007109373090083396 1.210118705340182 -0.766919859416869 -0.005913005087829269 -1.957505806046309 2.102386742514842
7451 10 0.003207431649311373 -0.002081845691371947 0.007495893457805869 1.210123629473701 -0.4142923849590798 0.06529113770916836 -1.685813925167764 1.737201687538894
7452 10 0.007636520367722471 0.002194096304795239 0.005976959264555057 1.210138499462265 -0.5118362134763429 0.154641638747912 -0.2837920211293198 0.6053331786025812
7453 10 0.007265360490296628 0.002557575937072768 0.006363419049524604 1.210138576493358 -0.3661077797158384 -0.06460264269080734 -0.6717878396839503 0.7677937935138092
7454 10 0.006580069404314664 -0.0018863386194637 0.006291728761326018 1.210136422976734 -0.8389371599199472 0.05342367840330999 -0.5820735334184425 1.022486795032052
7455 10 0.006943549036592194 -0.001443551060018925 0.006678249129048489 1.210138352173382 -0.5603550302545589 0.1400120639499879 -0.2331899937909968 0.6228793712970179
7456 10 0.006580069404314664 0.001886702115981243 0.007837689066710056 1.210140411978612 -0.502790392079323 -0.2425712924709587 -0.4807948980100021 0.7367514806573238
7457 10 0.006943549036592194 0.001444278053054011 0.007451168698987585 1.210139975999892 -0.5485162441348046 -0.217593701402824 -0.413407848402731 0.7205020042240753
7458 10 0.003957431649311373 -0.002445325323649475 0.007416949027156164 1.210125734640196 -0.9245623172829085 0.1537180463367746 -1.695957609247339 1.937709196105826
7459 10 0.004400980685903567 -0.001695143575390704 0.007481597358421277 1.210128952161727 -0.9897530115569391 -0.215354279277956 -2.015130687700115 2.255380273479419
