ITEM: FORMAT_VERSION
2
ITEM: TIMESTEP
190
ITEM: TIME
0.0475
ITEM: SOLVER_DT
0.00025
ITEM: CHARACTERISTIC_CELL_SIZE
0.001006729258263952
ITEM: MESH_ID
d5565440872044428698bf7318514570
ITEM: NUMBER OF CELLS
7321
ITEM: BOX BOUNDS
-0.0127 0.0127
-0.0127 0.0127
0 0.1
ITEM: REGIONS
10
1 hot_plate
2 cylinder_1
3 heat_switch
4 cylinder_2
5 ggg
6 cylinder_3
7 cold_stage
8 support_1
9 support_2
10 sample
ITEM: UNITS
x=m y=m z=m T=K qx=W/m^2 qy=W/m^2 qz=W/m^2 qmag=W/m^2
ITEM: FIELDS cell_ID region_ID x y z T qx qy qz qmag
139 1 0.004404475335497139 0.002366465102638707 0.09702172772330488 4 0 0 0 0
140 1 0.001608879040517608 0.004747609223894205 0.0964826399299135 4 0 0 0 0
141 1 -0.003972025634625388 0.008476751603612893 0.09699059181107911 4 0 0 0 0
142 1 0.0007961564439413169 0.001176550420056354 0.09650125721113834 4 0 0 0 0
143 1 0.00491392655454303 -0.001074938492064943 0.09649627099667514 4 0 0 0 0
144 1 0.001328084456470504 0.001185967036064069 0.09850612151382274 4 0 0 0 0
145 1 -0.01061955028569532 0.002022282352182967 0.09750812554682424 4 0 0 0 0
146 1 -0.00457227285920651 0.008002301980584527 0.09699962924391071 4 0 0 0 0
147 1 0.002216896079806696 0.001720212594116514 0.09851970113643639 4 0 0 0 0
148 1 0.000918047896583245 0.001717048906431458 0.09700580061072892 4 0 0 0 0
149 1 -0.004513247120461401 -0.004939557588187564 0.09701927089297326 4 0 0 0 0
150 1 -0.001141567860309122 0.008777146582482843 0.09680871696230459 4 0 0 0 0
151 1 -0.01020255702256345 0.001569576738257014 0.09700007501609195 4 0 0 0 0
152 1 0.004046733558279779 0.002023108832865826 0.09702172772330488 4 0 0 0 0
153 1 -0.006023952406161198 -0.007912265269342748 0.09692796510577502 4 0 0 0 0
154 1 0.004312735522862664 0.003228378494110255 0.09699241074282652 4 0 0 0 0
155 1 -0.004044608619801616 0.008043925291764635 0.09748815349711799 4 0 0 0 0
156 1 -0.002290066482166606 -0.004248045654672961 0.09651103660153955 4 0 0 0 0
157 1 0.002210881277096702 0.004729340797928158 0.09685354979733378 4 0 0 0 0
158 1 -0.01034320181187102 0.00316241470026343 0.09750088393089665 4 0 0 0 0
159 1 0.00458864193884915 -0.001583833365694672 0.09700252249935488 4 0 0 0 0
160 1 -8.409800686577635e-05 -0.00948224470851378 0.09701911732115487 4 0 0 0 0
161 1 0.003649522271854398 0.001447329315696795 0.0985220486263987 4 0 0 0 0
162 1 0.004030046518721879 -0.0002207644966800413 0.09700721179264671 4 0 0 0 0
163 1 0.007189038560065275 -0.002229794574324124 0.09749539017293417 4 0 0 0 0
164 1 0.001312885482841287 0.004255952538243651 0.09698718332950408 4 0 0 0 0
165 1 0.001289982588286838 0.001137888358796049 0.09750612151382274 4 0 0 0 0
166 1 -0.0071558822171444 -0.008340952444490676 0.09747709233856403 4 0 0 0 0
167 1 0.007482708139502735 -0.002761224220507505 0.09699911917625904 4 0 0 0 0
168 1 -0.005013384832580885 -0.00476111457155141 0.09650823429143372 4 0 0 0 0
169 1 0.003704761903028 -0.0007296593703097711 0.09751346329532648 4 0 0 0 0
170 1 0.0101427479292425 -0.002071238037913896 0.09903018313831496 4 0 0 0 0
171 1 0.009432256351951822 -0.005613910685735501 0.09853312852739833 4 0 0 0 0
172 1 0.003590838959112976 -0.0003933985900792084 0.09650032090309382 4 0 0 0 0
173 1 0.01083388815042814 -0.002279798810155452 0.0984986745218821 4 0 0 0 0
174 1 -0.008602806849939321 0.005734918155642509 0.09700780931336511 4 0 0 0 0
175 1 -0.006297265222201662 -0.007385566418284974 0.09644206779758337 4 0 0 0 0
176 1 0.0003992122081386518 -0.009108733669797024 0.09652052280385721 4 0 0 0 0
177 1 0.0009215623163572746 -0.008660806454225697 0.0978042053574795 4 0 0 0 0
178 1 -0.006544399497164483 -0.007474060572227353 0.09742649798458272 4 0 0 0 0
179 1 0.003704783962252899 0.001245741053965009 0.0975220486263987 4 0 0 0 0
180 1 0.003090762414975843 0.001682115792116973 0.0970151577368458 4 0 0 0 0
181 1 -0.001508448029868462 -0.004203213387572508 0.0985310844259018 4 0 0 0 0
182 1 -0.002622482453328824 -0.003397448728393802 0.09752364082182274 4 0 0 0 0
183 1 0.0007791802345812292 0.001660923426683222 0.09900580061072892 4 0 0 0 0
184 1 -0.001276443463103503 -0.004196880727082302 0.0975310844259018 4 0 0 0 0
185 1 0.002634761322637287 -0.006897623620272933 0.09692469599038755 4 0 0 0 0
186 1 0.005009072122619689 0.002342301345629192 0.09751680317924988 4 0 0 0 0
187 1 0.003001932168050934 -0.006531746248094055 0.09646115673766723 4 0 0 0 0
188 1 -4.550744378492425e-05 -0.009922498349544838 0.09649859451729767 4 0 0 0 0
189 1 0.004596068655003827 0.002200533337588097 0.09851680317924986 4 0 0 0 0
190 1 -0.003936519850611152 -0.005437882954367297 0.09651103660153955 4 0 0 0 0
191 1 -0.008679241427403348 0.006368460932034574 0.09751299436391003 4 0 0 0 0
192 1 -0.0008214245260087604 0.00908181155503966 0.09732154484789193 4 0 0 0 0
193 1 0.003559333861875934 -0.008381474977354574 0.09750543102574223 4 0 0 0 0
194 1 0.004621704070442415 0.00195442110382931 0.0965068908895529 4 0 0 0 0
195 1 -0.009174022683964136 0.006447699767100785 0.09699574615821033 4 0 0 0 0
196 1 -0.003422914361887601 0.008528150599111398 0.09648852425320729 4 0 0 0 0
197 1 0.008799327198431475 -0.00525503968867653 0.09903990623395416 4 0 0 0 0
198 1 -0.0081806590059592 0.00712644623726368 0.09851955535783394 4 0 0 0 0
199 1 -0.00342962435345801 0.007432834407802071 0.0974938476779834 4 0 0 0 0
200 1 -0.003169829112461696 -0.003449345037964971 0.09651317313092422 4 0 0 0 0
201 1 0.007175657726388543 -0.0004339089264965991 0.09699770822828044 4 0 0 0 0
202 1 0.001914887719420381 0.004237684112277604 0.09735809319692436 4 0 0 0 0
203 1 0.002516793406709959 0.007214185670736161 0.09647060432127208 4 0 0 0 0
204 1 -0.00713671174852133 -0.008271425774916597 0.09847709233856403 4 0 0 0 0
205 1 -0.002711095948403133 0.007564600346855783 0.09731633875540267 4 0 0 0 0
206 1 0.004917332309985215 0.003204214737100739 0.09748748619877151 4 0 0 0 0
207 1 0.001684810981286585 0.002090187582254394 0.09650454339959059 4 0 0 0 0
208 1 0.004461105210586552 -0.008450295257548306 0.09755351622224369 4 0 0 0 0
209 1 0.006191243393601606 0.001338317206561974 0.09700196634549789 4 0 0 0 0
210 1 -0.003731037020586808 0.005859080925729169 0.09650776173873725 4 0 0 0 0
211 1 0.006627227857735864 -0.003150980476058897 0.09695211862525296 4 0 0 0 0
212 1 0.007532690651074777 7.8220471235284e-05 0.09650143723160531 4 0 0 0 0
213 1 0.007082099803404105 0.00423003614045932 0.09749273295594738 4 0 0 0 0
214 1 -0.004314647680962678 -0.009265786995356693 0.09648589730819168 4 0 0 0 0
215 1 0.0008552567463992238 -0.007717711592285632 0.09779416496172025 4 0 0 0 0
216 1 -0.001875801179156732 -0.003794406492059408 0.09701046769089852 4 0 0 0 0
217 1 -0.001013463898119193 -0.008147662990431612 0.09630714435153982 4 0 0 0 0
218 1 -0.003812835022187613 -0.0092683689638776 0.09698792089773883 4 0 0 0 0
219 1 0.01056128985365067 -0.001451177594511885 0.09950734618651377 4 0 0 0 0
220 1 -0.003036747756338698 -0.003851087891007355 0.09702420973246376 4 0 0 0 0
221 1 0.000933334514743383 -0.009136963430302431 0.09849325566158912 4 0 0 0 0
222 1 0.009732688516929752 -0.00189481473222722 0.09752793693223255 4 0 0 0 0
223 1 0.004504328842369352 0.003062446729059645 0.09848748619877151 4 0 0 0 0
224 1 -0.008137389216190803 0.007073303405339322 0.09751955535783394 4 0 0 0 0
225 1 0.006333558278298404 -0.002619550829875516 0.09744838962192812 4 0 0 0 0
226 1 0.009368145429977172 -0.005503500634520465 0.09753312852739833 4 0 0 0 0
227 1 0.002929146110128527 0.001524791886710173 0.0990151577368458 4 0 0 0 0
228 1 -0.00764728232952695 0.003628136233045499 0.09750114774980342 4 0 0 0 0
229 1 0.002344101253129114 0.006741263527228673 0.09695324425118557 4 0 0 0 0
230 1 0.01131381926400415 -0.001316428422043223 0.09911962239600997 4 0 0 0 0
231 1 0.009520818561368057 -0.00175817436616823 0.09852793693223255 4 0 0 0 0
232 1 0.004743267879111871 -0.001124870525227447 0.09850941338890778 4 0 0 0 0
233 1 -0.00499349014549838 -0.005280530761875108 0.09746133869055662 4 0 0 0 0
234 1 0.006840038693368602 0.001274344856617765 0.09750340357710319 4 0 0 0 0
235 1 -0.007499433392630678 -0.004837665919618542 0.09750705935936273 4 0 0 0 0
236 1 -0.002706656870171325 -0.003300262428620789 0.09852364082182274 4 0 0 0 0
237 1 -0.002899140026774078 -0.002294195201790593 0.09853537020146506 4 0 0 0 0
238 1 -2.043942215563708e-05 0.01109202862572434 0.09737580150830891 4 0 0 0 0
239 1 0.0006282754957222478 -0.008872288992005607 0.09734066610475914 4 0 0 0 0
240 1 0.01158507768025144 0.001236080348649315 0.09871784012623339 4 0 0 0 0
241 1 0.0006279656022389981 0.007055718983632542 0.0983277142158423 4 0 0 0 0
242 1 0.006754348922969461 0.0002417376032740531 0.09850459911783332 4 0 0 0 0
243 1 0.0116425705163785 -0.001802275187649249 0.09858811377957707 4 0 0 0 0
244 1 0.004999568584770008 -0.0100875823425507 0.09702034741436942 4 0 0 0 0
245 1 -0.007151381748202579 0.00397614144782184 0.09699887545730448 4 0 0 0 0
246 1 -0.006525229028541414 -0.007404533902653275 0.09842649798458272 4 0 0 0 0
247 1 -0.009606824038756489 0.003134183788910624 0.09699283340016437 4 0 0 0 0
248 1 0.001342190671299476 -0.008796395122699936 0.09728368255362227 4 0 0 0 0
249 1 0.007749667228172624 -0.002272539185040816 0.09649775379391758 4 0 0 0 0
250 1 -0.008642906687716246 0.006664150432055167 0.09902243325624463 4 0 0 0 0
251 1 0.001920801570758113 0.004578265348418811 0.09835809319692436 4 0 0 0 0
252 1 0.01065880868720259 -0.002272224470194992 0.09749867452188207 4 0 0 0 0
253 1 -0.00147976402078384 -0.00520789485117834 0.09852069427257371 4 0 0 0 0
254 1 -0.006817712313204948 -0.00694736172116958 0.09694060067639106 4 0 0 0 0
255 1 -0.001247759454018882 -0.005201562190688134 0.09752069427257372 4 0 0 0 0
256 1 -0.004086011111439468 0.006333099432153138 0.09700532342477612 4 0 0 0 0
257 1 0.0009011627454192722 0.004621016241555095 0.09747781597232652 4 0 0 0 0
258 1 0.01201723542328049 0.001397946946617056 0.09810556391673739 4 0 0 0 0
259 1 0.002713193177880483 -0.009612063556662753 0.09651439018578291 4 0 0 0 0
260 1 -0.0007039956120548931 0.005862586393978379 0.09831952491505058 4 0 0 0 0
261 1 0.003883997552572393 0.0007438120510621073 0.09900721179264671 4 0 0 0 0
262 1 -0.0004999621402262702 0.006608470334972484 0.09681845184559378 4 0 0 0 0
263 1 0.004378956518570871 -0.008482294325528137 0.09855351622224368 4 0 0 0 0
264 1 -0.004214543624865735 -0.01032039786471215 0.09740110902175533 4 0 0 0 0
265 1 6.272797731189118e-05 0.007757682479276417 0.09831731701459939 4 0 0 0 0
266 1 -0.01057366591184441 0.00411297003925256 0.09700132254385255 4 0 0 0 0
267 1 0.001590990738418362 -0.005303453248561354 0.09698177347267051 4 0 0 0 0
268 1 0.002212209172530819 0.003908878414134958 0.09839029010076286 4 0 0 0 0
269 1 0.003946701849194679 9.48170178387899e-05 0.09700721179264671 4 0 0 0 0
270 1 -0.00305437292421309 -0.009638075138804023 0.09690696795974754 4 0 0 0 0
271 1 0.003477185169860254 -0.008413474045334405 0.09850543102574223 4 0 0 0 0
272 1 0.001259603018844109 0.0003714083750936354 0.09900157811423214 4 0 0 0 0
273 1 0.0005888212468340181 0.01151489581094368 0.09683157649137936 4 0 0 0 0
274 1 -0.003635454840393034 -0.00955796285170368 0.09739286526793919 4 0 0 0 0
275 1 -0.009790802474627519 0.00630620854375603 0.09748782917858095 4 0 0 0 0
276 1 0.0002583222817538967 -0.00984712518041022 0.09752831092616643 4 0 0 0 0
277 1 0.001911539467134311 -0.007082698152701496 0.09696269246197267 4 0 0 0 0
278 1 0.002038167107603414 0.007094828505830125 0.0974625066214341 4 0 0 0 0
279 1 0.01117944577273183 0.001837980908926657 0.09792795219001033 4 0 0 0 0
280 1 0.002269880760866364 -0.004117103032941976 0.09839501650766688 4 0 0 0 0
281 1 0.0002777677240171837 0.008337173723091316 0.09834228296493316 4 0 0 0 0
282 1 0.005448197825788386 -0.009627265139971296 0.09753197186359122 4 0 0 0 0
283 1 0.002348404635112931 -0.007314948378071177 0.09646353925272036 4 0 0 0 0
284 1 -0.0009519910703419227 0.008860126240676745 0.0984892140740482 4 0 0 0 0
285 1 0.002685954012430689 -0.004640509014766386 0.09889615748540492 4 0 0 0 0
286 1 0.007570369204724236 0.003733089763410182 0.09698980750970849 4 0 0 0 0
287 1 0.007464473539838434 0.004742144700709442 0.09699765750000239 4 0 0 0 0
288 1 -0.008834642042483689 0.005977494296496495 0.09851299436391003 4 0 0 0 0
289 1 0.003119709166166937 -0.007031800217982853 0.09745219757762653 4 0 0 0 0
290 1 -0.005110131138764365 -0.005147698210795325 0.09846133869055662 4 0 0 0 0
291 1 -0.001526927297182859 -0.005696628590762543 0.0964890409360309 4 0 0 0 0
292 1 -0.008465066905390492 0.00407625064996464 0.09751008160586405 4 0 0 0 0
293 1 -0.003976420377149599 -0.005985708710066564 0.09702487234183528 4 0 0 0 0
294 1 -0.001358786789566826 0.008245097116599372 0.09712876972576275 4 0 0 0 0
295 1 0.006177624168407691 0.000518861963347891 0.0965068908895529 4 0 0 0 0
296 1 -0.0008833211905605076 -0.003838896985825259 0.09902004782436226 4 0 0 0 0
297 1 0.00602264526530023 -0.006037835268840984 0.09754446477466482 4 0 0 0 0
298 1 -0.01040169827025863 0.001914936492842507 0.09850812554682425 4 0 0 0 0
299 1 0.006678688033735572 0.001730306392683328 0.096495075455945 4 0 0 0 0
300 1 0.009781647276529226 -0.00133978548364845 0.09700509998043133 4 0 0 0 0
301 1 0.003486880011580585 -0.006665922845803973 0.09698865832490619 4 0 0 0 0
302 1 0.007764807254769161 -0.0006749665644801662 0.097495462022198 4 0 0 0 0
303 1 -0.001212921157806935 0.006204649916787763 0.09882889227222816 4 0 0 0 0
304 1 -0.009992675539570265 0.003604953156305436 0.09649056110766541 4 0 0 0 0
305 1 -0.002303297218807611 -0.001664165909391465 0.09849233016487377 4 0 0 0 0
306 1 -0.003565091501893697 0.0008182641935359203 0.09855573403393228 4 0 0 0 0
307 1 0.006073633814720264 -0.006104164838131285 0.09854446477466482 4 0 0 0 0
308 1 0.007172419014392196 -0.001619801854743749 0.0989940247905927 4 0 0 0 0
309 1 -0.00351507698314863 0.007279401797994063 0.0984938476779834 4 0 0 0 0
310 1 -0.007394030879401802 -0.004591202897540942 0.09850705935936273 4 0 0 0 0
311 1 -0.00276988870913301 0.0004463141139449961 0.09849641535174582 4 0 0 0 0
312 1 -0.004180190139553093 0.008342059316572165 0.09848815349711799 4 0 0 0 0
313 1 -0.003092313901293199 -0.002054120705986227 0.09753537020146506 4 0 0 0 0
314 1 0.001698448154709306 -0.004699017829682674 0.09698177347267051 4 0 0 0 0
315 1 0.006833667087433284 0.001278980477333525 0.09850340357710319 4 0 0 0 0
316 1 0.004788197002780418 -0.01070720665636177 0.09751356971552293 4 0 0 0 0
317 1 0.01117226148036062 -0.001169042804312107 0.09681432037889251 4 0 0 0 0
318 1 -0.0002244301414814501 0.008247945395827282 0.09832088252993822 4 0 0 0 0
319 1 0.002546456932135089 -0.009225894089356772 0.09697792943850324 4 0 0 0 0
320 1 0.00282425739371051 0.001114018065480857 0.09650032090309382 4 0 0 0 0
321 1 -0.002191980162764191 -0.0037035528527766 0.09901046769089852 4 0 0 0 0
322 1 0.002516609331068008 0.008094684204365434 0.09647060432127208 4 0 0 0 0
323 1 0.0007416324967583248 -0.009473614141693463 0.09702971640886876 4 0 0 0 0
324 1 -0.009699863826113422 -0.003704485487921827 0.09852454058241733 4 0 0 0 0
325 1 0.007725985609048393 -0.0007893437058936958 0.09849546202219803 4 0 0 0 0
326 1 -0.0038760355985228 -0.008842368563778456 0.09698792089773883 4 0 0 0 0
327 1 -0.007646475920139501 0.003491999455662497 0.09850114774980342 4 0 0 0 0
328 1 0.005221316922102638 0.001806804404709598 0.09900196634549789 4 0 0 0 0
329 1 0.01063765521356277 0.001703190843233398 0.09739784465992399 4 0 0 0 0
330 1 -0.0005976062993263107 0.01054046322950602 0.09704343528550712 4 0 0 0 0
331 1 -0.0007163209384136931 0.008535807946833106 0.09780940678314551 4 0 0 0 0
332 1 0.001035249099033863 0.007468123442113221 0.09650926237024854 4 0 0 0 0
333 1 -0.003347346389109604 -0.009433823952676917 0.09839286526793919 4 0 0 0 0
334 1 0.0002494033518996907 0.006542561630093062 0.09881845184559378 4 0 0 0 0
335 1 0.008315667824301116 0.00374419671410842 0.09849258219261472 4 0 0 0 0
336 1 0.006216564023466428 -0.006944366130656372 0.09755619531861372 4 0 0 0 0
337 1 -0.01109900671071593 0.003812774946914692 0.09750937307458485 4 0 0 0 0
338 1 0.006212445460206011 -0.00275340042068566 0.09844838962192809 4 0 0 0 0
339 1 -0.002653757175833365 -0.002609854794825669 0.09701260422028321 4 0 0 0 0
340 1 -0.004162430764293575 0.005505394089279029 0.09701029541761276 4 0 0 0 0
341 1 0.006126071962820122 -9.244975147661039e-05 0.09900316188622803 4 0 0 0 0
342 1 0.0005743181956172962 0.005670741170532412 0.09830386248307614 4 0 0 0 0
343 1 0.0002858552071025747 -0.008507408520109167 0.09683147249974758 4 0 0 0 0
344 1 -0.003639139906722078 0.005118006768592195 0.09752460083157687 4 0 0 0 0
345 1 0.001336806325066726 -0.005731872382550789 0.09748092668192282 4 0 0 0 0
346 1 0.004771404468400946 -0.009053359610536747 0.09702601463500471 4 0 0 0 0
347 1 0.008500667723677144 -0.004909969572305544 0.09754127161629561 4 0 0 0 0
348 1 0.005407219728080658 -0.009660598630410354 0.09853197186359122 4 0 0 0 0
349 1 -0.001963258786500842 -0.005387892566802317 0.09700007753757044 4 0 0 0 0
350 1 -0.003555888514347611 0.009181551902961884 0.09699604451046399 4 0 0 0 0
351 1 -0.00428793088062935 -0.01031355194967717 0.09840110902175536 4 0 0 0 0
352 1 0.002279047277662807 -0.009630328874088925 0.0974871230435148 4 0 0 0 0
353 1 -0.004104999787085398 0.009130152907463378 0.09749811206833582 4 0 0 0 0
354 1 0.001976416411680685 0.007024139665725944 0.0984625066214341 4 0 0 0 0
355 1 0.005056655702694552 0.003161567582388301 0.09897264936501954 4 0 0 0 0
356 1 -0.001921708325789983 0.006889052145765098 0.09831567643744897 4 0 0 0 0
357 1 -0.005300076171603549 -0.0008345618930378831 0.09856040969841549 4 0 0 0 0
358 1 -0.0003286592822709356 0.006230547204709252 0.09633058991034021 4 0 0 0 0
359 1 0.002197896154658667 -0.006665373394903253 0.09742384919963989 4 0 0 0 0
360 1 -0.006120118075916038 -0.0004209545271373936 0.0985314225846891 4 0 0 0 0
361 1 0.002545723308801065 -0.004501487798003904 0.09689615748540492 4 0 0 0 0
362 1 0.002058353607201188 0.002504743078577748 0.09901938023334257 4 0 0 0 0
363 1 0.01147740244089415 -0.001702805258993381 0.09728281176245962 4 0 0 0 0
364 1 0.002405686300104762 -0.006801243600639213 0.0984238491996399 4 0 0 0 0
365 1 0.007327483333502568 0.001666334042739119 0.0969965126875503 4 0 0 0 0
366 1 -0.0007771761364008777 0.01115101079155188 0.09756615679412116 4 0 0 0 0
367 1 0.005618214013533525 -0.007170565538258527 0.09703912603646078 4 0 0 0 0
368 1 -0.001677108547146747 0.009039586733726623 0.09648852425320729 4 0 0 0 0
369 1 -0.008774410736169636 -8.076027486248711e-05 0.09748702909878593 4 0 0 0 0
370 1 -0.008913310443345522 0.0005517317607292483 0.09699158159104847 4 0 0 0 0
371 1 0.004322775227382569 -0.009513676813116144 0.09651439018578291 4 0 0 0 0
372 1 0.0007106987969548331 0.000846364765712789 0.09950125721113834 4 0 0 0 0
373 1 -0.004669436091722704 -0.004587993984453053 0.09901927089297326 4 0 0 0 0
374 1 0.003163621390846522 0.0008212746220754849 0.09950032090309383 4 0 0 0 0
375 1 0.007057267316359893 0.004502711032873816 0.0984927329559474 4 0 0 0 0
376 1 0.007421798460148783 -0.0002493086803078739 0.09899770822828044 4 0 0 0 0
377 1 -0.0005759048826122008 -0.009678176011273576 0.09680573886883748 4 0 0 0 0
378 1 -0.002496471093326732 -0.0014240914135871 0.09749233016487378 4 0 0 0 0
379 1 0.01104020045641127 0.001175206065897511 0.09689506997701777 4 0 0 0 0
380 1 -0.007907643065132492 -0.007925181274779796 0.09699119503037236 4 0 0 0 0
381 1 0.01028040970406289 -0.004553596916881205 0.0970461311236232 4 0 0 0 0
382 1 -0.009603284245687271 -0.003384876593642317 0.0990119179019895 4 0 0 0 0
383 1 -0.0004379682942782616 -0.007386923000392494 0.09631094969589038 4 0 0 0 0
384 1 0.0008080429779089041 -0.0001195334921577916 0.0985173804280029 4 0 0 0 0
385 1 0.006267552572886461 -0.007010695699946673 0.09855619531861372 4 0 0 0 0
386 1 -0.001720926012586044 -0.006374867121712109 0.09683006075078621 4 0 0 0 0
387 1 -0.004517404855146236 0.005979412595703001 0.09750785710365165 4 0 0 0 0
388 1 -0.01050860362083274 -0.004096836133449947 0.09854800376261552 4 0 0 0 0
389 1 -0.009701785844057774 0.006282167501277022 0.09848782917858095 4 0 0 0 0
390 1 0.005328280260411742 -0.00585924822761495 0.09702739549251189 4 0 0 0 0
391 1 -0.002977236870224791 0.0002564059005440945 0.0974964153517458 4 0 0 0 0
392 1 -0.01087608421428717 0.004158357150115486 0.09850937307458485 4 0 0 0 0
393 1 0.004506470401632125 -0.01033387174007784 0.09900761248693642 4 0 0 0 0
394 1 0.002635568529796552 -0.004090250816772164 0.0964350007477377 4 0 0 0 0
395 1 -0.008732701253391664 0.001116429992864197 0.09749385388354742 4 0 0 0 0
396 1 0.004564689254839721 -0.005651927892153902 0.09702739549251189 4 0 0 0 0
397 1 -0.002157257501904027 -0.006066131097751883 0.09734109735232574 4 0 0 0 0
398 1 -0.003785373291143207 0.007898434401614085 0.09898608593924617 4 0 0 0 0
399 1 -0.003772439662985478 0.0006283559801350189 0.09755573403393228 4 0 0 0 0
400 1 0.002702423079019654 -0.004000720345941167 0.0994350007477377 4 0 0 0 0
401 1 -0.001890385878707754 0.006385963722239076 0.09833665401096539 4 0 0 0 0
402 1 -0.003213960506966397 -0.006400296763954334 0.09736589215659061 4 0 0 0 0
403 1 0.008163755397129255 0.003586861986275707 0.09749258219261475 4 0 0 0 0
404 1 0.003997111760255506 -0.005610444368284364 0.09748855223017912 4 0 0 0 0
405 1 0.01041837803512584 -0.005230313969161597 0.09853935341706738 4 0 0 0 0
406 1 0.001086849857509669 -0.005103676280328636 0.09652061673500328 4 0 0 0 0
407 1 -0.00722490525586262 -0.004171365531190662 0.09700852648055504 4 0 0 0 0
408 1 -0.004434810471099532 0.007588210815134095 0.09649756168603889 4 0 0 0 0
409 1 0.00135361783287951 0.007765838152034818 0.09650926237024854 4 0 0 0 0
410 1 -0.004343017787042425 -0.004060218294805433 0.09853244402389746 4 0 0 0 0
411 1 0.006134467393207855 0.00143827370127196 0.09900196634549789 4 0 0 0 0
412 1 0.002286349827455328 -0.003477314364116757 0.09893385976999966 4 0 0 0 0
413 1 0.007697449144851888 0.004163099383657392 0.0989898075097085 4 0 0 0 0
414 1 -0.009408333418190999 -0.004147114274383809 0.09901291486954915 4 0 0 0 0
415 1 -0.008361370266288819 -0.005044487240178914 0.09751144774835684 4 0 0 0 0
416 1 -0.0006144954456930528 -0.009237922370242518 0.09732626167269467 4 0 0 0 0
417 1 -0.003859345727313097 -0.009850396469220177 0.09889084167839204 4 0 0 0 0
418 1 0.0009190334938634099 0.00613910832409688 0.0988132298402537 4 0 0 0 0
419 1 0.00929476223838659 0.001406786161982214 0.0985115581010253 4 0 0 0 0
420 1 0.001612495724800324 -0.006544159204238646 0.09649915320925234 4 0 0 0 0
421 1 -0.00127445633747408 0.00967364621125593 0.09753195953871439 4 0 0 0 0
422 1 0.001220479019723013 -0.007845276699054033 0.0984832152658299 4 0 0 0 0
423 1 -0.001253683201971757 0.007970270845341292 0.09761663166101631 4 0 0 0 0
424 1 0.001037620061492276 -0.008542645253757796 0.09898406205657756 4 0 0 0 0
425 1 -0.002098980073522133 -0.006455986479656969 0.09634101981475532 4 0 0 0 0
426 1 -0.0008615729388105931 0.01106380850443441 0.09856615679412116 4 0 0 0 0
427 1 0.01023703397727169 -0.004617316610236804 0.0990461311236232 4 0 0 0 0
428 1 -0.01098453585282267 0.001552908092425073 0.09900585325432529 4 0 0 0 0
429 1 0.007952742941158565 0.004245198323660305 0.09649473205376351 4 0 0 0 0
430 1 0.001130555908295233 0.004677148118725066 0.09847781597232652 4 0 0 0 0
431 1 -0.004913351596449832 -0.0003102420579673551 0.09905221775770126 4 0 0 0 0
432 1 0.01201806189568593 -0.001431415720465729 0.09789508797195581 4 0 0 0 0
433 1 -0.001759039677154841 0.007384965911963429 0.09880791469871172 4 0 0 0 0
434 1 -0.01161903866485009 0.001208629108602745 0.09848212935709377 4 0 0 0 0
435 1 0.008203547719886316 -0.004828312970856545 0.09854127161629563 4 0 0 0 0
436 1 -0.008464260496003044 0.003940113872581638 0.09851008160586405 4 0 0 0 0
437 1 0.007225113571409895 0.00818421872748149 0.09851968892920338 4 0 0 0 0
438 1 0.002432021216867336 -0.00207102522474847 0.09700511052494173 4 0 0 0 0
439 1 0.00369228602058288 0.01040911313845039 0.09747683836550609 4 0 0 0 0
440 1 -0.00894391795270612 0.0008520612913397533 0.09849385388354742 4 0 0 0 0
441 1 0.004648277678677538 -0.009118692168955635 0.09902601463500471 4 0 0 0 0
442 1 -0.001558191274153567 0.008533933542236043 0.09897638618846086 4 0 0 0 0
443 1 0.007685187798926346 -0.002090813459631108 0.09949775379391758 4 0 0 0 0
444 1 -0.007844334594917188 -0.004121118843654644 0.09650029218912133 4 0 0 0 0
445 1 0.006514499519120739 0.009345257126792435 0.09754045592911803 4 0 0 0 0
446 1 -0.0002043716450577967 0.009135588668474241 0.09683302059468465 4 0 0 0 0
447 1 -0.002732752871612581 -0.001236198614136595 0.0989928990755148 4 0 0 0 0
448 1 -0.004494733292637644 -0.005971170386464466 0.09746694013941865 4 0 0 0 0
449 1 0.0001900767909103356 0.01183816492336028 0.0973542979999934 4 0 0 0 0
450 1 -0.003716633062379317 0.006823313187501521 0.09700532342477612 4 0 0 0 0
451 1 -0.0087886268911336 -5.270854979172457e-06 0.09848702909878591 4 0 0 0 0
452 1 0.00191252118236025 0.003490429361441665 0.09901938023334257 4 0 0 0 0
453 1 0.009904970558025606 0.001417573340214493 0.09901012086941999 4 0 0 0 0
454 1 0.005281670773783634 0.002503406878419728 0.09949507545594501 4 0 0 0 0
455 1 0.001488168705054151 -0.009043114394128473 0.09897273285773192 4 0 0 0 0
456 1 -0.005884086250598703 -0.007607140869717885 0.09892796510577503 4 0 0 0 0
457 1 -0.005092248829221878 -0.01012164376360244 0.09699616465155497 4 0 0 0 0
458 1 0.003757549411288199 0.0004756253401843685 0.09700721179264672 4 0 0 0 0
459 1 -0.000231540508746186 0.002273239104986777 0.09759756802573619 4 0 0 0 0
460 1 -0.009537683428746333 -0.003119177483557097 0.0970119179019895 4 0 0 0 0
461 1 0.0006746572745162366 0.007753096623708279 0.09682945507934582 4 0 0 0 0
462 1 0.003567854308127661 0.01026363493056336 0.09847683836550609 4 0 0 0 0
463 1 0.001949758129564194 0.008881795360357892 0.09650558029483053 4 0 0 0 0
464 1 -0.008521328202321965 -0.004470337865220907 0.09701291486954915 4 0 0 0 0
465 1 -0.0009708342202439722 0.005129109666815101 0.09883166297979704 4 0 0 0 0
466 1 -0.008255967753059944 -0.004798024218101314 0.09851144774835684 4 0 0 0 0
467 1 0.001359346440125447 0.006722954517740543 0.09732249221050222 4 0 0 0 0
468 1 -9.531194634642301e-05 0.006074194476528594 0.09830908448841622 4 0 0 0 0
469 1 -0.0002900492087685543 0.01110064114539568 0.09903554939420139 4 0 0 0 0
470 1 0.005592735843698602 0.009286954292775668 0.09752571909422289 4 0 0 0 0
471 1 0.007903355440755398 0.003125218457569392 0.09899785013885123 4 0 0 0 0
472 1 0.003797392983559661 -0.00488377567500606 0.09739605139067783 4 0 0 0 0
473 1 0.003688211584690397 -0.00479314050003934 0.09839605139067784 4 0 0 0 0
474 1 0.001678671872407946 0.008594307879459712 0.09701484266507904 4 0 0 0 0
475 1 0.002851537775337352 0.00420630751846476 0.09888574670117227 4 0 0 0 0
476 1 0.005364270089282712 -0.005920358757443494 0.0990273954925119 4 0 0 0 0
477 1 -0.008254905654245328 -0.007485517273019125 0.09900371792935263 4 0 0 0 0
478 1 0.001422605606774604 -0.004314633064620745 0.09848063249493247 4 0 0 0 0
479 1 -0.004155966878596483 0.004553310766062614 0.09701683909283962 4 0 0 0 0
480 1 0.008393019967595785 -0.004666483693145326 0.09650136538234147 4 0 0 0 0
481 1 0.008096466870550881 -0.005295149980200245 0.0970184346644944 4 0 0 0 0
482 1 0.001297595744202717 0.006652265677636361 0.09832249221050222 4 0 0 0 0
483 1 -0.0018598834057834 0.007982230755065755 0.09829643895191902 4 0 0 0 0
484 1 -0.00263297017436817 0.0004798743455236249 0.09697364937056396 4 0 0 0 0
485 1 -0.005292877694515327 -0.0006421807363601889 0.09756040969841549 4 0 0 0 0
486 1 -0.006416134030428959 -0.00526390990841653 0.09695030208901707 4 0 0 0 0
487 1 0.001831909597572301 0.006308220619618524 0.0964826399299135 4 0 0 0 0
488 1 -0.007086241513380047 -0.003018725679272705 0.09851671842126927 4 0 0 0 0
489 1 0.000993026008361884 0.008050811333629875 0.09682945507934583 4 0 0 0 0
490 1 0.005114230911003864 -0.01048676498523744 0.09851356971552293 4 0 0 0 0
491 1 0.000668312813195607 -0.006380385418013683 0.09649915320925234 4 0 0 0 0
492 1 -0.009597952784480314 -0.003642140739281397 0.09752454058241732 4 0 0 0 0
493 1 -0.006659605504949091 0.009124936507832922 0.09699475125855814 4 0 0 0 0
494 1 -0.01040669257919964 -0.004034491384809517 0.09754800376261552 4 0 0 0 0
495 1 0.0003808851761525427 0.01136327762670993 0.09786712588558075 4 0 0 0 0
496 1 -0.006879664598043064 -0.00679043298659311 0.09894060067639106 4 0 0 0 0
497 1 0.002206295321193087 0.003568297177993751 0.09739029010076286 4 0 0 0 0
498 1 0.006792317994898142 0.008697263319341496 0.09901670055077977 4 0 0 0 0
499 1 0.00189885241232468 -0.006126834446440403 0.09696030994691954 4 0 0 0 0
500 1 0.001520044609306082 -0.007768349318294946 0.09677448894861071 4 0 0 0 0
501 1 0.0002739394157222253 0.001967487143649492 0.09700580061072892 4 0 0 0 0
502 1 4.38409731079487e-05 -0.006812292635786709 0.09631094969589038 4 0 0 0 0
503 1 -0.004325719212173704 0.003982374231413659 0.09758721914766712 4 0 0 0 0
504 1 -0.007212154646578543 0.004078935057063029 0.09899887545730449 4 0 0 0 0
505 1 -0.0004601002734096797 0.008572263689670921 0.09900068982084093 4 0 0 0 0
506 1 0.003416513334654532 -0.007786616944213599 0.09699104083995931 4 0 0 0 0
507 1 -0.003650828713873378 -0.008013797933219536 0.09701585932984291 4 0 0 0 0
508 1 -0.005192832642805187 -0.001099631504787613 0.0970309579218961 4 0 0 0 0
509 1 -0.002312868782896334 0.007142350691139294 0.0988278145021954 4 0 0 0 0
510 1 0.004976356203071381 -0.002006913859047665 0.09745327574226639 4 0 0 0 0
511 1 0.007291938747484419 -0.008199129262390274 0.09852110791123841 4 0 0 0 0
512 1 0.005358342323128895 -0.0007103328420103375 0.09900316188622803 4 0 0 0 0
513 1 -0.008187075527865387 -0.005349762963151998 0.09901115555923552 4 0 0 0 0
514 1 -0.0007820280297372548 -0.005339166317985634 0.09900965767103417 4 0 0 0 0
515 1 -0.004911020447311541 -0.000339014955716539 0.09705221775770126 4 0 0 0 0
516 1 0.006044404072276944 -0.003510568402802503 0.09645075324291152 4 0 0 0 0
517 1 -0.002413712511524892 0.007739615534241621 0.09831633875540267 4 0 0 0 0
518 1 0.008797220820722047 -0.004281303285250625 0.09702420233414269 4 0 0 0 0
519 1 -4.486571804017536e-05 0.006837562780501474 0.09681845184559378 4 0 0 0 0
520 1 0.01040262648626853 -0.001183432766934948 0.09650734618651377 4 0 0 0 0
521 1 -0.0003124999999999972 0.009609329945113643 0.09651282788558735 4 0 0 0 0
522 1 -0.003683382757275182 0.005159633347338372 0.09852460083157687 4 0 0 0 0
523 1 0.003297742600854557 0.0111364905516133 0.09752292575690738 4 0 0 0 0
524 1 0.01008097849068717 0.004359770314335261 0.09849052419260237 4 0 0 0 0
525 1 -0.0005245149793581585 0.008830923695917424 0.09632019270909731 4 0 0 0 0
526 1 -0.0006866474388272749 -0.008559746358968938 0.09630714435153982 4 0 0 0 0
527 1 0.0082729385568123 -0.00750196893039278 0.09902302651073945 4 0 0 0 0
528 1 -0.004189602593709584 0.005841139268654601 0.09850785710365163 4 0 0 0 0
529 1 -0.006195929193284226 0.0002856984182774535 0.09902323064397486 4 0 0 0 0
530 1 -0.001479759765996014 0.005471173189624487 0.09934103033697458 4 0 0 0 0
531 1 0.006623591941003046 0.008609950848398967 0.09701670055077977 4 0 0 0 0
532 1 -0.002352095603672112 0.005093796293833532 0.09836309748967592 4 0 0 0 0
533 1 0.002419977695542411 -0.001511462046077809 0.09750543142803555 4 0 0 0 0
534 1 -0.004538100087051854 -0.005564631110375234 0.0989531043991229 4 0 0 0 0
535 1 0.002372699416538609 -0.003964470732495055 0.09739501650766688 4 0 0 0 0
536 1 -0.002878595402907369 -0.00025049946715207 0.0989928990755148 4 0 0 0 0
537 1 0.007813212430640872 0.002345964568945343 0.09849928737045655 4 0 0 0 0
538 1 0.0009816429482664994 0.007024504641999442 0.09683985228058872 4 0 0 0 0
539 1 0.0001520479630802972 0.001426988657274388 0.09650125721113834 4 0 0 0 0
540 1 -0.0001006589298113057 0.002866355169770854 0.09709631081459785 4 0 0 0 0
541 1 0.008235430746457174 0.002597847498940704 0.09650277468290624 4 0 0 0 0
542 1 -0.006652978744490401 -0.009132045314357923 0.09697855945975634 4 0 0 0 0
543 1 -0.00544121875746818 -0.007585126835815392 0.09692796510577502 4 0 0 0 0
544 1 0.00298118625057469 0.006433752663760992 0.09744929493764826 4 0 0 0 0
545 1 0.003173310888399337 0.01099101234372627 0.09852292575690738 4 0 0 0 0
546 1 -0.00084228298041169 0.006260684133948806 0.09715948218256837 4 0 0 0 0
547 1 0.0004430532969393443 -0.006773404092839846 0.09681010290514269 4 0 0 0 0
548 1 -0.006112919598827817 -0.0002285733704596995 0.09753142258468911 4 0 0 0 0
549 1 -0.001979446080872719 -0.006365841320878952 0.09834109735232574 4 0 0 0 0
550 1 0.01035426711315119 -0.00511990391794656 0.09753935341706738 4 0 0 0 0
551 1 0.009419221719519932 0.006184006886351482 0.09900203945068016 4 0 0 0 0
552 1 -0.01085359691776498 -0.003495966532579841 0.09903538108218769 4 0 0 0 0
553 1 0.004137582377969673 0.01060423506482403 0.09697125807067559 4 0 0 0 0
554 1 -0.001139968253016969 0.006899950675948291 0.09680791469871172 4 0 0 0 0
555 1 0.00728513676130617 0.003544121127118364 0.09949507545594501 4 0 0 0 0
556 1 -0.007349624323065154 -0.003598320333018621 0.09900852648055504 4 0 0 0 0
557 1 0.001512303333900601 0.005356668348646335 0.0964826399299135 4 0 0 0 0
558 1 0.006189740032162612 -0.002858581629369157 0.09645075324291152 4 0 0 0 0
559 1 0.0024513805533135 0.006637314874581553 0.09895324425118557 4 0 0 0 0
560 1 0.01053491759484143 0.003723758824269839 0.09899579213883886 4 0 0 0 0
561 1 -0.0005980969624984428 -0.007063402796881149 0.09679999063192127 4 0 0 0 0
562 1 0.004110083082832774 -0.001939978299448796 0.09650625150267977 4 0 0 0 0
563 1 0.008640462404238346 0.006907719348346315 0.09848680021531563 4 0 0 0 0
564 1 -0.001044945511279878 0.002029176830696329 0.09759654090237661 4 0 0 0 0
565 1 0.0004862905909371682 0.00847223927426992 0.09902209025583586 4 0 0 0 0
566 1 -0.008528972143413714 -0.007867385435954805 0.09749638008091728 4 0 0 0 0
567 1 0.00152542426244685 -0.004162000764173825 0.09748063249493247 4 0 0 0 0
568 1 -0.003838107105111366 0.003624960752410081 0.09708468546879161 4 0 0 0 0
569 1 -0.002755375355270656 -0.006502177443697097 0.09836589215659058 4 0 0 0 0
570 1 0.001341461182485895 0.00629503107230322 0.0968132298402537 4 0 0 0 0
571 1 0.0006229128484230076 -0.005825545907498024 0.0970197699442556 4 0 0 0 0
572 1 0.00218459566571383 -0.006304234128958826 0.09896030994691955 4 0 0 0 0
573 1 0.006478786168506634 -0.004966933504117418 0.09900125928761438 4 0 0 0 0
574 1 -0.0007269412483844633 0.01003208829724733 0.09704343528550712 4 0 0 0 0
575 1 -0.001066300477221323 0.008246070991230221 0.09948786193525358 4 0 0 0 0
576 1 -0.001809997024311707 0.009597933754334544 0.09701913165312705 4 0 0 0 0
577 1 -0.006009240724878073 0.005985797142770917 0.09751734357061412 4 0 0 0 0
578 1 0.009595289150894706 0.001530537067033378 0.0975115581010253 4 0 0 0 0
579 1 -0.006610227791507477 -0.005807677586054464 0.09844883496782476 4 0 0 0 0
580 1 -0.006683256494348849 0.009122606508231608 0.09899475125855814 4 0 0 0 0
581 1 0.005363534121219716 -0.00648314280970955 0.09652750158723898 4 0 0 0 0
582 1 0.001022654256828644 -0.008189753270010048 0.09631094969589038 4 0 0 0 0
583 1 0.007722409231703765 0.002847602419222724 0.09699785013885123 4 0 0 0 0
584 1 -0.009185919815976763 -0.006454267597910681 0.09899122183978044 4 0 0 0 0
585 1 -0.003102799611152766 0.006817777865298728 0.09650776173873725 4 0 0 0 0
586 1 0.01111226151563293 0.002454067431016398 0.09742060600349656 4 0 0 0 0
587 1 0.001735746863801164 -0.009381435005621894 0.09697273285773192 4 0 0 0 0
588 1 0.006797509971792416 -0.005458974802056153 0.09851832856976732 4 0 0 0 0
589 1 0.002950490014882273 0.005185270995652469 0.09885354979733378 4 0 0 0 0
590 1 0.003245213257887187 -0.006840273421124237 0.09845219757762654 4 0 0 0 0
591 1 0.002409972212028975 -0.01032586013961027 0.09702358379079447 4 0 0 0 0
592 1 -0.003405828474539974 -0.00854731407920304 0.09650202358954717 4 0 0 0 0
593 1 0.006793521499999445 -0.0005834960350585374 0.09949627099667514 4 0 0 0 0
594 1 0.00141475943300978 -0.005773401859333252 0.09848092668192283 4 0 0 0 0
595 1 -0.003668354771534143 0.004195897287059037 0.09651430541396411 4 0 0 0 0
596 1 -0.002406208098595337 -0.004836850265810037 0.09651103660153955 4 0 0 0 0
597 1 0.002840074989789722 -0.0101356665972399 0.09651439018578291 4 0 0 0 0
598 1 0.002740432265754062 0.003784803244385542 0.09688574670117227 4 0 0 0 0
599 1 -0.005739631882829289 0.005767453997251413 0.09851734357061412 4 0 0 0 0
600 1 0.001123238614200837 0.005675360734294362 0.0968132298402537 4 0 0 0 0
601 1 0.0007870752867460291 0.0109076560852022 0.0983444043769667 4 0 0 0 0
602 1 -0.0006709801224563554 0.005882761003685575 0.09667162024731479 4 0 0 0 0
603 1 0.001144545500806971 0.01012254138695967 0.09835866029452536 4 0 0 0 0
604 1 0.0003615691059067878 0.007402020457577178 0.09899712430550209 4 0 0 0 0
605 1 0.004868361406945814 -0.0003180986476821326 0.0995068908895529 4 0 0 0 0
606 1 -0.004160639042339019 -0.006023429205038493 0.09846694013941866 4 0 0 0 0
607 1 -0.009105345175285533 -0.006469476626084396 0.09699122183978044 4 0 0 0 0
608 1 -0.002157224486896833 0.0056524869950758 0.09884879207571182 4 0 0 0 0
609 1 -0.001946212290611731 0.004388316632976152 0.09744710316594596 4 0 0 0 0
610 1 -0.007337719838837421 -0.002963494225797304 0.09700848412983556 4 0 0 0 0
611 1 0.005631719897776638 -0.007319240841615593 0.09903912603646078 4 0 0 0 0
612 1 0.002560130173564646 0.004875694452748613 0.09885354979733378 4 0 0 0 0
613 1 -0.007486219993439258 0.002807373602286255 0.09898389954410372 4 0 0 0 0
614 1 -0.004121035837856203 -0.00830885241779495 0.09750175663803456 4 0 0 0 0
615 1 -0.003305271602044082 -0.002820514253267007 0.09651317313092422 4 0 0 0 0
616 1 0.001009506798243674 0.008808911291007714 0.09784786325976369 4 0 0 0 0
617 1 -0.001407594124681526 0.004483905287939097 0.09693279775198185 4 0 0 0 0
618 1 0.007280381071213243 -0.00813870672765781 0.09752110791123841 4 0 0 0 0
619 1 -0.006430104851746699 -0.003004578357750029 0.09901642623214796 4 0 0 0 0
620 1 0.008198643137934957 -0.008153819961188257 0.09851544069060313 4 0 0 0 0
621 1 -0.008209323277975406 -0.008121868522731812 0.09849638008091728 4 0 0 0 0
622 1 0.001358796418066137 0.01107901157055912 0.09883157649137936 4 0 0 0 0
623 1 0.007332353478205358 -0.001371575122520075 0.0969940247905927 4 0 0 0 0
624 1 0.002085873286779706 0.003015923365404438 0.09701938023334257 4 0 0 0 0
625 1 -0.001290335528684454 0.006898282247143282 0.09632005276345816 4 0 0 0 0
626 1 -0.009950077448904556 0.002254883615695591 0.09650227229249897 4 0 0 0 0
627 1 0.004224007509708949 -0.006123761101596677 0.09652750158723898 4 0 0 0 0
628 1 -0.003144977474885129 0.005874813780269224 0.09650776173873725 4 0 0 0 0
629 1 0.004497797347055005 -0.002363058792801788 0.09695700474559127 4 0 0 0 0
630 1 -0.006886325190833788 -0.0009439906508723148 0.09849741831590716 4 0 0 0 0
631 1 -0.004194154940615943 0.007020312906013654 0.09649756168603889 4 0 0 0 0
632 1 0.009921829444725484 0.005491915130585864 0.09900203945068016 4 0 0 0 0
633 1 -0.00437554255188833 0.003929905051998218 0.09858721914766712 4 0 0 0 0
634 1 -0.005142348272775577 0.00818244099991354 0.09650206755787183 4 0 0 0 0
635 1 -0.003960857264090048 0.009191555775141637 0.09849811206833582 4 0 0 0 0
636 1 0.004592381666887118 -0.00499126614270824 0.09649989390527293 4 0 0 0 0
637 1 0.001026053582230252 0.009493874089782138 0.09767885300362267 4 0 0 0 0
638 1 0.001658917944367663 -0.001220675767912625 0.09751498223912655 4 0 0 0 0
639 1 -0.006238521820100353 -0.00699303995365772 0.09944206779758337 4 0 0 0 0
640 1 0.00378368418006818 -0.007420739572034719 0.09652750158723898 4 0 0 0 0
641 1 0.002153036825676316 -0.005698415312450969 0.09646115673766723 4 0 0 0 0
642 1 -0.004250033068864211 0.00454246816539335 0.09901683909283963 4 0 0 0 0
643 1 0.002003156518273446 -0.008977000220889741 0.09646353925272036 4 0 0 0 0
644 1 -0.006965483023014474 -0.005366188214582247 0.09900676717024141 4 0 0 0 0
645 1 0.009377735398473227 -0.004702696731242047 0.09952283695180122 4 0 0 0 0
646 1 -0.001566853323456237 -0.003339236451029351 0.09949943108935899 4 0 0 0 0
647 1 0.001433600514382816 -0.008222593070501397 0.09677448894861071 4 0 0 0 0
648 1 0.01084284893822197 0.00375686067808609 0.09752589966892519 4 0 0 0 0
649 1 0.006330524925438813 -0.004929015845977511 0.09700125928761438 4 0 0 0 0
650 1 -0.003453549586941511 -0.003674723206690769 0.09902420973246376 4 0 0 0 0
651 1 0.003113123222782865 0.005624571751860964 0.09834960048379646 4 0 0 0 0
652 1 0.003228547300390445 -0.001256170878545153 0.09900657240577358 4 0 0 0 0
653 1 -0.00159140004562793 0.0009321351874013767 0.09747490658170228 4 0 0 0 0
654 1 -0.006342962971982191 0.005537455807012767 0.09701978188457522 4 0 0 0 0
655 1 -0.007670629559467844 -0.002331014518826544 0.09750393163757301 4 0 0 0 0
656 1 0.003334802373471284 0.005541101854714098 0.09686696055388297 4 0 0 0 0
657 1 0.000195672191949341 0.01145909243349874 0.09852687377147323 4 0 0 0 0
658 1 -0.003718954341331121 -0.002175805968143331 0.09903593911210608 4 0 0 0 0
659 1 0.004255426289603482 -0.004555497866006491 0.09693489465301061 4 0 0 0 0
660 1 0.00483456671151973 -0.007890447653820907 0.09903912603646078 4 0 0 0 0
661 1 -0.003675234497518056 0.001856809686282606 0.0976033481075779 4 0 0 0 0
662 1 -0.002697509721757705 0.007084615401624625 0.09682781450219539 4 0 0 0 0
663 1 0.006580608675601065 0.009287554263480784 0.09854045592911803 4 0 0 0 0
664 1 -0.00682071078839369 -0.005566495711825128 0.09744883496782476 4 0 0 0 0
665 1 0.001981287997938824 -0.01061255304522991 0.09650919360501156 4 0 0 0 0
666 1 0.002493846104068495 -0.001532395577941918 0.09850543142803556 4 0 0 0 0
667 1 -0.01085263537544945 -0.002924098143302899 0.09699354898672875 4 0 0 0 0
668 1 -0.002098069927286224 0.000790195129585557 0.09897364937056395 4 0 0 0 0
669 1 -0.008162636315818329 -0.0001331238858889071 0.09898922637519292 4 0 0 0 0
670 1 0.0008080915833958304 0.005431365312853676 0.09730386248307614 4 0 0 0 0
671 1 0.002424684321622405 0.01081708752854805 0.09736912658076 4 0 0 0 0
672 1 0.001826187192775735 -0.002070490700817043 0.09649885902226199 4 0 0 0 0
673 1 0.001283416235162819 0.008639834986925131 0.09733503537417634 4 0 0 0 0
674 1 -0.004209119829203255 -0.003860787827430726 0.09651317313092422 4 0 0 0 0
675 1 0.006746521422372383 -0.005392645232765853 0.09751832856976732 4 0 0 0 0
676 1 0.001095849602314969 -0.00670403665086469 0.09649915320925234 4 0 0 0 0
677 1 0.001450026553267896 -0.005149791644702357 0.09898177347267051 4 0 0 0 0
678 1 0.01067661487313074 -0.00334420187937283 0.09699132833536833 4 0 0 0 0
679 1 -0.006693487661431806 -0.003584173011495945 0.09950823429143373 4 0 0 0 0
680 1 0.007122496673995126 0.008039203393227312 0.09751968892920337 4 0 0 0 0
681 1 -0.0006866474388272797 -0.009440253641031054 0.09630714435153982 4 0 0 0 0
682 1 -0.001127165756603131 0.007229277874409554 0.09680791469871172 4 0 0 0 0
683 1 -1.699314443251952e-05 0.006888863104037697 0.09948786193525358 4 0 0 0 0
684 1 -0.006460375442288354 0.006619491852741912 0.09751193199332792 4 0 0 0 0
685 1 0.003375414863840378 -0.003241023784133763 0.0964350007477377 4 0 0 0 0
686 1 0.00127695249921847 -0.001710175831971182 0.09701466133603273 4 0 0 0 0
687 1 0.009443599242225166 0.006815645040022891 0.09849111923380871 4 0 0 0 0
688 1 0.0008434367654931899 0.005341094362400923 0.09897327257273594 4 0 0 0 0
689 1 -0.00573426099189605 0.005615894527930416 0.09650253367887553 4 0 0 0 0
690 1 -0.009449205947747268 -0.005946761253342783 0.09850384452020826 4 0 0 0 0
691 1 0.001942782395106243 0.01145672401890354 0.09835487066320131 4 0 0 0 0
692 1 -0.0070518987198783 0.003394309203686787 0.09948162725160478 4 0 0 0 0
693 1 0.003656430015124735 -0.006082277577727139 0.0969886583249062 4 0 0 0 0
694 1 -0.001310790896561053 -0.007250716980594989 0.09835058355464341 4 0 0 0 0
695 1 -0.002791215215509661 0.005032726850628046 0.09902206715270134 4 0 0 0 0
696 1 -0.001717099453117359 -0.007799766473629522 0.09836356620815967 4 0 0 0 0
697 1 0.00294409322667575 0.005657831564403902 0.09734960048379646 4 0 0 0 0
698 1 -0.01018990616640286 -0.003235871062961535 0.09951162571286819 4 0 0 0 0
699 1 0.006481891897850197 -0.003802967249492243 0.09695211862525296 4 0 0 0 0
700 1 0.001194307273800613 -0.004499240861449956 0.09652061673500328 4 0 0 0 0
701 1 -0.007005409154976858 0.008599571421861766 0.09849187336014746 4 0 0 0 0
702 1 0.002377201993728005 -0.009715115891227741 0.0984871230435148 4 0 0 0 0
703 1 -0.008044620000143466 -0.000102494993262999 0.09698922637519292 4 0 0 0 0
704 1 0.004191857308282812 -0.009565614927042814 0.09951439018578291 4 0 0 0 0
705 1 0.0006210511237488727 0.0073094778235945 0.09716004498968603 4 0 0 0 0
706 1 -0.008387398339656803 0.001198385277701964 0.09899605115995441 4 0 0 0 0
707 1 -0.004137078153343104 0.0003047221730603929 0.09905221775770126 4 0 0 0 0
708 1 7.704091361984076e-05 -0.01153044543322918 0.09698994036956328 4 0 0 0 0
709 1 0.002620010231340681 0.003232429431796228 0.09651483683375199 4 0 0 0 0
710 1 -0.001954143895883738 0.008669508455590912 0.09648852425320729 4 0 0 0 0
711 1 -9.618258475877216e-05 -0.008202743547552347 0.09683147249974758 4 0 0 0 0
712 1 -0.002865386518347334 0.007650512140098889 0.09899628599194453 4 0 0 0 0
713 1 -0.006982832763730289 0.00861291341636629 0.09749187336014746 4 0 0 0 0
714 1 -0.001153618729623408 0.004553398354988486 0.09842343039480428 4 0 0 0 0
715 1 0.00110909835175191 -0.007735509517803598 0.09631094969589038 4 0 0 0 0
716 1 -0.002112176982403726 0.0006996359254661712 0.09697364937056396 4 0 0 0 0
717 1 0.002167091353025706 -0.00744337440599571 0.09896269246197267 4 0 0 0 0
718 1 -0.006856119932948638 -0.003345307855367146 0.09751671842126927 4 0 0 0 0
719 1 0.00818708546166378 -0.008093397426455793 0.09751544069060313 4 0 0 0 0
720 1 -0.001358664209912226 0.002541047436861423 0.09709528369123829 4 0 0 0 0
721 1 -0.003611231228887264 0.001293766163356141 0.09703296805275041 4 0 0 0 0
722 1 0.001571166573291581 0.002783371306245125 0.09650454339959059 4 0 0 0 0
723 1 0.005658845000178925 0.009229251429464019 0.09852571909422289 4 0 0 0 0
724 1 0.002995444655791021 -0.0016836282226022 0.09650625150267977 4 0 0 0 0
725 1 -0.001896704799073303 0.003782235722011704 0.09710607282897138 4 0 0 0 0
726 1 0.006331920181827491 -0.003530854538862562 0.09895211862525299 4 0 0 0 0
727 1 -0.005793721141338568 0.007822354669895329 0.09749675134550002 4 0 0 0 0
728 1 0.0005888241251256313 -0.008398674850312145 0.09631094969589038 4 0 0 0 0
729 1 0.002551849785166783 0.003787858465771468 0.09951483683375199 4 0 0 0 0
730 1 0.001366677363527382 0.002167986862402179 0.0995045433995906 4 0 0 0 0
731 1 0.008367944817880911 -0.003081820346219469 0.09852195612806025 4 0 0 0 0
732 1 0.001732786352893747 -0.001241609299776735 0.09851498223912655 4 0 0 0 0
733 1 0.002792743316421249 -0.002830029487895977 0.09744011127267943 4 0 0 0 0
734 1 -0.01112782414745414 -0.003500737156658728 0.09751730435604827 4 0 0 0 0
735 1 0.0006134809973146131 -0.01119820910106867 0.09849913397457484 4 0 0 0 0
736 1 0.002247288511707136 -0.01122182618177556 0.09703248779014273 4 0 0 0 0
737 1 -0.0065249885615623 0.009712108185847463 0.09751839433436829 4 0 0 0 0
738 1 -0.003316955651510355 -0.00537370469615684 0.09651103660153955 4 0 0 0 0
739 1 -0.005400538744791932 0.006064235863688566 0.0970000953649144 4 0 0 0 0
740 1 0.0104575697655081 0.003137319271120111 0.09703288221299256 4 0 0 0 0
741 1 0.007350145509447022 0.001791250973968834 0.0989965126875503 4 0 0 0 0
742 1 0.003661642473207509 0.003894015853022396 0.09637090986742029 4 0 0 0 0
743 1 -0.002539405778993699 0.007983140897750761 0.09680857701666544 4 0 0 0 0
744 1 0.001110685445281031 0.008295133671901135 0.09682945507934582 4 0 0 0 0
745 1 -0.005191991254568922 -0.01073903467226737 0.09651026734336329 4 0 0 0 0
746 1 -0.001189983135101951 0.009693299532542748 0.09853195953871439 4 0 0 0 0
747 1 -0.001441566071976352 0.0007190114785821957 0.09847490658170228 4 0 0 0 0
748 1 0.003443967120191923 0.006699000846029843 0.09696665500773477 4 0 0 0 0
749 1 -0.001234693615481593 0.0004741736035219346 0.09697139030547126 4 0 0 0 0
750 1 -0.009191385351767388 -0.007089054182016647 0.09849640689032536 4 0 0 0 0
751 1 -0.001358086633143098 0.003877824376974649 0.09659176741500727 4 0 0 0 0
752 1 -0.003627903154293724 0.001718550860979581 0.09860334810757791 4 0 0 0 0
753 1 0.002999071381378661 0.0005050092339297262 0.09650032090309382 4 0 0 0 0
754 1 0.002185518993718434 0.009905585061908282 0.09684583240893802 4 0 0 0 0
755 1 0.0109992367089126 -0.003901341239991178 0.09751462250719031 4 0 0 0 0
756 1 0.0001567374791039281 -0.009721957006799099 0.09852831092616643 4 0 0 0 0
757 1 0.003432712011002723 0.00245948357101779 0.09651483683375199 4 0 0 0 0
758 1 0.001362329196264691 -0.007399056508553419 0.09727364215786305 4 0 0 0 0
759 1 -0.006411146847442701 0.004768366146494948 0.09701978188457522 4 0 0 0 0
760 1 0.0004346403027906668 0.004010499814002874 0.09699517604241303 4 0 0 0 0
761 1 1.980346568266901e-05 -0.007301008953997377 0.09781966664503081 4 0 0 0 0
762 1 -0.006183765611272299 -0.009283725708892094 0.09900907935161771 4 0 0 0 0
763 1 0.004030345695866796 0.01030133434295094 0.0989712580706756 4 0 0 0 0
764 1 -0.00356695896883442 -0.01080986390741537 0.09691521171356368 4 0 0 0 0
765 1 0.003381926023950562 -0.0006579409483951352 0.09950032090309383 4 0 0 0 0
766 1 0.004954198068712329 -0.007776102851774309 0.09703912603646078 4 0 0 0 0
767 1 -0.009181820281853648 -0.007102998830650017 0.09749640689032536 4 0 0 0 0
768 1 -0.001558560038835191 -0.001813130744585039 0.09896956418369192 4 0 0 0 0
769 1 0.00940884827319464 0.006133350812806267 0.09700203945068016 4 0 0 0 0
770 1 -0.0006113680385523392 -0.003786111317842204 0.09702004782436226 4 0 0 0 0
771 1 0.001299963019149398 0.009324797785699555 0.09716602511803532 4 0 0 0 0
772 1 -0.000752906266004789 0.002859015247554772 0.09659176741500727 4 0 0 0 0
773 1 -0.0005099476312762922 0.006008989221601101 0.09765011482539079 4 0 0 0 0
774 1 -0.0003386447733209576 0.005631066091337872 0.09716225289013725 4 0 0 0 0
775 1 0.002915120711451019 0.009192645122185095 0.09650558029483053 4 0 0 0 0
776 1 0.004775119253252398 -0.002036166626498437 0.09845327574226639 4 0 0 0 0
777 1 0.008472470284356742 0.002109191904561695 0.09900421191451156 4 0 0 0 0
778 1 -0.001256629321096743 0.001522768388010918 0.09700477348736934 4 0 0 0 0
779 1 0.006090089666226907 -0.004114925933781661 0.09845201253052591 4 0 0 0 0
780 1 0.002300252609167185 0.01067160932066101 0.09836912658076 4 0 0 0 0
781 1 0.0001188532582502389 0.007220249496330466 0.09713864455469107 4 0 0 0 0
782 1 -0.004915079949200037 0.007878403120284167 0.09699962924391071 4 0 0 0 0
783 1 0.003412774928567288 -0.006031511351186649 0.09898865832490621 4 0 0 0 0
784 1 0.001218029665163659 0.008943976842186317 0.09852767055066639 4 0 0 0 0
785 1 0.009948930091695739 0.002102945849267581 0.09950277468290625 4 0 0 0 0
786 1 -0.001988015691640161 -0.001385163449330169 0.09947013309433295 4 0 0 0 0
787 1 -0.00567630390173021 -0.01023467170033877 0.09751934669498102 4 0 0 0 0
788 1 0.003493576441587048 0.005237578892235644 0.09886696055388297 4 0 0 0 0
789 1 0.001188152063739304 0.005809461515965392 0.09948263992991351 4 0 0 0 0
790 1 -0.0002998731974026208 -0.006697591180361019 0.09679999063192127 4 0 0 0 0
791 1 0.009958263065667678 0.004327368089421599 0.09749052419260237 4 0 0 0 0
792 1 0.004168223762923289 -0.004336977387977717 0.09893489465301061 4 0 0 0 0
793 1 -0.0073273146967448 -0.0005198946238614106 0.09898922637519292 4 0 0 0 0
794 1 0.0004048209946571056 0.002560603208433569 0.09650454339959059 4 0 0 0 0
795 1 0.004447490149061061 0.004802854892483088 0.09647757390907455 4 0 0 0 0
796 1 -0.01007123445146097 -0.002934889115729387 0.09651162571286818 4 0 0 0 0
797 1 -0.002708365138407838 0.005638562893069099 0.09684879207571181 4 0 0 0 0
798 1 -0.008179393901373268 0.005918989601625493 0.09651724820569971 4 0 0 0 0
799 1 0.002194032946498685 0.007631706171410197 0.09897986669152059 4 0 0 0 0
800 1 -0.0009086684045534367 -0.005800726460749035 0.0964890409360309 4 0 0 0 0
801 1 0.00555131975501597 -0.0002970699486662445 0.09700316188622803 4 0 0 0 0
802 1 0.0006573678934547925 0.004163852128578241 0.09899517604241304 4 0 0 0 0
803 1 0.009602199768233271 0.0008859639429883098 0.09700878341811905 4 0 0 0 0
804 1 -0.0005132230225499717 -0.00855974635896894 0.09682766715539702 4 0 0 0 0
805 1 -0.005214931257951805 0.007749614688065285 0.09699962924391071 4 0 0 0 0
806 1 0.002151540933901547 -0.007779387965037597 0.09646353925272036 4 0 0 0 0
807 1 -0.002836785361488239 0.008389061414064614 0.09648852425320729 4 0 0 0 0
808 1 -0.008183519707319353 0.0005299970423287365 0.09649377886745547 4 0 0 0 0
809 1 0.00686479032745334 -0.007251884525297259 0.09702869373137474 4 0 0 0 0
810 1 -0.009378196376969778 -0.005948025632883129 0.09750384452020826 4 0 0 0 0
811 1 -0.00560693685703676 -0.004839617586674711 0.09650823429143372 4 0 0 0 0
812 1 0.001049363464947035 0.009724754447749555 0.09901840818041785 4 0 0 0 0
813 1 -0.005557706672761285 8.966499290690005e-05 0.0995294517765194 4 0 0 0 0
814 1 0.008228748767085861 -0.00375979750943803 0.09702420233414269 4 0 0 0 0
815 1 0.01021848148660338 0.0008867284769306156 0.09650734618651377 4 0 0 0 0
816 1 0.005684724784176933 0.001853251538756468 0.09700196634549789 4 0 0 0 0
817 1 -0.002596344098734382 0.005591417551870315 0.09950776173873725 4 0 0 0 0
818 1 0.0008463630402126812 0.00364543611069143 0.09650454339959059 4 0 0 0 0
819 1 -0.006831529929745751 -0.009387322450614922 0.09850174150318236 4 0 0 0 0
820 1 -0.006526063159715489 0.009723120180750673 0.09851839433436829 4 0 0 0 0
821 1 0.004306702605924485 0.0004944856258241149 0.0965068908895529 4 0 0 0 0
822 1 -0.006518661053577588 -0.009719562607365513 0.09750174150318236 4 0 0 0 0
823 1 0.005385023824317864 -0.003700285798639617 0.09645075324291152 4 0 0 0 0
824 1 0.002675972725797287 -0.01093513327615591 0.09754687797592564 4 0 0 0 0
825 1 -0.003873734733176097 0.003493421860327746 0.09908468546879161 4 0 0 0 0
826 1 0.005992816972579119 -0.004143337844932054 0.09745201253052591 4 0 0 0 0
827 1 0.0002720216892425631 0.009244322338271261 0.09683302059468465 4 0 0 0 0
828 1 -0.001955965472604175 0.008179683811020484 0.09680857701666544 4 0 0 0 0
829 1 0.0005705596212641912 -0.0112457920052156 0.09749913397457484 4 0 0 0 0
830 1 -0.007796853506701742 0.008240033900495302 0.09898980580227563 4 0 0 0 0
831 1 0.002313685410366847 0.01026139715575882 0.09634025211410752 4 0 0 0 0
832 1 -0.003804592967430196 0.006372560247287905 0.09900532342477612 4 0 0 0 0
833 1 -0.00716028010235902 0.002133179891231523 0.09847767841155919 4 0 0 0 0
834 1 0.005241023995886602 0.006135645544144969 0.0975237330681655 4 0 0 0 0
835 1 -0.006029460580338152 -0.005515616428558575 0.09895030208901708 4 0 0 0 0
836 1 -0.005122242496020502 -0.001563708229267576 0.0990309579218961 4 0 0 0 0
837 1 0.008495707855755749 -0.003271112473971341 0.09652283695180122 4 0 0 0 0
838 1 -0.00637078218114482 0.00420868686827788 0.09750140913618 4 0 0 0 0
839 1 0.008626602858979256 0.006825322657128919 0.09748680021531564 4 0 0 0 0
840 1 0.002983401134466096 -0.001124065043931538 0.09700657240577357 4 0 0 0 0
841 1 0.00674320394982474 -0.001130517484536508 0.09649627099667514 4 0 0 0 0
842 1 -0.002886118114511238 0.006343296964490402 0.09650776173873725 4 0 0 0 0
843 1 0.00257788094117914 0.005259671298788487 0.09948263992991351 4 0 0 0 0
844 1 -0.003748225250151979 0.004105984973722877 0.09951430541396411 4 0 0 0 0
845 1 9.933912642877478e-05 -0.006658702637414157 0.09729914384117361 4 0 0 0 0
846 1 -0.006659491651044528 -0.004637725164833005 0.09650823429143372 4 0 0 0 0
847 1 -0.005125296629414341 0.003655859538754671 0.09755454098530779 4 0 0 0 0
848 1 0.003465953977667134 -0.002808831650167251 0.09694125225041744 4 0 0 0 0
849 1 0.01046514617370132 0.005276544299686408 0.0984950569066128 4 0 0 0 0
850 1 0.008208950402402182 -0.007376671509612502 0.09702302651073945 4 0 0 0 0
851 1 -0.005003437592589306 -0.007313659075867368 0.09744180084607078 4 0 0 0 0
852 1 -0.0007040182696016411 -0.004582570764116276 0.09952061673500329 4 0 0 0 0
853 1 0.0001650834022251959 -0.002067312226895056 0.09751409242539172 4 0 0 0 0
854 1 0.003150216246681806 0.006400492851218055 0.09844929493764826 4 0 0 0 0
855 1 0.001329702941836801 -0.001752323916568307 0.09901466133603273 4 0 0 0 0
856 1 -0.004803127641306497 0.005707619391120664 0.0990000953649144 4 0 0 0 0
857 1 0.003319759269256747 0.003625372419137021 0.09688574670117227 4 0 0 0 0
858 1 -0.006046743663385245 0.008732565341634586 0.09650206755787183 4 0 0 0 0
859 1 0.004255333920595298 -0.003183450391558649 0.09839200549332897 4 0 0 0 0
860 1 0.0006069875175254663 -0.007674114457930377 0.09901967601310954 4 0 0 0 0
861 1 0.01115192117072271 -0.003473832102334433 0.09851462250719031 4 0 0 0 0
862 1 -0.007465212339541049 -0.007191846992353585 0.09649853287880771 4 0 0 0 0
863 1 -0.006061870764640659 0.00729608705391833 0.0969946837876282 4 0 0 0 0
864 1 0.01058755925774836 -0.003790304815909637 0.0990461311236232 4 0 0 0 0
865 1 -1.260325029363882e-05 0.00225414237822929 0.09859756802573619 4 0 0 0 0
866 1 -5.125007857262396e-05 -0.002641862392832811 0.09699829011162098 4 0 0 0 0
867 1 -0.001872948426862557 0.006640544881366749 0.09765670677442354 4 0 0 0 0
868 1 -0.001857415392150729 0.004336771176555603 0.09844710316594596 4 0 0 0 0
869 1 -0.0007578412776844759 -3.285213407560938e-05 0.09848719261924203 4 0 0 0 0
870 1 -0.006369970922166443 0.008220542250167953 0.09699918965946117 4 0 0 0 0
871 1 -0.001482289093202388 0.006552164474924611 0.0971489450356863 4 0 0 0 0
872 1 0.005098179157757309 0.001499716124850491 0.0965068908895529 4 0 0 0 0
873 1 0.005415884793391222 -0.003971568917349077 0.09895064714818444 4 0 0 0 0
874 1 -0.00757124760459051 0.006684749903835405 0.09901437030728902 4 0 0 0 0
875 1 -0.002938872879534378 -0.004078013630846582 0.09951103660153955 4 0 0 0 0
876 1 -0.002017451932234493 -0.005693935450419591 0.09900007753757044 4 0 0 0 0
877 1 -0.00560428515696336 0.001607548410436211 0.09901107902812417 4 0 0 0 0
878 1 0.006927336553144549 -0.007378636629320023 0.09902869373137474 4 0 0 0 0
879 1 0.005567971572151514 -0.000867205091882975 0.09649627099667514 4 0 0 0 0
880 1 -0.008188883105038148 -0.008578831295464485 0.09649266215156467 4 0 0 0 0
881 1 -0.001020032574479104 -0.006708677304067698 0.0964890409360309 4 0 0 0 0
882 1 -0.00491303075825261 -0.001605731343376126 0.0970309579218961 4 0 0 0 0
883 1 0.00910900179207798 -0.006337407760870818 0.09701029157559711 4 0 0 0 0
884 1 -0.004097405040010193 -0.005004926884032961 0.09951103660153955 4 0 0 0 0
885 1 0.00857075930515927 -0.008148530905569181 0.09950595722858653 4 0 0 0 0
886 1 0.001968107415234928 -0.009236784318112515 0.09897273285773192 4 0 0 0 0
887 1 0.01002908629908255 0.005046763446262049 0.09698774950969612 4 0 0 0 0
888 1 -0.00245943957761658 0.001283125533747736 0.09650351627623102 4 0 0 0 0
889 1 -0.009710150142064361 -0.006744280792530397 0.09649268896097274 4 0 0 0 0
890 1 -0.00440986305170157 -0.006548827997002828 0.09651383574029576 4 0 0 0 0
891 1 0.005585188007581436 -0.01041763418838173 0.09650595722858651 4 0 0 0 0
892 1 0.005556752944364193 0.006472273667727546 0.09702768238170284 4 0 0 0 0
893 1 1.59158162951804e-05 -0.003370378809688437 0.09851890684662423 4 0 0 0 0
894 1 0.008305591821457287 0.007724147303302108 0.09899206816155214 4 0 0 0 0
895 1 0.0001638933343003626 0.009718063614910663 0.09651282788558735 4 0 0 0 0
896 1 -0.002614566832654622 -0.007443506088853739 0.0983568791445982 4 0 0 0 0
897 1 0.002770603637523018 0.002309322371171407 0.09951483683375199 4 0 0 0 0
898 1 -0.001210725754605568 -0.003383637082819309 0.09649943108935899 4 0 0 0 0
899 1 -0.002771133826538021 0.005235442717842209 0.09736309748967592 4 0 0 0 0
900 1 -0.009790724782755588 -0.006729071764356683 0.09949268896097274 4 0 0 0 0
901 1 0.006266440317520436 -0.007478083932899414 0.09651162444922182 4 0 0 0 0
902 1 -0.004225079911041384 -0.007635588574999157 0.09651383574029576 4 0 0 0 0
903 1 0.001946000718634773 -0.006946364934315323 0.09949915320925234 4 0 0 0 0
904 1 0.0008705900860587062 -0.007097055325690854 0.09681010290514269 4 0 0 0 0
905 1 8.650331004044038e-05 -0.005947382217672619 0.0975088108802865 4 0 0 0 0
906 1 -0.005133068199903084 -0.008202110819522596 0.09648589730819168 4 0 0 0 0
907 1 -0.002206776621060583 9.338154848849081e-05 0.09947013309433295 4 0 0 0 0
908 1 -0.006879126713745565 -0.0007516094941946206 0.09749741831590715 4 0 0 0 0
909 1 -0.007918641085282601 0.008027114783977983 0.09649712210158934 4 0 0 0 0
910 1 -0.0004261846736097869 -0.0113134963896584 0.0990217765607237 4 0 0 0 0
911 1 0.002154727298926582 -0.005197870268142993 0.09946115673766723 4 0 0 0 0
912 1 0.01100542958271242 0.003351732861326732 0.09852589966892519 4 0 0 0 0
913 1 0.000979777326487688 0.008371997946098157 0.09632019270909731 4 0 0 0 0
914 1 0.003507802145535282 0.006084470040906999 0.09649605068646269 4 0 0 0 0
915 1 -0.0009239153049428693 -0.01136290907228224 0.09702177656072369 4 0 0 0 0
916 1 -0.006169586517981746 0.001310732385928473 0.09850485789557964 4 0 0 0 0
917 1 -0.0004995686089611097 -0.00544413153382095 0.09700965767103417 4 0 0 0 0
918 1 0.00638211240839763 0.004057726849620667 0.09699800090218388 4 0 0 0 0
919 1 0.0006832849645696089 -0.001984646717434681 0.09701466133603273 4 0 0 0 0
920 1 -0.001128474894481073 0.01025598601702344 0.09653060739991977 4 0 0 0 0
921 1 0.003669357359504547 -0.009624483959212374 0.09651439018578291 4 0 0 0 0
922 1 0.006026864033017857 0.0006095727746077841 0.0995068908895529 4 0 0 0 0
923 1 0.009590841117933775 -0.004308527346400189 0.09652283695180122 4 0 0 0 0
924 1 0.002553799414777624 -0.002226070612304935 0.09900511052494174 4 0 0 0 0
925 1 -0.005221611347017544 0.01029260353695037 0.09903116333306687 4 0 0 0 0
926 1 -0.008536145694150983 -0.008139167293703812 0.09950518505054493 4 0 0 0 0
927 1 -0.008633025484704399 -0.002641995493134038 0.09650029218912133 4 0 0 0 0
928 1 -0.009100225066646489 -0.003624347156202198 0.09650029218912133 4 0 0 0 0
929 1 -0.004695287035024209 -0.007930643059574572 0.09699973304848741 4 0 0 0 0
930 1 0.002840653105805454 -0.002964141343588331 0.09844011127267943 4 0 0 0 0
931 1 -0.004025904595743344 0.009530814052198511 0.09650752025725672 4 0 0 0 0
932 1 -0.005261332780622458 5.243212513601631e-05 0.09652945177651939 4 0 0 0 0
933 1 -0.007237910460494455 -0.001950487684536463 0.09700363944845171 4 0 0 0 0
934 1 -0.003687598429486417 -0.008920980672012885 0.09898792089773883 4 0 0 0 0
935 1 -0.003350121988790221 -0.001593394870775364 0.09952276598118187 4 0 0 0 0
936 1 -0.007177519509192986 -0.00948911946586525 0.09649266215156466 4 0 0 0 0
937 1 0.006650945815221594 0.001950544197907269 0.09949507545594501 4 0 0 0 0
938 1 -0.006031103877712199 0.002041736289499029 0.09948162725160478 4 0 0 0 0
939 1 0.003648690826735166 -0.003180060311063924 0.09894125225041746 4 0 0 0 0
940 1 0.01023931614507507 0.005636381126587657 0.09749505690661278 4 0 0 0 0
941 1 -0.005466600119113058 0.009876207593492437 0.0985332308909387 4 0 0 0 0
942 1 0.003978145681211799 0.004543978639879904 0.09684848377649481 4 0 0 0 0
943 1 -0.006384715811845148 -0.005074127057086358 0.09950823429143373 4 0 0 0 0
944 1 0.009308373410265917 0.0006225693945080396 0.09900878341811906 4 0 0 0 0
945 1 -0.005483080881253896 0.007223347072088286 0.09649756168603889 4 0 0 0 0
946 1 -0.002685201910789135 -0.01091635297184597 0.09889784238793572 4 0 0 0 0
947 1 1.808240563269637e-05 0.003674164359854994 0.09758694345742031 4 0 0 0 0
948 1 0.004357285770042368 0.005255906289464742 0.09697362459553721 4 0 0 0 0
949 1 0.005809345476358098 0.006099674902852034 0.0965029254462389 4 0 0 0 0
950 1 -0.005212384717741604 0.01068419116816764 0.09649291815890398 4 0 0 0 0
951 1 0.002486142837655328 0.004261424900364826 0.09637090986742029 4 0 0 0 0
952 1 -0.006432361488908234 0.004447617254902071 0.09850140913618 4 0 0 0 0
953 1 0.009429739696966076 0.006733248348805495 0.09749111923380871 4 0 0 0 0
954 1 0.005296633227554363 -0.004127866131561524 0.09695064714818444 4 0 0 0 0
955 1 0.002244049885259118 0.01122110469371579 0.09686354628592947 4 0 0 0 0
956 1 0.005103887871626396 -0.008526845497248404 0.09951162444922182 4 0 0 0 0
957 1 0.003866010449458956 -0.0107341016384426 0.09700761248693641 4 0 0 0 0
958 1 -0.0008781477303444722 -0.0006377846761839189 0.09898593540810371 4 0 0 0 0
959 1 -0.00464188060889172 -0.002024004073617495 0.09854413105282032 4 0 0 0 0
960 1 0.00587714789147321 -0.005316004084154238 0.09949989390527293 4 0 0 0 0
961 1 -0.009208313279970029 -0.00246839276252276 0.0970119179019895 4 0 0 0 0
962 1 0.001513180378708092 0.01160114586564254 0.09949132437727186 4 0 0 0 0
963 1 0.009782498302344744 0.006749713109599572 0.09950730739691666 4 0 0 0 0
964 1 0.009272792253915536 -0.001895853796210034 0.09649775379391758 4 0 0 0 0
965 1 -0.006918730894688885 -5.082210378271632e-05 0.09949377886745547 4 0 0 0 0
966 1 -0.009146838871209798 0.003637057028248015 0.09899283340016438 4 0 0 0 0
967 1 -0.0003886852718717144 0.004058310566722385 0.09708240005782971 4 0 0 0 0
968 1 -0.002611067001837103 0.009441285402496578 0.09648852425320729 4 0 0 0 0
969 1 0.003877685374201753 0.004726766886926042 0.0983445344629575 4 0 0 0 0
970 1 0.000466951483771789 -0.002559196883372436 0.09649885902226199 4 0 0 0 0
971 1 -0.01129334470761234 -0.003140955636460385 0.09851730435604829 4 0 0 0 0
972 1 0.002445302579116711 0.01016341094682459 0.09684583240893802 4 0 0 0 0
973 1 0.005680239081603824 -0.002399017287821087 0.09645075324291152 4 0 0 0 0
974 1 0.003459868734359102 -0.007627089215334814 0.09899104083995931 4 0 0 0 0
975 1 0.004078021710431319 0.00395697658739195 0.09684848377649481 4 0 0 0 0
976 1 0.01153968038050125 0.003995517660777639 0.09702312498601895 4 0 0 0 0
977 1 -0.008188701864571194 0.0005275687330577893 0.09949377886745547 4 0 0 0 0
978 1 0.005362041284913768 -0.00662659907360486 0.09952750158723898 4 0 0 0 0
979 1 -0.001027650383515805 -0.009258688466959986 0.09832626167269469 4 0 0 0 0
980 1 -0.009615088325572486 0.001208857965209184 0.09700007501609195 4 0 0 0 0
981 1 -0.006180211071910587 0.007162811978559867 0.09899468378762821 4 0 0 0 0
982 1 -0.002980232769581024 0.001063363953805189 0.09650351627623102 4 0 0 0 0
983 1 -0.005775953838641406 -0.005339823296239395 0.09695030208901707 4 0 0 0 0
984 1 -0.001861000756039444 -0.001580126942783769 0.09696956418369193 4 0 0 0 0
985 1 -0.00573742435788411 0.006759552400683752 0.09949756168603889 4 0 0 0 0
986 1 -0.004735517920866785 -0.001039388394197048 0.09952276598118187 4 0 0 0 0
987 1 -0.001570348019729091 0.002034638994176012 0.09650351627623102 4 0 0 0 0
988 1 -0.007180561125268166 0.009485504741567259 0.09649268370068631 4 0 0 0 0
989 1 0.0001860011979092501 -0.002744384444445214 0.09899829011162098 4 0 0 0 0
990 1 -0.000882793040977371 0.004583146019067849 0.09742343039480428 4 0 0 0 0
991 1 -0.0009123596570701937 -0.0007155820087015537 0.09698593540810371 4 0 0 0 0
992 1 0.005657715308991806 -0.003387497522429978 0.09945075324291153 4 0 0 0 0
993 1 0.00171626663212708 0.01029389687231659 0.09884583240893802 4 0 0 0 0
994 1 -0.00061727546619037 0.002115691480831051 0.0990930246261456 4 0 0 0 0
995 1 -0.006596405238730585 0.001744920264991292 0.09897540611906025 4 0 0 0 0
996 1 0.004431387456919849 -0.00262942836545688 0.09895700474559127 4 0 0 0 0
997 1 2.229304347871189e-05 -0.01174856790112986 0.09851312241298932 4 0 0 0 0
998 1 -0.0009991399454229199 0.01076436094928213 0.09653060739991977 4 0 0 0 0
999 1 -0.00481371582516853 -0.002150259946938754 0.09754413105282032 4 0 0 0 0
1000 1 0.003965353702602441 -0.006067775835594431 0.09952750158723898 4 0 0 0 0
1001 1 0.009152077961787452 -0.007017494141111405 0.09751624880418364 4 0 0 0 0
1002 1 -0.004679257736167979 0.00494069808674945 0.09650253367887553 4 0 0 0 0
1003 1 0.00574388536895445 -0.005283305465476088 0.09649989390527293 4 0 0 0 0
1004 1 0.007840504848255977 0.001416579122457099 0.09650143723160531 4 0 0 0 0
1005 1 0.004205736676834035 0.007021482126428041 0.09749141194319869 4 0 0 0 0
1006 1 0.002934737964027869 -0.009265482703537185 0.09897792943850324 4 0 0 0 0
1007 1 -0.005115892591202378 -0.007315025093768598 0.09844180084607078 4 0 0 0 0
1008 1 -0.001930915059890678 -0.002217781606562768 0.09649943108935899 4 0 0 0 0
1009 1 0.000527958031300315 -0.005332414819304238 0.09652061673500328 4 0 0 0 0
1010 1 -0.006038934690890826 -0.008743473784054349 0.09648589730819168 4 0 0 0 0
1011 1 -0.001385430060696353 0.007439787044932257 0.09948786193525358 4 0 0 0 0
1012 1 0.003273041441582511 0.008717655041412769 0.09845339139652327 4 0 0 0 0
1013 1 -0.00736274828525799 0.00239848136060903 0.09698389954410372 4 0 0 0 0
1014 1 -0.0008706339884306755 0.006762559473282614 0.09948786193525358 4 0 0 0 0
1015 1 0.003073572847067993 0.007119615092954158 0.09647060432127208 4 0 0 0 0
1016 1 -0.005087912313225575 -0.003515181139773294 0.09702140742235793 4 0 0 0 0
1017 1 0.003171482171595084 -0.005948100980017221 0.09646115673766723 4 0 0 0 0
1018 1 0.004490180419657862 -0.004767526625217711 0.09949989390527293 4 0 0 0 0
1019 1 0.003736138506480557 0.003688333153506575 0.09736332061024681 4 0 0 0 0
1020 1 -0.003568885816007986 -0.0001148461015616917 0.09952276598118187 4 0 0 0 0
1021 1 0.00566909780109455 0.003937866700489452 0.09847557481125843 4 0 0 0 0
1022 1 -0.003964872612623383 -0.01124820736609293 0.09651026734336329 4 0 0 0 0
1023 1 5.586440153839079e-05 -0.003323925802195589 0.09751890684662423 4 0 0 0 0
1024 1 -0.0006827863617250648 -0.0001035787725901489 0.09748719261924203 4 0 0 0 0
1025 1 0.002438124973644946 0.005412758389516157 0.09685354979733378 4 0 0 0 0
1026 1 0.0026689970881315 0.007244881380265807 0.09947060432127208 4 0 0 0 0
1027 1 -0.007204212114667923 0.009483174741965947 0.09949268370068631 4 0 0 0 0
1028 1 -0.0005259881960949395 -0.001740466790613164 0.09701523340312976 4 0 0 0 0
1029 1 0.005034022626349489 0.006628125117571035 0.09702080762192661 4 0 0 0 0
1030 1 -0.006708306375974884 -0.00964079986039942 0.09952318204342603 4 0 0 0 0
1031 1 -0.008395016169875348 0.008195412604638434 0.09849499085282055 4 0 0 0 0
1032 1 -0.004575015868481131 0.009479415056700007 0.09700958781512854 4 0 0 0 0
1033 1 0.001324800606246991 -0.009837239881673064 0.09650919360501156 4 0 0 0 0
1034 1 0.001759693869712615 -0.01165298924220995 0.09752383364240835 4 0 0 0 0
1035 1 0.005373816425591846 -0.0110372585021928 0.09699917952974002 4 0 0 0 0
1036 1 0.007680946412639948 0.005802644342055211 0.09850064587842598 4 0 0 0 0
1037 1 0.005464904062762564 -0.002117899737380718 0.09894702423958665 4 0 0 0 0
1038 1 -0.008255327485979718 0.008618388390976856 0.09949268370068631 4 0 0 0 0
1039 1 0.009918581729904931 0.0006333565727403185 0.09950734618651377 4 0 0 0 0
1040 1 0.006955404879287013 -0.004977289435150955 0.09650136538234147 4 0 0 0 0
1041 1 0.001439416806018483 -0.01037282665575974 0.09650919360501156 4 0 0 0 0
1042 1 0.003887941302193105 0.004997030036861558 0.0973445344629575 4 0 0 0 0
1043 1 0.0005856481243810682 -0.003801420844687915 0.09901947575726525 4 0 0 0 0
1044 1 3.604845602925321e-05 -0.005836084341347097 0.0985088108802865 4 0 0 0 0
1045 1 -0.002223613653622554 0.003782852035635116 0.09910607282897138 4 0 0 0 0
1046 1 -0.002229356967249821 0.009854584035725644 0.09701913165312705 4 0 0 0 0
1047 1 0.002097166355748197 0.01197885831398696 0.09901461854909381 4 0 0 0 0
1048 1 0.005092089824443553 -0.01066392358590888 0.09949322230115351 4 0 0 0 0
1049 1 -0.007697893538997552 0.001787485946432411 0.09899605115995441 4 0 0 0 0
1050 1 -0.005034758423370192 -0.003639003874004702 0.09902140742235793 4 0 0 0 0
1051 1 -0.01022668949834041 -0.0006961523400715887 0.09700942843646118 4 0 0 0 0
1052 1 -0.003135682826341911 0.00826954474371891 0.0994885242532073 4 0 0 0 0
1053 1 0.002463178245030705 0.008286542400668014 0.09848544698635112 4 0 0 0 0
1054 1 -0.001582930736828635 -0.01114629380438384 0.09842672093092408 4 0 0 0 0
1055 1 -0.005014972703524244 -0.009356626782073064 0.09648589730819168 4 0 0 0 0
1056 1 -0.0009789552730717823 -0.007199502101032184 0.09714101044667656 4 0 0 0 0
1057 1 -0.0002416139912481819 -0.01091989861761017 0.09649859451729767 4 0 0 0 0
1058 1 -0.004934580634579864 0.008099864385223813 0.09899962924391072 4 0 0 0 0
1059 1 -0.00952265574245871 -0.001194028362849837 0.09850487594419864 4 0 0 0 0
1060 1 0.007929785643378384 -0.001619508842444412 0.09649775379391758 4 0 0 0 0
1061 1 0.003547862855332022 0.01163051887948738 0.09901734546207687 4 0 0 0 0
1062 1 0.002828834120440481 0.005296028679826353 0.09637090986742029 4 0 0 0 0
1063 1 0.002973489075050492 0.008692951112173723 0.09697618461610258 4 0 0 0 0
1064 1 -0.01213839817024377 0.002181480879443023 0.09698432663350076 4 0 0 0 0
1065 1 0.008725073532828328 0.005942984846691448 0.09949473205376351 4 0 0 0 0
1066 1 0.01054542278470791 0.005632823014478412 0.09950730739691667 4 0 0 0 0
1067 1 0.001168486036040111 -0.01140786774058551 0.09700053945727719 4 0 0 0 0
1068 1 0.008496463886281927 -0.008800381936364659 0.09899837140845021 4 0 0 0 0
1069 1 0.01115440120778738 0.003375976253811659 0.09653010753008631 4 0 0 0 0
1070 1 0.002440058466888103 0.009508109744032038 0.09650558029483053 4 0 0 0 0
1071 1 0.0004576196447388251 -0.01040215147755298 0.09900778812230923 4 0 0 0 0
1072 1 -0.0003215591862386607 -0.01185349599876023 0.09751312241298932 4 0 0 0 0
1073 1 -0.009786625248632474 -0.007377802997096018 0.09699787401151766 4 0 0 0 0
1074 1 0.007638890577270784 0.005604765217249538 0.09750064587842598 4 0 0 0 0
1075 1 0.00934673116182318 0.004137990983412301 0.09899750673666974 4 0 0 0 0
1076 1 -0.002449505778033948 0.006107046077290278 0.09684879207571181 4 0 0 0 0
1077 1 -0.007628129589046477 0.006357244364354998 0.09701437030728902 4 0 0 0 0
1078 1 -0.0117214049071119 0.00172877526551707 0.09647627610276849 4 0 0 0 0
1079 1 -0.009685331315491154 0.00125515340553393 0.09900007501609195 4 0 0 0 0
1080 1 0.001837624040437687 -0.0002470177646606787 0.09650032090309382 4 0 0 0 0
1081 1 0.009554195887391658 -0.007183280803702002 0.09950595722858652 4 0 0 0 0
1082 1 0.001963026341987073 0.005755636581263098 0.0964826399299135 4 0 0 0 0
1083 1 -0.007356070694448337 -0.009744396602122249 0.09901584419499071 4 0 0 0 0
1084 1 -0.005815179001927713 0.004451424041418905 0.09650253367887553 4 0 0 0 0
1085 1 -0.002555964685667696 0.003167886077158213 0.09701782169019513 4 0 0 0 0
1086 1 0.006764486144831959 0.004569835409870789 0.0965029254462389 4 0 0 0 0
1087 1 0.00578725383067394 -0.001954797379119801 0.09694702423958665 4 0 0 0 0
1088 1 -0.01131345052038019 1.396280769328784e-05 0.09949780272359302 4 0 0 0 0
1089 1 -0.009796190318546213 -0.007363858348462649 0.09899787401151769 4 0 0 0 0
1090 1 0.00707958311899105 0.005829384188921974 0.09700591382466249 4 0 0 0 0
1091 1 -0.004418118015027109 0.006239040369753968 0.09949756168603889 4 0 0 0 0
1092 1 -0.008539380139702776 0.007969151493616591 0.09700230715213426 4 0 0 0 0
1093 1 -0.001725557420740167 -0.00962563633624269 0.09771270682858499 4 0 0 0 0
1094 1 0.007481696888163386 0.00521269871792961 0.09899765750000239 4 0 0 0 0
1095 1 2.787262528625602e-05 0.004394646020870264 0.09649063264282245 4 0 0 0 0
1096 1 0.009081341642325224 0.002009890428173583 0.09700421191451156 4 0 0 0 0
1097 1 0.001424165867686148 -0.0006898809546440857 0.09701612321686459 4 0 0 0 0
1098 1 0.001890236595240086 0.00856859879805949 0.09901484266507904 4 0 0 0 0
1099 1 0.008553325020872485 -0.0005020818599437175 0.09899919102552288 4 0 0 0 0
1100 1 0.008246148841512028 0.008348253905441617 0.09848401177686797 4 0 0 0 0
1101 1 -0.001351137046990599 0.001473818241540309 0.09900477348736934 4 0 0 0 0
1102 1 -0.001356032199269674 -0.01104463615293179 0.09742672093092408 4 0 0 0 0
1103 1 -0.003170101272067792 0.003100334431522044 0.09758820174502261 4 0 0 0 0
1104 1 -0.007882634238288048 0.008649916723227456 0.09698980580227563 4 0 0 0 0
1105 1 -0.001904386973484727 -0.009560562054785955 0.0967120887217402 4 0 0 0 0
1106 1 -0.009333737434678427 -0.000606443980987012 0.09899325023133047 4 0 0 0 0
1107 1 -0.01105791527788305 -0.00185274668967882 0.09651162571286818 4 0 0 0 0
1108 1 -0.0008574576538317078 -0.009813764679747809 0.09680573886883746 4 0 0 0 0
1109 1 -0.002329425592884365 -0.009602229147519441 0.09640494437020039 4 0 0 0 0
1110 1 0.008238767243374587 0.006264178401197751 0.09899772043218709 4 0 0 0 0
1111 1 -0.001289287210825312 0.002193350393044902 0.0985965409023766 4 0 0 0 0
1112 1 -0.001943719536995545 0.00313222944851268 0.09760958910520239 4 0 0 0 0
1113 1 -0.0007993434271579029 0.003545785914168975 0.09659176741500727 4 0 0 0 0
1114 1 -0.008033495286347557 0.006222454098626891 0.09951724820569971 4 0 0 0 0
1115 1 -0.007398468661302782 0.006689821529794103 0.09649712210158934 4 0 0 0 0
1116 1 0.00295507002634352 -0.0005924335629274727 0.09650032090309382 4 0 0 0 0
1117 1 -0.003183740975155233 -0.006139848208383354 0.09902487234183528 4 0 0 0 0
1118 1 -0.005776046327077255 -0.0108520626090037 0.09703344938678934 4 0 0 0 0
1119 1 -9.167877651033766e-05 0.0003178419008334206 0.09650125721113834 4 0 0 0 0
1120 1 0.003875862774581248 0.01096101275391158 0.0994940512902549 4 0 0 0 0
1121 1 -0.00322774227614358 -0.01130424678748945 0.09740810973129901 4 0 0 0 0
1122 1 0.001758413254549762 0.01165040729810778 0.09735487066320131 4 0 0 0 0
1123 1 -0.008810212183319368 -0.008521035456639493 0.09699784720210959 4 0 0 0 0
1124 1 -0.0001312214744283877 4.58468653103106e-05 0.09901705952490909 4 0 0 0 0
1125 1 -0.001626298475196998 -0.008223759113292718 0.09902254639340437 4 0 0 0 0
1126 1 -0.001555887226376497 0.01004468489162782 0.09653060739991977 4 0 0 0 0
1127 1 0.001926847424778272 -0.002246750641106523 0.09949885902226199 4 0 0 0 0
1128 1 0.005264497326526723 -0.00837916720476275 0.09651162444922182 4 0 0 0 0
1129 1 -0.005348801716652109 -0.002994302824119845 0.09752959936307218 4 0 0 0 0
1130 1 -0.009838290811310307 -0.001100346899486999 0.09651162571286818 4 0 0 0 0
1131 1 -0.005040411430620213 0.009286877965845836 0.09650206755787183 4 0 0 0 0
1132 1 0.00407803530729044 0.00762300005124544 0.09647060432127208 4 0 0 0 0
1133 1 -4.030397118970911e-05 -0.006521762793601664 0.09898819414528322 4 0 0 0 0
1134 1 -0.002826628919083566 -0.0083945421210961 0.09650202358954717 4 0 0 0 0
1135 1 -0.00849056331788106 -0.008775518543416499 0.09899784720210959 4 0 0 0 0
1136 1 -0.007516899047694699 -0.005672884210003981 0.09949853287880771 4 0 0 0 0
1137 1 -0.001555497045211437 -0.009315141452400592 0.09830776245838463 4 0 0 0 0
1138 1 -0.005886216983107872 0.004078205970410588 0.09898416093048029 4 0 0 0 0
1139 1 -0.01126482808887966 0.003932231929912026 0.09651076143618714 4 0 0 0 0
1140 1 -0.007545753375500067 0.004608327310723967 0.09651724820569971 4 0 0 0 0
1141 1 -0.003083115554578099 -0.01135469643052352 0.09949289801773535 4 0 0 0 0
1142 1 -3.653765978440391e-05 0.008948667876499259 0.09951282788558735 4 0 0 0 0
1143 1 0.008484906210010752 -0.008739959401632193 0.0969983714084502 4 0 0 0 0
1144 1 -0.00147445886408198 -0.009789514604398458 0.09630714435153982 4 0 0 0 0
1145 1 0.007129023039298747 0.0029938301963572 0.096495075455945 4 0 0 0 0
1146 1 0.005237740555814979 0.006079350844348764 0.0985237330681655 4 0 0 0 0
1147 1 0.004521465625311624 0.007358110250010617 0.09699536125673602 4 0 0 0 0
1148 1 0.007239213143623071 -0.005066412083041202 0.09950136538234147 4 0 0 0 0
1149 1 0.002512455441407755 -0.01076390863705866 0.09854687797592564 4 0 0 0 0
1150 1 0.007371401376220583 -0.005440918821939297 0.0970184346644944 4 0 0 0 0
1151 1 0.0007557335059951379 -0.003175426479444692 0.09949885902226199 4 0 0 0 0
1152 1 -0.01156502890664718 -0.001462234711894799 0.09701796651093601 4 0 0 0 0
1153 1 0.00347072975659342 -0.002143637321315976 0.09650625150267977 4 0 0 0 0
1154 1 -0.003112084108149372 0.00966919127744191 0.09699604451046399 4 0 0 0 0
1155 1 0.005502516219672137 0.0003096317034239248 0.0965068908895529 4 0 0 0 0
1156 1 0.007557936946908853 -0.005558453380979937 0.09901843466449441 4 0 0 0 0
1157 1 -0.001882900026084669 0.00335584358633243 0.09959176741500728 4 0 0 0 0
1158 1 0.0004422832639502803 -0.00212338127101461 0.09851409242539172 4 0 0 0 0
1159 1 -0.003906715516171598 -0.008208987769245023 0.09850175663803458 4 0 0 0 0
1160 1 -0.007148104650392079 0.006243657101668821 0.09701437030728902 4 0 0 0 0
1161 1 0.001114209486114292 -0.01073697829068095 0.09650919360501156 4 0 0 0 0
1162 1 0.003822736270651597 0.008219236636426827 0.09894781110169278 4 0 0 0 0
1163 1 -0.01005859047642633 0.005067209279740021 0.09649056110766541 4 0 0 0 0
1164 1 0.003453897650846578 0.009336270282031668 0.0969827870752512 4 0 0 0 0
1165 1 0.0006504111023548752 -0.005755777507954966 0.09901976994425561 4 0 0 0 0
1166 1 0.004515525863375933 0.007819349804033546 0.09699536125673602 4 0 0 0 0
1167 1 0.00355635420078043 -0.003874813328549371 0.0994350007477377 4 0 0 0 0
1168 1 0.008646852009739411 0.008217891065445916 0.09948907978312854 4 0 0 0 0
1169 1 -0.002764542789718776 0.007053247296996562 0.09950776173873725 4 0 0 0 0
1170 1 -0.0003286397718494152 0.0118565648413131 0.09952272150861405 4 0 0 0 0
1171 1 0.0005459311261617083 0.009075246034188677 0.09632019270909731 4 0 0 0 0
1172 1 -0.0002515279270883841 -0.0005590856767979989 0.09951580231377077 4 0 0 0 0
1173 1 0.006987265311107333 0.01001615639460443 0.09701569899365411 4 0 0 0 0
1174 1 -0.001755470552257389 0.0002416743415867291 0.09647013309433294 4 0 0 0 0
1175 1 0.007265083786884735 0.009368162587153495 0.09949194361531585 4 0 0 0 0
1176 1 -0.004349293642384816 -0.0001063400947673867 0.09705221775770126 4 0 0 0 0
1177 1 -6.938477792462774e-05 -0.007275366986510406 0.09850871694914043 4 0 0 0 0
1178 1 0.01172659408736186 -0.0002647116648131628 0.09900734618651377 4 0 0 0 0
1179 1 0.005950491336658325 0.006580516589229857 0.09702768238170284 4 0 0 0 0
1180 1 0.006188830362481433 0.004068064753409609 0.09899800090218389 4 0 0 0 0
1181 1 0.008506771150749153 -0.008023233484788903 0.09650595722858653 4 0 0 0 0
1182 1 -0.004977707083169948 0.01083388669760998 0.09852408149197088 4 0 0 0 0
1183 1 0.009500587761513146 -0.0005841206553459808 0.09700509998043133 4 0 0 0 0
1184 1 -0.005714531573508644 -0.007058427984757618 0.09644206779758337 4 0 0 0 0
1185 1 0.004398155832133051 -0.003461484892553013 0.09688575399064919 4 0 0 0 0
1186 1 -0.001492815185149211 -0.008806041745209598 0.09832969074494417 4 0 0 0 0
1187 1 -0.006905000739864033 -0.002582967391507223 0.09650819194071425 4 0 0 0 0
1188 1 0.009223833494316063 -0.002450883044788805 0.09702059074571878 4 0 0 0 0
1189 1 0.001455576355030786 -0.009567421020552563 0.09950919360501156 4 0 0 0 0
1190 1 -0.01131099952619195 -0.003393132138463866 0.09648192327386057 4 0 0 0 0
1191 1 -0.003267079264728515 0.002502008827542809 0.09707389633105851 4 0 0 0 0
1192 1 0.004299141408280288 0.008354208057872764 0.0974725680371567 4 0 0 0 0
1193 1 -0.0006661765327295865 0.004125783340048417 0.09908240005782971 4 0 0 0 0
1194 1 0.003548121789446465 -0.01125375690150039 0.09753090667206758 4 0 0 0 0
1195 1 -0.008349210953664024 -0.002183260020321315 0.09699573969685878 4 0 0 0 0
1196 1 0.0002793708007806909 0.007769618263619741 0.09632019270909731 4 0 0 0 0
1197 1 0.01167013943338151 0.0005060758072043091 0.09868773259614705 4 0 0 0 0
1198 1 0.009806875825049978 0.007381351263270981 0.09899638718004522 4 0 0 0 0
1199 1 -0.01131196106850747 -0.003965000527740809 0.09952375536931952 4 0 0 0 0
1200 1 -0.004563532989676095 0.006530099150665271 0.09649756168603889 4 0 0 0 0
1201 1 -0.005774814335629832 0.003891744763201838 0.09698416093048029 4 0 0 0 0
1202 1 -0.005720569692307121 -0.003668717598488924 0.09650823429143372 4 0 0 0 0
1203 1 -0.0001451145638595026 -0.001298888027476713 0.09651580231377077 4 0 0 0 0
1204 1 0.006502298845121842 0.006506769082916083 0.09753067076012642 4 0 0 0 0
1205 1 0.00154133524985348 -0.0005981087599726965 0.09901612321686459 4 0 0 0 0
1206 1 -0.007923691110432304 -0.003450544520901785 0.09650029218912133 4 0 0 0 0
1207 1 -0.002569989339680617 -0.007949648485416887 0.09684304340430247 4 0 0 0 0
1208 1 0.004831082662010477 0.008245342982605475 0.09700196371588463 4 0 0 0 0
1209 1 -0.01103390916128379 -0.0009438205669915359 0.09751576923452902 4 0 0 0 0
1210 1 0.006291503878034726 -0.007687181770988944 0.09951162444922182 4 0 0 0 0
1211 1 -0.008414399045909108 0.005285476297991178 0.09700780931336511 4 0 0 0 0
1212 1 0.007096357732989641 0.009280850116210968 0.09649194361531585 4 0 0 0 0
1213 1 -0.005784248698368077 0.01084583865418982 0.09701656123471417 4 0 0 0 0
1214 1 0.001147925565747104 0.003646520305578694 0.0995045433995906 4 0 0 0 0
1215 1 0.006458615587955353 -0.009697000228644719 0.09701758167780833 4 0 0 0 0
1216 1 0.001621084596267144 0.009896109933106467 0.09950558029483053 4 0 0 0 0
1217 1 0.003626006549269685 0.004005072056059013 0.0983633206102468 4 0 0 0 0
1218 1 0.008620731080244727 0.008476378027972601 0.09748401177686797 4 0 0 0 0
1219 1 -0.007604094500263834 -0.002243848271296053 0.09850393163757303 4 0 0 0 0
1220 1 -0.0003290408274553535 -0.0007495887358511323 0.09651580231377077 4 0 0 0 0
1221 1 0.009088252259663789 0.001365317304128515 0.09650143723160531 4 0 0 0 0
1222 1 0.005285959704982739 0.00840479121533733 0.09700196371588463 4 0 0 0 0
1223 1 0.0002067863332642844 -0.008094009877755326 0.09631094969589038 4 0 0 0 0
1224 1 -0.009795697515526345 0.0006441597330742355 0.09649780272359301 4 0 0 0 0
1225 1 -0.009160494422380469 -0.004147310411926498 0.09701291486954915 4 0 0 0 0
1226 1 0.006563585260063654 -0.009008180308066402 0.09651162444922182 4 0 0 0 0
1227 1 -0.0007218088093832823 -0.006342865687547567 0.0964890409360309 4 0 0 0 0
1228 1 -0.005083997760216899 -0.006129116415212727 0.09944206779758337 4 0 0 0 0
1229 1 -0.01118175909380823 -0.001892679172757876 0.09951162571286819 4 0 0 0 0
1230 1 0.007210913641592705 -0.009169256164439848 0.09900403862908549 4 0 0 0 0
1231 1 0.000506188800161137 0.01008183980121681 0.09685307999969486 4 0 0 0 0
1232 1 -0.005720596088208676 0.007750571481945969 0.09849675134550002 4 0 0 0 0
1233 1 -0.01156724639132242 0.003977619040774952 0.09901881196691943 4 0 0 0 0
1234 1 -0.004706536715504064 -0.006587914509875987 0.0989559035378791 4 0 0 0 0
1235 1 0.004652017841455735 0.001161795724978331 0.0995068908895529 4 0 0 0 0
1236 1 0.004419597565415359 -0.007341405199401697 0.09652750158723898 4 0 0 0 0
1237 1 -0.0116358018245714 -0.001466884357826928 0.09901796651093601 4 0 0 0 0
1238 1 -0.005361176728050472 -0.004166779563652323 0.09950823429143373 4 0 0 0 0
1239 1 0.01065267963906497 0.005187671330154598 0.09649301745593261 4 0 0 0 0
1240 1 0.001280970638821785 -0.01171060854374148 0.09900053945727719 4 0 0 0 0
1241 1 0.003199337234843366 0.003072998606547707 0.09651483683375199 4 0 0 0 0
1242 1 -0.007043201818280173 -0.01007663675887284 0.09701584419499071 4 0 0 0 0
1243 1 0.001961946895429995 -0.008540041569082281 0.09646353925272036 4 0 0 0 0
1244 1 -0.005141138088616735 -0.002608856879646959 0.09902136507163847 4 0 0 0 0
1245 1 0.002910701601302441 -0.008286247200936486 0.09646353925272036 4 0 0 0 0
1246 1 -0.01110468207920801 -0.0009484702129236651 0.09851576923452902 4 0 0 0 0
1247 1 0.006534164838627103 -0.009101936333237923 0.09951162444922182 4 0 0 0 0
1248 1 0.00886808856836965 -0.0007706545515702059 0.09649775379391758 4 0 0 0 0
1249 1 -0.0006523412888019267 0.005204863226906681 0.09683166297979703 4 0 0 0 0
1250 1 -0.004699605975695733 0.0002851069860851685 0.09652945177651939 4 0 0 0 0
1251 1 0.008585446112052492 -0.0002480610751010813 0.09699919102552287 4 0 0 0 0
1252 1 0.004703288214504879 -0.003849254897360029 0.09838564789592213 4 0 0 0 0
1253 1 -0.001249784516441161 -0.01187530851495505 0.09652318204342603 4 0 0 0 0
1254 1 0.000235339587635202 2.393987205505767e-05 0.09701705952490909 4 0 0 0 0
1255 1 -0.0001395214916847225 -0.001789465140729623 0.09901523340312975 4 0 0 0 0
1256 1 0.00381330710761938 0.006846040595436604 0.09896665500773477 4 0 0 0 0
1257 1 -0.006980720827499474 0.004881289829144179 0.09651724820569971 4 0 0 0 0
1258 1 0.004654618726813426 0.00349702192799563 0.09647757390907455 4 0 0 0 0
1259 1 0.005837547359966535 0.004200203689115006 0.09747557481125843 4 0 0 0 0
1260 1 0.00800940336316289 0.001554478309585186 0.09950143723160532 4 0 0 0 0
1261 1 -0.008853490149153324 0.008573767095119988 0.09899786875123123 4 0 0 0 0
1262 1 -0.0004833920233501502 0.004701494651875033 0.09949063264282246 4 0 0 0 0
1263 1 -0.004272810965247687 0.001697858290382345 0.09909983183134689 4 0 0 0 0
1264 1 -0.005567325892233743 -0.003177624075128839 0.09852959936307218 4 0 0 0 0
1265 1 -0.01215015841021348 0.001683573816704951 0.09898432663350076 4 0 0 0 0
1266 1 -0.0009846766379373244 0.005456558139254384 0.09634103033697458 4 0 0 0 0
1267 1 -0.001874970307345595 0.009882286332291901 0.09901913165312705 4 0 0 0 0
1268 1 -0.00301699695420359 -0.007692289041828349 0.0973568791445982 4 0 0 0 0
1269 1 -0.005665063953621573 0.01055027952914191 0.09952364307581016 4 0 0 0 0
1270 1 -0.005272883578815451 0.006625190591829517 0.09649756168603889 4 0 0 0 0
1271 1 0.005121172266430015 -0.00271116147633916 0.09945075324291153 4 0 0 0 0
1272 1 -0.006319422260283121 0.008135417067714069 0.09899918965946117 4 0 0 0 0
1273 1 -0.004928175967189617 -0.006534289673400731 0.0969559035378791 4 0 0 0 0
1274 1 -0.007045944181881374 0.0100726764195818 0.09701632677649646 4 0 0 0 0
1275 1 -0.003061946106196427 -0.004878640530756043 0.09651103660153955 4 0 0 0 0
1276 1 0.004120506860911471 -0.002946333586354331 0.09739200549332896 4 0 0 0 0
1277 1 -0.004539763786169979 0.007656239470265733 0.09949756168603889 4 0 0 0 0
1278 1 -0.002730374073562089 0.01008248991067098 0.09752665191038375 4 0 0 0 0
1279 1 0.003824744363059717 -0.002626038284962154 0.09950625150267978 4 0 0 0 0
1280 1 0.005699850333815292 -0.01081681683106847 0.09899917952974002 4 0 0 0 0
1281 1 0.008249137871972876 3.795316564210422e-05 0.09950143723160532 4 0 0 0 0
1282 1 0.0112708389284371 -4.020182341016575e-05 0.09950734618651377 4 0 0 0 0
1283 1 0.004737677930564224 0.006912617051160752 0.09702080762192661 4 0 0 0 0
1284 1 0.001138251838796534 -0.001108823376764268 0.09951580231377077 4 0 0 0 0
1285 1 0.01086290948505749 0.005777289010480206 0.09700032485284928 4 0 0 0 0
1286 1 -0.002160872257212273 -0.009372928073293044 0.0967120887217402 4 0 0 0 0
1287 1 -0.008531419336599342 -0.006174671283796247 0.09949853287880771 4 0 0 0 0
1288 1 -0.01170534972936828 0.0004733566014108335 0.09897407882636149 4 0 0 0 0
1289 1 -0.01026816889805519 0.0008931250051164965 0.09949780272359302 4 0 0 0 0
1290 1 -0.006526771670455228 -0.005881254540831276 0.09644206779758337 4 0 0 0 0
1291 1 0.007974108320220405 0.008386537734166141 0.09699493199373943 4 0 0 0 0
1292 1 0.01012518436881423 -0.007079755186007846 0.09899917952203069 4 0 0 0 0
1293 1 -0.008924498748929656 -0.002009657289710036 0.09750736540972695 4 0 0 0 0
1294 1 -0.007047018780034562 0.01008368841448501 0.09901632677649647 4 0 0 0 0
1295 1 0.004842529386961555 0.008669681016572152 0.0964772067804207 4 0 0 0 0
1296 1 0.004596532070263996 0.006431775364782929 0.09649605068646269 4 0 0 0 0
1297 1 0.004343746401979392 0.004929348439733021 0.09897362459553721 4 0 0 0 0
1298 1 -0.0002553744586053481 -0.01186498535094164 0.09952318204342603 4 0 0 0 0
1299 1 -0.0008095448787220553 0.01030383795959279 0.09904343528550712 4 0 0 0 0
1300 1 -0.01065403764775164 0.004853812981470016 0.09700132254385255 4 0 0 0 0
1301 1 0.007199355965321529 -0.009108833629707384 0.09700403862908549 4 0 0 0 0
1302 1 -0.005981459095733656 -0.003147839282835475 0.09701642623214796 4 0 0 0 0
1303 1 -0.0008999228909504062 0.001064806804131476 0.09650125721113834 4 0 0 0 0
1304 1 -0.005175119969128969 0.00360339035933923 0.09855454098530779 4 0 0 0 0
1305 1 -0.01151565559818606 0.00202785280052728 0.09950805053073228 4 0 0 0 0
1306 1 0.009514482512051304 -0.0009360190973163165 0.09900509998043133 4 0 0 0 0
1307 1 0.008666314514930896 0.007769874734615695 0.09699206816155213 4 0 0 0 0
1308 1 -0.008503373292708224 0.008591953432866064 0.09749499085282055 4 0 0 0 0
1309 1 -0.002508949947745454 0.003817892350657236 0.09651430541396411 4 0 0 0 0
1310 1 -0.0009483171281859196 -0.001382401301174048 0.09748536649746269 4 0 0 0 0
1311 1 -0.001199076027558979 -0.01129517310052863 0.0990217765607237 4 0 0 0 0
1312 1 0.01135349909421394 -0.003461430774636108 0.09646849138356711 4 0 0 0 0
1313 1 0.00199087175069612 0.009324482884316122 0.09650558029483053 4 0 0 0 0
1314 1 -0.01171844179071339 -0.0004363752509441749 0.09900414352166084 4 0 0 0 0
1315 1 -0.008734481199318946 -0.005076344641571971 0.09651262268042783 4 0 0 0 0
1316 1 -0.004199597767689911 -0.009337553188556145 0.09948589730819168 4 0 0 0 0
1317 1 0.009730387467298115 -0.006605123881808536 0.09649322229344418 4 0 0 0 0
1318 1 0.004505391161536322 0.008073268065799532 0.0984725680371567 4 0 0 0 0
1319 1 0.005032393367966312 0.005269092445894233 0.09747655004177611 4 0 0 0 0
1320 1 -0.0008145396623804605 -0.007271298744637149 0.0990095637398881 4 0 0 0 0
1321 1 0.01108873951368374 0.005417452183578956 0.09900032485284928 4 0 0 0 0
1322 1 -0.005363357738863913 -0.01043960165439854 0.09851934669498102 4 0 0 0 0
1323 1 -0.01144278365906664 -0.002387533007756415 0.09699354898672875 4 0 0 0 0
1324 1 -0.01061634099310344 0.004864504479596637 0.09900132254385255 4 0 0 0 0
1325 1 0.001166981622839853 0.01140504727885449 0.09683157649137936 4 0 0 0 0
1326 1 -0.002468742407635981 0.008814556842969766 0.09648852425320729 4 0 0 0 0
1327 1 0.011300522619009 -2.308778624891354e-06 0.09700734618651377 4 0 0 0 0
1328 1 -0.001319715941187908 -0.005825206917226885 0.09948904093603091 4 0 0 0 0
1329 1 -0.01020545924814545 0.005685630826980793 0.09698264412803603 4 0 0 0 0
1330 1 0.002681829438367336 -0.005862203911284953 0.09946115673766723 4 0 0 0 0
1331 1 0.007094386293213227 -0.009797653550285701 0.097509995857672 4 0 0 0 0
1332 1 0.005329757963287819 0.004590223768559655 0.09898049935531344 4 0 0 0 0
1333 1 0.001605047996426774 -0.01110822084420983 0.09950919360501156 4 0 0 0 0
1334 1 0.01168457678587502 0.0002036377950649995 0.09900734618651377 4 0 0 0 0
1335 1 0.009773463637007587 -0.007285210262049122 0.0969991795220307 4 0 0 0 0
1336 1 -0.002028138699691918 0.009302411585800094 0.0994885242532073 4 0 0 0 0
1337 1 -0.01116466681963514 0.003355791597103869 0.09950805053073228 4 0 0 0 0
1338 1 -0.003034078270639804 -0.007665150331694999 0.09901585932984291 4 0 0 0 0
1339 1 -0.0003958035577257528 -0.002410468314160228 0.09949943108935899 4 0 0 0 0
1340 1 0.01011185142994979 -0.0008275820696780618 0.09950734618651377 4 0 0 0 0
1341 1 -0.009931877191208381 0.005053859735387634 0.09949056110766541 4 0 0 0 0
1342 1 -0.00716940466054553 0.001910531540859348 0.09747767841155919 4 0 0 0 0
1343 1 -0.008974304961002448 0.003434076303813722 0.09699283340016437 4 0 0 0 0
1344 1 -0.007216316058945679 -0.0002213951546744937 0.09698922637519292 4 0 0 0 0
1345 1 -0.01158618829819663 -0.003969771151819694 0.09700567864318009 4 0 0 0 0
1346 1 0.0116670527687104 0.0005799915901457647 0.09739506997701777 4 0 0 0 0
1347 1 0.001042200422536954 -0.001179381018702642 0.09651580231377077 4 0 0 0 0
1348 1 0.009217945305195988 -6.15271788768563e-05 0.09750653721203664 4 0 0 0 0
1349 1 0.002728823637559668 -0.00551882736594295 0.09646115673766723 4 0 0 0 0
1350 1 -0.0006791253023556572 0.001396159329326458 0.09950125721113834 4 0 0 0 0
1351 1 0.006821037969671996 0.00747850929632481 0.09902774531388753 4 0 0 0 0
1352 1 -0.00678175985181805 -0.001383690153357169 0.09700363944845171 4 0 0 0 0
1353 1 -0.003767077863713822 0.01077859814701103 0.09650752025725672 4 0 0 0 0
1354 1 -0.009349118571962078 0.00306842099688217 0.09950227229249897 4 0 0 0 0
1355 1 0.004884262940327796 -0.003250564703066445 0.09645075324291152 4 0 0 0 0
1356 1 0.006417637490247625 -0.009730333719083776 0.09901758167780833 4 0 0 0 0
1357 1 -0.005894687973195468 0.0004696196049334478 0.09702323064397486 4 0 0 0 0
1358 1 0.005068965023235418 0.00461165550984325 0.09647757390907455 4 0 0 0 0
1359 1 0.005854773122881162 0.006303430624630645 0.09902768238170284 4 0 0 0 0
1360 1 0.0007851317195320637 0.007778424644405515 0.09950926237024854 4 0 0 0 0
1361 1 -0.009362608751913597 0.001894164842647762 0.09650227229249897 4 0 0 0 0
1362 1 0.005033804171686706 0.01008615929571931 0.0964772067804207 4 0 0 0 0
1363 1 0.0001116127564294068 0.002944478880418763 0.09909631081459785 4 0 0 0 0
1364 1 0.0056381087291824 0.00356567257905495 0.09697264936501954 4 0 0 0 0
1365 1 -0.01194989728783077 -0.001997021029972394 0.0974998897847966 4 0 0 0 0
1366 1 -0.008535601592952901 0.004779829375023897 0.09900780931336511 4 0 0 0 0
1367 1 0.01222980748858173 0.0005269478535423035 0.09918038640963328 4 0 0 0 0
1368 1 -0.009290030149995729 -0.002700321488039537 0.0990119179019895 4 0 0 0 0
1369 1 0.00812187871665538 0.004873087068713186 0.09949473205376351 4 0 0 0 0
1370 1 -0.003625655919932544 -0.011742590246167 0.09700316536109864 4 0 0 0 0
1371 1 0.01072325947341585 -0.005194836385032686 0.09952329417182199 4 0 0 0 0
1372 1 -0.0005988377473384967 -0.009377842631620127 0.09901911732115487 4 0 0 0 0
1373 1 -0.01164766887278918 -0.0004317256050120458 0.09700414352166084 4 0 0 0 0
1374 1 -0.002854448075781025 0.01097355644089869 0.09754836480049957 4 0 0 0 0
1375 1 -0.004014917553118435 -0.00703314291489405 0.09651383574029576 4 0 0 0 0
1376 1 0.007045320780477985 -0.00358883988106035 0.09950136538234147 4 0 0 0 0
1377 1 -0.01179016888775118 0.003632036837574158 0.09701881196691944 4 0 0 0 0
1378 1 -0.009042525843647524 -0.002038231653782023 0.09850736540972695 4 0 0 0 0
1379 1 -0.001747318009435159 -0.01025182062914368 0.09890353888749803 4 0 0 0 0
1380 1 -0.001681901410767966 -0.01155703559560459 0.09692812641362641 4 0 0 0 0
1381 1 0.004681309342315809 -0.003977140200422082 0.09738564789592213 4 0 0 0 0
1382 1 -9.946753211022482e-05 -0.0001375854997397276 0.09701705952490909 4 0 0 0 0
1383 1 -0.007016434024689653 -0.001732661016853564 0.09900363944845171 4 0 0 0 0
1384 1 -0.002299965897543655 0.006517197762433329 0.09716884483916996 4 0 0 0 0
1385 1 -0.0102737757342282 -0.001111836191090606 0.0990094284364612 4 0 0 0 0
1386 1 0.005241098561689481 -0.004805748243761556 0.09649989390527293 4 0 0 0 0
1387 1 -0.0085745232632858 -0.005650494016529978 0.09701115555923552 4 0 0 0 0
1388 1 0.000424128559294729 -0.008371483012634139 0.09952052280385722 4 0 0 0 0
1389 1 0.0003702487506527498 0.004827798372254099 0.09949063264282246 4 0 0 0 0
1390 1 0.004835014672033075 0.006628442141827626 0.09902080762192661 4 0 0 0 0
1391 1 -0.001426281580064313 0.01134560645811487 0.09653060739991977 4 0 0 0 0
1392 1 -0.0008751397837828203 -0.01023838954144564 0.09649859451729767 4 0 0 0 0
1393 1 0.001992895290788684 -0.0001071668927212696 0.09950032090309383 4 0 0 0 0
1394 1 0.006172169424310899 0.002245240724877822 0.096495075455945 4 0 0 0 0
1395 1 0.0116928400169504 -0.001644850184476843 0.09630697419237874 4 0 0 0 0
1396 1 0.005034142237728087 -0.002601282965681261 0.09645075324291152 4 0 0 0 0
1397 1 -0.002147490928211081 -0.01161144839428576 0.09842102443136175 4 0 0 0 0
1398 1 0.007094386293213227 -0.009797653550285701 0.09850999585767201 4 0 0 0 0
1399 1 0.002525643385534792 -0.008787151130421958 0.09946353925272036 4 0 0 0 0
1400 1 -0.003421135784537025 0.01132040252800211 0.09701775740057982 4 0 0 0 0
1401 1 0.005706812452809977 0.01016046745443363 0.09900096215875896 4 0 0 0 0
1402 1 0.0005740586751359129 -0.006441455960209532 0.09949915320925234 4 0 0 0 0
1403 1 0.0003291244736441015 0.007411381005331782 0.0976479069249396 4 0 0 0 0
1404 1 -0.004183278365211132 -0.001517458742097596 0.09652276598118187 4 0 0 0 0
1405 1 -0.008192599583229794 0.004857490930293648 0.09700780931336511 4 0 0 0 0
1406 1 0.003461261640564692 -0.01063558289684932 0.09951439018578291 4 0 0 0 0
1407 1 -0.004346135069321293 0.001974162170256674 0.09709983183134689 4 0 0 0 0
1408 1 0.01167612092999581 -0.004018570135254457 0.09699178555538911 4 0 0 0 0
1409 1 0.005501490962231429 0.004908855456981415 0.09698049935531344 4 0 0 0 0
1410 1 0.007555785442192563 -0.007033980961181545 0.09951706928215294 4 0 0 0 0
1411 1 -0.01011644261757571 0.005661589784501785 0.09898264412803603 4 0 0 0 0
1412 1 -0.007536729694292905 -0.007020973609143746 0.09949853287880771 4 0 0 0 0
1413 1 0.004406046668154376 0.007201781688377738 0.09849141194319869 4 0 0 0 0
1414 1 -0.001141158867667894 -0.009933724568888823 0.09680573886883746 4 0 0 0 0
1415 1 -0.006912536952038964 0.005650379489661999 0.09651724820569971 4 0 0 0 0
1416 1 0.008019691754906574 0.007680034440809235 0.0965029883784236 4 0 0 0 0
1417 1 -0.004083963432127052 -0.002061987345660224 0.09703593911210608 4 0 0 0 0
1418 1 0.01090460353127 -0.005807833743957478 0.09901651646526616 4 0 0 0 0
1419 1 -0.0008390502855007873 -0.001375330607170953 0.09848536649746269 4 0 0 0 0
1420 1 0.007128893990434541 0.006214651820411256 0.09900591382466249 4 0 0 0 0
1421 1 -0.008794705468369848 -0.005667164939228348 0.09901115555923552 4 0 0 0 0
1422 1 -0.002007640902300471 0.001545001892543671 0.09950351627623102 4 0 0 0 0
1423 1 -0.008013195880319542 0.002024586832454957 0.09650227229249897 4 0 0 0 0
1424 1 -0.004808241773500395 0.009385077514731787 0.09900958781512854 4 0 0 0 0
1425 1 0.008592614038671224 -0.006153821701074697 0.09951706928215294 4 0 0 0 0
1426 1 -0.005847804652105167 -0.00837043600025838 0.09948589730819168 4 0 0 0 0
1427 1 0.00410263652222188 -0.01100626290544606 0.09900761248693642 4 0 0 0 0
1428 1 0.0001931032584831507 -0.0123000568624131 0.09901452789569165 4 0 0 0 0
1429 1 0.01170299667146611 -0.0006510881041841364 0.09861962239600996 4 0 0 0 0
1430 1 -0.006233578829583913 0.003509781229209625 0.09948162725160478 4 0 0 0 0
1431 1 0.0003097642993874457 0.005456895488586627 0.09682122255316265 4 0 0 0 0
1432 1 0.003716932881867146 -0.004321885494171624 0.0964350007477377 4 0 0 0 0
1433 1 -0.006931348428419958 -0.006183840344239872 0.09694060067639106 4 0 0 0 0
1434 1 0.004844258807786548 0.01069727078179557 0.09697125807067559 4 0 0 0 0
1435 1 -0.003112490662869945 -0.01016823167017402 0.09640494437020039 4 0 0 0 0
1436 1 0.01199798097748393 -0.002178612639158117 0.09677546557594585 4 0 0 0 0
1437 1 0.006182673777613495 0.003423195739560611 0.096495075455945 4 0 0 0 0
1438 1 0.008587409029794152 0.008841997667585425 0.09898102339844439 4 0 0 0 0
1439 1 0.002041678455711426 0.005935794078360482 0.09948263992991351 4 0 0 0 0
1440 1 1.141683342086166e-05 0.003771384797260391 0.09858694345742031 4 0 0 0 0
1441 1 0.009072103309631829 0.003948254030665928 0.09699750673666974 4 0 0 0 0
1442 1 -0.008628514923682154 0.002950297978003383 0.09650227229249897 4 0 0 0 0
1443 1 0.002362426782070237 -0.008194077404408336 0.09646353925272036 4 0 0 0 0
1444 1 -0.003261991317543301 0.009591558155567259 0.098996044510464 4 0 0 0 0
1445 1 -0.002652942678328419 0.002569560473178978 0.09650351627623102 4 0 0 0 0
1446 1 0.008182851862746332 0.005983902585174682 0.09699772043218709 4 0 0 0 0
1447 1 0.01126444347883157 -0.003907533711172915 0.09952329417182199 4 0 0 0 0
1448 1 -0.001803155482816496 -0.009646402432960159 0.09840556247704518 4 0 0 0 0
1449 1 -0.004563253001404881 0.009801473458189726 0.09950752025725672 4 0 0 0 0
1450 1 0.0001570816288684801 0.01221501612941616 0.0990140458858859 4 0 0 0 0
1451 1 -0.0002380211486800166 0.01034067060055406 0.09951282788558735 4 0 0 0 0
1452 1 -0.005997269599655112 0.008658452154083913 0.09950206755787183 4 0 0 0 0
1453 1 0.0006172350640680508 0.01050470691932031 0.09634025211410752 4 0 0 0 0
1454 1 -0.004391818696637208 0.00101514556346862 0.0995294517765194 4 0 0 0 0
1455 1 -0.005557950572237839 -0.009820895819702455 0.09900907935161771 4 0 0 0 0
1456 1 -0.01149585455706759 -0.002422815844903342 0.09899354898672875 4 0 0 0 0
1457 1 0.005640703296329654 0.01021817031774528 0.09700096215875896 4 0 0 0 0
1458 1 0.0009637576906269469 0.00659658119656212 0.09633058991034021 4 0 0 0 0
1459 1 -0.01025173181969134 -0.005238552759426116 0.09951262268042783 4 0 0 0 0
1460 1 -0.007457423530600665 -0.00130856498984266 0.09949544750773746 4 0 0 0 0
1461 1 0.008278117979513203 -0.004029829159628266 0.09902420233414269 4 0 0 0 0
1462 1 0.007623544404466599 0.006208521556847119 0.0965029883784236 4 0 0 0 0
1463 1 -0.008400702989177885 -0.002124668136862811 0.09899573969685878 4 0 0 0 0
1464 1 -0.01080090641947077 0.005472234528710788 0.09849340556422317 4 0 0 0 0
1465 1 -0.005421159689773978 0.01109156268980151 0.09901656123471417 4 0 0 0 0
1466 1 -0.006265507139532755 0.005197314567249846 0.09901978188457522 4 0 0 0 0
1467 1 0.00303278519676285 0.00822190710647672 0.09647060432127208 4 0 0 0 0
1468 1 -8.874224734065195e-05 -0.005000971231651704 0.09652061673500328 4 0 0 0 0
1469 1 0.005451157932429495 0.01082928180382153 0.09849501344901386 4 0 0 0 0
1470 1 -0.01194989728783077 -0.001997021029972394 0.0984998897847966 4 0 0 0 0
1471 1 -0.01115403905644536 9.85095151738401e-05 0.09649780272359301 4 0 0 0 0
1472 1 -0.001670579218410708 -0.0005827346446231799 0.09947013309433295 4 0 0 0 0
1473 1 0.009224645859736749 -0.000201170822305963 0.09850653721203664 4 0 0 0 0
1474 1 -0.001909306563883486 0.006428817355991191 0.09666108310043273 4 0 0 0 0
1475 1 -0.002058846444373779 0.00601866567084814 0.09634103033697458 4 0 0 0 0
1476 1 0.005637250681152734 -0.001496331527295851 0.09949627099667514 4 0 0 0 0
1477 1 -0.005397910897381142 0.008767204073210216 0.09650206755787183 4 0 0 0 0
1478 1 0.003423964163570524 -0.01022528447072775 0.09651439018578291 4 0 0 0 0
1479 1 -0.004286698276069919 0.01106738698396086 0.09700043841616071 4 0 0 0 0
1480 1 0.003864888892679441 -0.003686646499651767 0.0964350007477377 4 0 0 0 0
1481 1 -0.001363463300165502 -0.01040069992528847 0.09949859451729767 4 0 0 0 0
1482 1 0.003983099456684125 0.01126391347578467 0.0964940512902549 4 0 0 0 0
1483 1 -0.007134018675369117 0.00139922632019218 0.09949377886745547 4 0 0 0 0
1484 1 -0.003754930831410836 -0.002943931661559786 0.09951317313092423 4 0 0 0 0
1485 1 -0.01080090641947077 0.005472234528710788 0.09749340556422317 4 0 0 0 0
1486 1 0.002153334454048856 -0.01140092524998119 0.09903248779014273 4 0 0 0 0
1487 1 0.007053374467587657 0.009958453531292783 0.09901569899365412 4 0 0 0 0
1488 1 0.003512266014446051 0.008836576272020296 0.09745339139652327 4 0 0 0 0
1489 1 0.004071749568807044 0.008703101102585859 0.0994772067804207 4 0 0 0 0
1490 1 -0.008707746859363156 -0.0007342970118967467 0.09949544750773746 4 0 0 0 0
1491 1 -0.001312446125984472 0.01186784496885886 0.09705332890853381 4 0 0 0 0
1492 1 0.005176217571768263 0.003892824597843746 0.09647757390907455 4 0 0 0 0
1493 1 -0.004593421711952677 -0.007832144428925875 0.09899973304848741 4 0 0 0 0
1494 1 -8.416124796267375e-05 -0.0105174112823609 0.09949859451729767 4 0 0 0 0
1495 1 0.0002465257809732377 0.01207611962463754 0.09649132437727186 4 0 0 0 0
1496 1 -0.01211034099970149 2.301854277337077e-05 0.09848041962442933 4 0 0 0 0
1497 1 0.003991338992737781 -0.01125481220921267 0.09649322230115351 4 0 0 0 0
1498 1 -0.005063671874700654 0.002857330474953195 0.09905200730643228 4 0 0 0 0
1499 1 0.0009352850675231221 0.003003348695206266 0.09650454339959059 4 0 0 0 0
1500 1 0.006711166036182898 0.007146105455387023 0.09702774531388753 4 0 0 0 0
1501 1 0.001829257096443866 -0.01200331294951284 0.09852383364240835 4 0 0 0 0
1502 1 -0.001400890885052444 -0.006844776608218733 0.09683006075078621 4 0 0 0 0
1503 1 0.0002478511286242795 -0.01208193439451242 0.09649134585226563 4 0 0 0 0
1504 1 -0.0001429345240853221 0.0007200515657542644 0.09950125721113834 4 0 0 0 0
1505 1 0.001736332277526451 0.009721958202192366 0.09684583240893802 4 0 0 0 0
1506 1 0.003959637469364687 0.005440160445042623 0.09949605068646269 4 0 0 0 0
1507 1 0.008562613294471269 0.002888445793185744 0.09950277468290625 4 0 0 0 0
1508 1 0.009414068296304255 0.004825645722580572 0.09949473205376351 4 0 0 0 0
1509 1 0.006489285351015495 -0.001387989900210274 0.09949627099667514 4 0 0 0 0
1510 1 0.00315116410992855 -0.01116863260439933 0.09903768437091408 4 0 0 0 0
1511 1 -0.006056827826884477 0.00103046150458653 0.09702323064397486 4 0 0 0 0
1512 1 0.006053584584060193 -0.001323983485584841 0.09649627099667514 4 0 0 0 0
1513 1 -0.01211034099970148 2.301854277337077e-05 0.09748041962442933 4 0 0 0 0
1514 1 -0.01007881120728074 -0.005177472390326032 0.09651262268042783 4 0 0 0 0
1515 1 -0.006247906484055262 0.001576235518275344 0.09750485789557964 4 0 0 0 0
1516 1 0.01186019067420922 1.856326771310297e-05 0.0965 4 0 0 0 0
1517 1 0.005117108358519373 0.009871033918421609 0.0994772067804207 4 0 0 0 0
1518 1 0.004690370891511978 -0.006628071997040489 0.09652750158723898 4 0 0 0 0
1519 1 0.007824547913959597 -0.004144977917332732 0.09650136538234147 4 0 0 0 0
1520 1 -0.0003402268815939902 0.0009424818285925409 0.09650125721113834 4 0 0 0 0
1521 1 -0.003940756196893122 0.01160919136495194 0.09751067555948383 4 0 0 0 0
1522 1 -0.01067439800500308 -0.004963816259503088 0.09703637804974734 4 0 0 0 0
1523 1 -0.002799931970786196 0.01093938059486508 0.09854836480049957 4 0 0 0 0
1524 1 0.008340525617289398 -0.005927331774061508 0.09651706928215294 4 0 0 0 0
1525 1 -0.005621499975745518 -0.002148561035297041 0.09950819194071425 4 0 0 0 0
1526 1 -0.005714410706499085 0.002845102341102833 0.09948162725160478 4 0 0 0 0
1527 1 -0.002831633728205049 0.009113172039102611 0.0994885242532073 4 0 0 0 0
1528 1 0.01173651835104814 -0.0005112768264134811 0.09731432037889251 4 0 0 0 0
1529 1 -0.003155905560417898 0.003021264718855149 0.09858820174502261 4 0 0 0 0
1530 1 -0.01161671118335767 0.0005532536629592566 0.09697407882636148 4 0 0 0 0
1531 1 0.005849490524674703 0.004720421821479812 0.0995029254462389 4 0 0 0 0
1532 1 0.000919618712818345 -0.002955126618771906 0.09649885902226199 4 0 0 0 0
1533 1 -0.01008485742644791 -0.0005242518092277815 0.09949780272359302 4 0 0 0 0
1534 1 -0.007950334692986588 0.004769596142078405 0.09951724820569971 4 0 0 0 0
1535 1 -0.0009980281401216842 -0.007920250017422782 0.09952052280385722 4 0 0 0 0
1536 1 0.01182880539180591 -0.003591060997597711 0.09899178555538909 4 0 0 0 0
1537 1 0.00486145383813889 0.01053984826780952 0.0989712580706756 4 0 0 0 0
1538 1 -3.932216093523248e-06 0.005030692624155436 0.09649063264282245 4 0 0 0 0
1539 1 -0.008687380839790581 0.00493672976535986 0.09649056110766541 4 0 0 0 0
1540 1 0.004128425841877167 0.005926109634927373 0.09649605068646269 4 0 0 0 0
1541 1 -0.003725766579986318 0.01082339393203943 0.09950752025725672 4 0 0 0 0
1542 1 -0.00488275613672937 0.004965650785082137 0.09950253367887553 4 0 0 0 0
1543 1 -0.006638120545468533 0.007694274634190956 0.09649712210158934 4 0 0 0 0
1544 1 -0.009741864302684665 -0.002284104394695051 0.09651162571286818 4 0 0 0 0
1545 1 -0.001974976472060579 0.01109388180724728 0.09653060739991977 4 0 0 0 0
1546 1 0.01210229717641055 0.0006679424051720505 0.09807545638665105 4 0 0 0 0
1547 1 -0.0007602671687220661 -0.007475996801095276 0.09766153325053378 4 0 0 0 0
1548 1 0.005156344347218273 0.008403700076078477 0.09900196371588463 4 0 0 0 0
1549 1 -0.005039841295835302 0.003047844708939939 0.09705200730643228 4 0 0 0 0
1550 1 -0.00267585796856726 0.01004831406463737 0.09852665191038375 4 0 0 0 0
1551 1 -0.01175170885835484 -0.003609989631621353 0.09900567864318009 4 0 0 0 0
1552 1 -0.00547356594694857 -0.001501163059808082 0.09650819194071425 4 0 0 0 0
1553 1 0.001912797215191716 0.0121725415931912 0.09701461854909382 4 0 0 0 0
1554 1 0.004165492520534577 -0.007495618949874524 0.09952750158723898 4 0 0 0 0
1555 1 0.003288500611099574 -0.00194984591290817 0.09950625150267978 4 0 0 0 0
1556 1 -0.01077630904663619 -0.005026161008143518 0.09903637804974734 4 0 0 0 0
1557 1 -0.003205552209854289 0.00228468028957289 0.09907389633105852 4 0 0 0 0
1558 1 -0.009876652070711322 -0.002551315957358755 0.09951162571286819 4 0 0 0 0
1559 1 -0.004608570619753185 -0.003070236678522822 0.09951317313092423 4 0 0 0 0
1560 1 -0.003366619679542195 0.01128622668196851 0.09901775740057982 4 0 0 0 0
1561 1 -0.003582100189545105 0.01001845342667854 0.09650752025725672 4 0 0 0 0
1562 1 0.005451157932429495 0.01082928180382153 0.09749501344901385 4 0 0 0 0
1563 1 0.002790932893283621 -0.007936836080245219 0.09946353925272036 4 0 0 0 0
1564 1 -0.004377026836013679 0.003209693410189255 0.0965703800548275 4 0 0 0 0
1565 1 0.004929589818446429 0.0007755515327320314 0.0965068908895529 4 0 0 0 0
1566 1 -0.002127226500846426 -0.01109281717198333 0.09640494437020039 4 0 0 0 0
1567 1 0.001913953007595685 -0.01217401925170307 0.09701464003739679 4 0 0 0 0
1568 1 0.009830397857159542 -0.003584351263327597 0.09652283695180122 4 0 0 0 0
1569 1 0.002398433845901072 0.01174323898879922 0.09652329417182196 4 0 0 0 0
1570 1 0.008927300158115492 -0.002537320563692836 0.09902059074571878 4 0 0 0 0
1571 1 0.005345351406977277 -0.004644231990087353 0.09949989390527293 4 0 0 0 0
1572 1 0.0007893159304779388 -0.007430947377463221 0.09631094969589038 4 0 0 0 0
1573 1 0.002846134994908131 1.890953328574567e-05 0.09950032090309383 4 0 0 0 0
1574 1 -0.008023833430077789 0.002461679657487143 0.09950227229249897 4 0 0 0 0
1575 1 0.000685678222612991 -0.005132167293324071 0.09952061673500329 4 0 0 0 0
1576 1 0.008287630569088201 0.0002873383297689799 0.09650143723160531 4 0 0 0 0
1577 1 0.0006249113301924527 0.005700890910027312 0.09633058991034021 4 0 0 0 0
1578 1 -0.00252581955234827 0.007503155952519602 0.09632005276345816 4 0 0 0 0
1579 1 -0.002353160272214725 0.01153819720018172 0.09704084454324287 4 0 0 0 0
1580 1 0.005452047239099258 0.006852521922109507 0.09952475693546395 4 0 0 0 0
1581 1 0.002401547649590207 -0.01174285619126868 0.09652329418513117 4 0 0 0 0
1582 1 -0.005022741733051934 0.002107928027005617 0.09858145908295166 4 0 0 0 0
1583 1 -0.00257294022744661 0.004796126667923614 0.09685533575093869 4 0 0 0 0
1584 1 -0.001975247169314611 0.01030133517301892 0.09653060739991977 4 0 0 0 0
1585 1 -0.007916491854690635 -0.001802733186031233 0.09649544750773746 4 0 0 0 0
1586 1 -0.0001718576678472598 -0.00434763247927879 0.09652061673500328 4 0 0 0 0
1587 1 0.001621091296708067 0.007913762568801675 0.09950926237024854 4 0 0 0 0
1588 1 -0.008540415362103102 -0.003276800286743748 0.09650029218912133 4 0 0 0 0
1589 1 -0.004822775754380088 -0.009182002834317051 0.09948589730819168 4 0 0 0 0
1590 1 -0.002064032811457304 -0.01197107636252543 0.09742102443136175 4 0 0 0 0
1591 1 0.003792538991585739 -0.01153931261299606 0.09853090667206758 4 0 0 0 0
1592 1 0.006159358527719382 0.007219852961700796 0.09652475693546395 4 0 0 0 0
1593 1 -0.002720107007780654 -0.005556564848228286 0.09951103660153955 4 0 0 0 0
1594 1 0.005029109927894688 0.005212797746098027 0.09847655004177611 4 0 0 0 0
1595 1 0.003487837215732606 0.007401299204537682 0.09947060432127208 4 0 0 0 0
1596 1 -0.0003125000000000032 0.008390670054886364 0.09632019270909731 4 0 0 0 0
1597 1 -0.007118949197018163 -0.0008534758138370421 0.09649544750773746 4 0 0 0 0
1598 1 0.004644394437372523 0.004306774462194648 0.09947757390907455 4 0 0 0 0
1599 1 -0.0004930594594673243 0.002806027983020524 0.09959176741500728 4 0 0 0 0
1600 1 -0.008471703448970422 -0.0006750937551988514 0.09649544750773746 4 0 0 0 0
1601 1 0.0008304848999959024 0.002844096855907303 0.0995045433995906 4 0 0 0 0
1602 1 -0.005847789205416864 -0.006242126083045174 0.09944206779758337 4 0 0 0 0
1603 1 -0.0007446854315879907 -0.01075233477288143 0.09649859451729767 4 0 0 0 0
1604 1 -0.000898662418185435 -0.008999999999999994 0.09630714435153982 4 0 0 0 0
1605 1 -0.003901353444836986 -0.0007786840425599312 0.09652276598118187 4 0 0 0 0
1606 1 0.006509553881196169 0.006694157589599695 0.09853067076012642 4 0 0 0 0
1607 1 -0.002543840503157441 0.0022211209600269 0.09950351627623102 4 0 0 0 0
1608 1 0.006422872650192603 0.003417010248639906 0.09949507545594501 4 0 0 0 0
1609 1 -0.004493424621262242 -0.003275462636380013 0.09651317313092422 4 0 0 0 0
1610 1 -0.001768673769780429 0.006916283208389121 0.09632005276345816 4 0 0 0 0
1611 1 0.003088052407636162 0.003111735495198035 0.09951483683375199 4 0 0 0 0
1612 1 -0.003103502014220516 0.006249745027213943 0.09950776173873725 4 0 0 0 0
1613 1 -0.009128811702441838 0.00160147739189614 0.09950227229249897 4 0 0 0 0
1614 1 -0.002953334200568329 0.004321277239670023 0.09651430541396411 4 0 0 0 0
1615 1 0.009303736648617703 -0.003068442166711344 0.09652283695180122 4 0 0 0 0
1616 1 0.00518622179808386 0.0004850419504883454 0.0995068908895529 4 0 0 0 0
1617 1 0.003672294567787241 0.01177599708737442 0.09701734546207685 4 0 0 0 0
1618 1 0.001609160054977638 -0.003048850030552304 0.09949885902226199 4 0 0 0 0
1619 1 -0.008301672061601555 -0.006171945009731245 0.09649853287880771 4 0 0 0 0
1620 1 0.00389919400823337 0.009531392208405307 0.0964772067804207 4 0 0 0 0
1621 1 0.01222672082391062 0.000600863636483759 0.096887723790504 4 0 0 0 0
1622 1 -0.006029816924704012 -0.004332545804662937 0.09650823429143372 4 0 0 0 0
1623 1 0.009800670265977446 0.00350197949334688 0.09950277468290625 4 0 0 0 0
1624 1 0.00367345033272529 -0.01177446747227046 0.09701651648628468 4 0 0 0 0
1625 1 -0.0006900699964781207 -0.009993571576798725 0.09949859451729767 4 0 0 0 0
1626 1 0.006128155159894802 0.002628651491751175 0.09949507545594501 4 0 0 0 0
1627 1 -0.008114981616297146 -0.003485532759299482 0.09950029218912133 4 0 0 0 0
1628 1 -0.001249421072235552 -0.002536802144607542 0.09949943108935899 4 0 0 0 0
1629 1 0.006388242393160241 0.007991553888184818 0.09952475693546395 4 0 0 0 0
1630 1 0.007111998319981125 -0.004310014817599309 0.09650136538234147 4 0 0 0 0
1631 1 -0.001657202339890727 -0.008629921721864275 0.09630714435153982 4 0 0 0 0
1632 1 -0.007578848454756058 -0.006428325615423877 0.09649853287880771 4 0 0 0 0
1633 1 -0.008648207295526088 -0.002786757971120326 0.09950029218912133 4 0 0 0 0
1634 1 -0.007819852255607085 0.001536637012705275 0.09699605115995441 4 0 0 0 0
1635 1 -0.002894584441010536 0.004232288649328756 0.09951430541396411 4 0 0 0 0
1636 1 -0.01024331810090622 -0.005798031459973592 0.09700531164140057 4 0 0 0 0
1637 1 -0.00937364741937745 -0.004753317188277562 0.09651262268042783 4 0 0 0 0
1638 1 0.006929644465957979 0.005624706196285656 0.0995029254462389 4 0 0 0 0
1639 1 -0.009360156461816226 0.003904845671208533 0.09649056110766541 4 0 0 0 0
1640 1 -0.004997482611957673 -0.008388586977454645 0.09948589730819168 4 0 0 0 0
1641 1 -0.002252381339473132 0.002027495401848034 0.09650351627623102 4 0 0 0 0
1642 1 0.008720066970585215 0.004426126851551369 0.09649473205376351 4 0 0 0 0
1643 1 -0.006734929345365164 0.005584600957455127 0.09951724820569971 4 0 0 0 0
1644 1 0.01192539900006466 0.002208274883070221 0.09691783132059034 4 0 0 0 0
1645 1 -0.004793652568099632 0.001137155544961641 0.09652945177651939 4 0 0 0 0
1646 1 0.00896425162795908 -0.004010362862918394 0.09952283695180122 4 0 0 0 0
1647 1 0.01226266472666634 -0.0006302160578461422 0.09911227620949623 4 0 0 0 0
1648 1 -0.001794131908621063 0.01122349325097045 0.09953060739991977 4 0 0 0 0
1649 1 0.0100530674664048 -0.003096525089232297 0.09952283695180122 4 0 0 0 0
1650 1 -0.005367954074124757 0.00496637525741527 0.09650253367887553 4 0 0 0 0
1651 1 -0.004282131800690502 0.001411118647330208 0.09652945177651939 4 0 0 0 0
1652 1 -0.002298644167219895 0.01150402135414811 0.09904084454324287 4 0 0 0 0
1653 1 0.004242275111498078 0.006272701048886493 0.09949605068646269 4 0 0 0 0
1654 1 -0.0001522186749504447 0.01239938873705413 0.0970140458858859 4 0 0 0 0
1655 1 0.008528591045897097 -0.001995203585791408 0.09949775379391758 4 0 0 0 0
1656 1 0.0002846531141919625 -0.001235180651057673 0.09951580231377077 4 0 0 0 0
1657 1 0.005918212720676552 0.008016789760542984 0.09652475693546395 4 0 0 0 0
1658 1 0.01156077899300106 0.001692757538738239 0.096387723790504 4 0 0 0 0
1659 1 -0.002510171539316428 0.005199246843150505 0.09634103033697458 4 0 0 0 0
1660 1 0.00668114425631506 0.005206266582740354 0.0965029254462389 4 0 0 0 0
1661 1 0.0004485328878880936 -0.001453851904166141 0.09651580231377077 4 0 0 0 0
1662 1 -0.01013839684548956 -0.001738527104190967 0.09651162571286818 4 0 0 0 0
1663 1 0.007440808738362413 -0.006842353971110967 0.09651706928215294 4 0 0 0 0
1664 1 0.01210304850074951 -0.0007017293363845371 0.0979265965883887 4 0 0 0 0
1665 1 -0.002541734844060401 -0.007481718350327214 0.09634101981475532 4 0 0 0 0
1666 1 -0.000150748971234222 -0.01240498496004348 0.09701452789569165 4 0 0 0 0
1667 1 0.002174799607766854 0.009230217199967271 0.09950558029483053 4 0 0 0 0
1668 1 -0.006779037243985032 0.007547657564327967 0.09949712210158934 4 0 0 0 0
1669 1 -0.002509357901535764 -0.01150685793890418 0.09689784238793572 4 0 0 0 0
1670 1 -0.003886323681197103 -0.000917273141179 0.09952276598118187 4 0 0 0 0
1671 1 -0.001778944945988533 -0.006925895966163592 0.09634101981475532 4 0 0 0 0
1672 1 -0.001776121406213956 -0.009985186916483788 0.0967120887217402 4 0 0 0 0
1673 1 -0.005719362633732392 0.004827903282758363 0.09950253367887553 4 0 0 0 0
1674 1 -0.001665729050945135 0.007821377555917738 0.09632005276345816 4 0 0 0 0
1675 1 -0.006866847703933619 0.002746486575385372 0.09648162725160478 4 0 0 0 0
1676 1 0.01012156697125245 -0.0004277679386324786 0.09650734618651377 4 0 0 0 0
1677 1 -0.01031432767168371 -0.005796767080433246 0.09900531164140057 4 0 0 0 0
1678 1 0.001099812058711762 -0.007101211116944317 0.09949915320925234 4 0 0 0 0
1679 1 0.0001264371399151591 0.006459639650238243 0.09633058991034021 4 0 0 0 0
1680 1 -0.004299903097337245 0.01114635861502287 0.0990004384161607 4 0 0 0 0
1681 1 -0.005383762503804869 -0.008791962740226464 0.09648589730819168 4 0 0 0 0
1682 1 0.001977941248019347 0.01061188536468664 0.09634025211410752 4 0 0 0 0
1683 1 -0.007286989234026932 0.00746384386113982 0.09649712210158934 4 0 0 0 0
1684 1 -0.0007423216768927593 -0.002315016956550919 0.09649943108935899 4 0 0 0 0
1685 1 -0.004024561631647298 -0.002666311719448035 0.09651317313092422 4 0 0 0 0
1686 1 -0.006462752626047299 -0.002248348353678589 0.09950819194071425 4 0 0 0 0
1687 1 -0.005244713550271207 0.0008879012564247781 0.0995294517765194 4 0 0 0 0
1688 1 -0.005517519226715364 0.001465322583665571 0.09652945177651939 4 0 0 0 0
1689 1 0.0001493253364229827 -0.004455878572846844 0.09952061673500329 4 0 0 0 0
1690 1 -0.005048734493901207 0.002245973081576921 0.09758145908295167 4 0 0 0 0
1691 1 0.01229618640624836 -0.0004904047800754868 0.09680697419237874 4 0 0 0 0
1692 1 0.005962714122145625 0.005402809790356639 0.0965029254462389 4 0 0 0 0
1693 1 0.001321365583481807 0.01192718157393791 0.09649132437727186 4 0 0 0 0
1694 1 -0.003937979836531752 0.002619361311516877 0.0965703800548275 4 0 0 0 0
1695 1 0.003561766443987989 0.00448101790551035 0.09637090986742029 4 0 0 0 0
1696 1 0.00339191208568892 0.007706986174587175 0.09647060432127208 4 0 0 0 0
1697 1 -0.003850460020808253 0.002263987718975653 0.0995703800548275 4 0 0 0 0
1698 1 -0.01083890489862856 -0.005584375329150648 0.09752906701072007 4 0 0 0 0
1699 1 -0.002441637473983092 -0.008177765481662486 0.09950202358954717 4 0 0 0 0
1700 1 0.001322745173923182 -0.01192889775007863 0.09649134585226563 4 0 0 0 0
1701 1 -0.00333042478962966 -0.00697873023646916 0.09951383574029576 4 0 0 0 0
1702 1 -0.007430001656024938 0.0006285179190691919 0.09949377886745547 4 0 0 0 0
1703 1 -0.002227650286873295 -0.0009629935824577655 0.09647013309433294 4 0 0 0 0
1704 1 0.00644131500719448 0.002856245463346281 0.096495075455945 4 0 0 0 0
1705 1 -0.001396842928394188 0.01178064268174139 0.09905332890853381 4 0 0 0 0
1706 1 -0.00152494523905727 -0.01180757254320144 0.09952318204342606 4 0 0 0 0
1707 1 -0.003940756196893122 0.01160919136495194 0.09851067555948383 4 0 0 0 0
1708 1 -0.006009554277594064 -0.001716056239173199 0.09650819194071425 4 0 0 0 0
1709 1 -0.004882992525772314 0.006903686989111774 0.09949756168603889 4 0 0 0 0
1710 1 -0.007805539361461651 -0.001117035493440448 0.09649544750773746 4 0 0 0 0
1711 1 0.01179360085519749 0.002803027400839942 0.09653010753008634 4 0 0 0 0
1712 1 -0.002362986442225014 -0.01009845343994476 0.09940494437020039 4 0 0 0 0
1713 1 2.895875442697791e-06 -0.007285522648287347 0.09631094969589038 4 0 0 0 0
1714 1 -0.006169048246635051 -0.002522269698916443 0.09650819194071425 4 0 0 0 0
1715 1 0.00483196034112317 0.008923767702613591 0.0994772067804207 4 0 0 0 0
1716 1 -0.00570859788388615 0.002011096597354385 0.09701107902812417 4 0 0 0 0
1717 1 -0.001901355186993019 0.01206117078491906 0.09756356605185691 4 0 0 0 0
1718 1 -0.00325631002792278 -0.004880441618541153 0.09951103660153955 4 0 0 0 0
1719 1 0.002552454886515686 -7.48340612641169e-05 0.09650032090309382 4 0 0 0 0
1720 1 -0.00615712700659913 -0.004284994418522376 0.09950823429143373 4 0 0 0 0
1721 1 -0.01035662931251431 0.006365940894049398 0.09949208302037063 4 0 0 0 0
1722 1 -0.001234564912834973 -0.002594606130890802 0.09649943108935899 4 0 0 0 0
1723 1 0.004503415818097814 -0.00674506764007173 0.09952750158723898 4 0 0 0 0
1724 1 0.0002457069058918893 0.009749898534034617 0.09951282788558735 4 0 0 0 0
1725 1 -0.009345699662765055 0.004626258852425662 0.09649056110766541 4 0 0 0 0
1726 1 -0.005657692997584883 -0.01043828672836739 0.09952318204342603 4 0 0 0 0
1727 1 0.008644881876259343 -0.001445493760873628 0.09649775379391758 4 0 0 0 0
1728 1 0.008552747541230117 0.0008311998203184358 0.09950143723160532 4 0 0 0 0
1729 1 -0.002418823915606352 -0.009493035243761246 0.09890696795974754 4 0 0 0 0
1730 1 -0.00969249598596547 -0.004751856671194526 0.09951262268042783 4 0 0 0 0
1731 1 0.00884316167318704 -0.001236930134954071 0.09949775379391758 4 0 0 0 0
1732 1 -0.01083890489862856 -0.005584375329150648 0.09852906701072009 4 0 0 0 0
1733 1 -0.002060955041362318 -0.01216609789511575 0.09901608006116137 4 0 0 0 0
1734 1 0.008672644251133871 0.00569444964834056 0.09649473205376351 4 0 0 0 0
1735 1 0.007563917239993839 -0.004272389854903232 0.09950136538234147 4 0 0 0 0
1736 1 -0.005463100164210958 -0.01105699256306347 0.09903344938678935 4 0 0 0 0
1737 1 -0.007544300775441718 0.00744215281115055 0.09949712210158934 4 0 0 0 0
1738 1 0.0076154601229591 -0.00607310061580056 0.09651706928215294 4 0 0 0 0
1739 1 -0.005181717919409089 0.008767835747842328 0.09950206755787183 4 0 0 0 0
1740 1 0.004706970916853343 0.01119952667877015 0.0994940512902549 4 0 0 0 0
1741 1 0.001201624330354916 -0.01034146452748041 0.09950919360501156 4 0 0 0 0
1742 1 0.00168518688717343 -0.002740891321680013 0.09649885902226199 4 0 0 0 0
1743 1 0.007544404119423387 0.007374901867150079 0.0995029883784236 4 0 0 0 0
1744 1 -0.00164198502316531 -0.0004713659120696817 0.09647013309433294 4 0 0 0 0
1745 1 -0.007818708912437543 -0.006344914204026835 0.09949853287880771 4 0 0 0 0
1746 1 -0.0023153427008818 -0.009293792390259417 0.09721411231128735 4 0 0 0 0
1747 1 -0.001442821409799869 -0.01012939688097415 0.09721068323903784 4 0 0 0 0
1748 1 0.009066396096579023 0.005052352358878677 0.09649473205376351 4 0 0 0 0
1749 1 0.009311532127458656 -0.007871117835735214 0.09650595722858653 4 0 0 0 0
1750 1 -0.006330631252130818 0.000681159133624091 0.09649377886745547 4 0 0 0 0
1751 1 -0.009100591358580417 -0.005030474678087222 0.09951262268042783 4 0 0 0 0
1752 1 -0.002034075928083862 -0.008283148164359159 0.09715018775584228 4 0 0 0 0
1753 1 -0.0004357322138965887 -0.008621686813999803 0.09952052280385722 4 0 0 0 0
1754 1 -0.0082548423126738 -0.001408317876840359 0.09949544750773746 4 0 0 0 0
1755 1 0.006165875056347756 0.005567075579300066 0.0995029254462389 4 0 0 0 0
1756 1 0.003380088942343761 -0.009781225741818098 0.09951439018578291 4 0 0 0 0
1757 1 -0.004386661703229137 0.002940109463535615 0.0995703800548275 4 0 0 0 0
1758 1 -0.002865331875975895 0.01185086744125154 0.0995102371433231 4 0 0 0 0
1759 1 0.006392477255282779 -0.01041860820052896 0.09650595722858651 4 0 0 0 0
1760 1 0.007936522654263842 0.009203846423183119 0.09649194361531585 4 0 0 0 0
1761 1 -0.007942492553129569 -0.00928214994710861 0.09949266215156467 4 0 0 0 0
1762 1 -0.005537570460076621 -0.006460994681226117 0.09644206779758337 4 0 0 0 0
1763 1 0.007686714821169179 0.006676185879553797 0.0995029883784236 4 0 0 0 0
1764 1 0.008807434530585684 0.005141839138332483 0.09949473205376351 4 0 0 0 0
1765 1 0.00785442617178631 -0.006255510060889013 0.09951706928215294 4 0 0 0 0
1766 1 -0.001602724431352752 -0.009364889742700624 0.09630714435153982 4 0 0 0 0
1767 1 -0.001583616163069572 -0.008382049105546401 0.09767071055969948 4 0 0 0 0
1768 1 -0.01177492581906263 0.002806311925950203 0.09950805053073228 4 0 0 0 0
1769 1 0.007936861826243181 -0.009246559917560841 0.09649241417986368 4 0 0 0 0
1770 1 0.006046260356022464 -0.008264252813618984 0.09651162444922182 4 0 0 0 0
1771 1 -0.009218179968159655 0.004476772530690273 0.09949056110766541 4 0 0 0 0
1772 1 -0.01217878861815257 -0.0009501397499153087 0.09650634079806783 4 0 0 0 0
1773 1 0.007948419502514356 -0.009306982452293305 0.09949241417986368 4 0 0 0 0
1774 1 0.0009028686843071222 0.01218571407620304 0.09949132437727186 4 0 0 0 0
1775 1 -0.002542013775210747 -0.01005324999585581 0.09640494437020039 4 0 0 0 0
1776 1 0.0001638933343003574 0.008281936385089339 0.09632019270909731 4 0 0 0 0
1777 1 0.002965593811938492 0.00468899612760426 0.09637090986742029 4 0 0 0 0
1778 1 -0.01051077250109452 8.945222757662216e-05 0.09949780272359302 4 0 0 0 0
1779 1 0.01045520623330539 9.559007177895173e-05 0.09650734618651377 4 0 0 0 0
1780 1 -0.00190135518699302 0.01206117078491906 0.09856356605185691 4 0 0 0 0
1781 1 -0.0007854588556455418 -0.006517694551728407 0.09948904093603091 4 0 0 0 0
1782 1 -0.0103802677561326 -0.00180703395134201 0.09951162571286819 4 0 0 0 0
1783 1 0.009428864782171252 0.00287141255965935 0.09950277468290625 4 0 0 0 0
1784 1 0.005979357269408994 -0.008440354572857269 0.09951162444922182 4 0 0 0 0
1785 1 0.01043222309727425 -8.194661643542932e-05 0.09950734618651377 4 0 0 0 0
1786 1 0.008406182253662214 0.0009532255871334104 0.09650143723160531 4 0 0 0 0
1787 1 0.006371309593932252 0.01042687324660926 0.09652375537833827 4 0 0 0 0
1788 1 0.002792043122569651 -0.01180564921732186 0.09952329418513117 4 0 0 0 0
1789 1 -0.008673565304445232 0.002289686690052456 0.09650227229249897 4 0 0 0 0
1790 1 0.009331139630086192 0.007884772642520816 0.09648907978312854 4 0 0 0 0
1791 1 -0.01132771298324185 -0.004670612573922563 0.09652375536931951 4 0 0 0 0
1792 1 -0.00374521222020636 0.01001979193586589 0.09950752025725672 4 0 0 0 0
1793 1 0.009019572225267889 0.002631809588964918 0.09650277468290624 4 0 0 0 0
1794 1 -0.002919847980970724 0.01188504328728514 0.0965102371433231 4 0 0 0 0
1795 1 -0.009321420187501905 -0.007969063395666526 0.09650518505054492 4 0 0 0 0
1796 1 0.006351499157575052 -0.01045194169096801 0.09950595722858652 4 0 0 0 0
1797 1 -0.009321419045853922 0.007968660129859455 0.09650518505054492 4 0 0 0 0
1798 1 -0.005886591478667673 -0.005957167928654141 0.09644206779758337 4 0 0 0 0
1799 1 -0.001494532050965699 0.01049282475934194 0.09953060739991977 4 0 0 0 0
1800 1 0.009289058415413979 -0.003231203015235812 0.09952283695180122 4 0 0 0 0
1801 1 -0.0113451998247869 0.004673074872129482 0.09651076143618714 4 0 0 0 0
1802 1 -0.001029259567719023 0.00348214771231285 0.09959176741500728 4 0 0 0 0
1803 1 0.009344999175345283 0.007967169333738214 0.09948907978312854 4 0 0 0 0
1804 1 -0.01044564594308406 0.006389981936528405 0.09649208302037063 4 0 0 0 0
1805 1 -0.00688605222296328 0.0005131804977510708 0.09649377886745547 4 0 0 0 0
1806 1 0.00567403242090251 0.007756293478938563 0.09952475693546395 4 0 0 0 0
1807 1 0.002829188536741824 0.01183325015150555 0.09952329417182199 4 0 0 0 0
1808 1 -0.007639963741148687 0.005525564730122727 0.09951724820569971 4 0 0 0 0
1809 1 0.009414898623017056 0.003242956553637159 0.09650277468290624 4 0 0 0 0
1810 1 -0.01044565759704832 -0.00638991699328121 0.09649268896097274 4 0 0 0 0
1811 1 -0.006427200701995308 -0.01048739223616934 0.09652318204342603 4 0 0 0 0
1812 1 -0.006429933747882972 0.0104834398245151 0.09652364307581016 4 0 0 0 0
1813 1 -0.01214783092872106 0.001028198371061463 0.09647627610276849 4 0 0 0 0
1814 1 -0.009330985257415644 -0.007955118747033156 0.09950518505054493 4 0 0 0 0
1815 1 0.01183439780059393 -0.001792235802207959 0.09961227620949623 4 0 0 0 0
1816 1 -0.006375936818772144 -0.01041947885199823 0.09952318204342603 4 0 0 0 0
1817 1 0.00454240640103447 0.009419833071984528 0.0964772067804207 4 0 0 0 0
1818 1 -0.005689359002050792 0.003283729933387106 0.09648162725160478 4 0 0 0 0
1819 1 -0.007984838754573908 0.009338494146077658 0.09949268370068631 4 0 0 0 0
1820 1 0.01185627144487558 -0.002865260745623006 0.09646849138356711 4 0 0 0 0
1821 1 0.01047575660134147 -0.006348736530254064 0.09649322229344418 4 0 0 0 0
1822 1 -0.01223646947473167 0.0009483013095130394 0.09947627610276849 4 0 0 0 0
1823 1 -0.004712199694001743 -0.01137613223205463 0.09651026734336329 4 0 0 0 0
1824 1 0.004688255945033307 -0.01133631475127709 0.09949322230115351 4 0 0 0 0
1825 1 -0.004184065836254362 -0.007105033845033263 0.09951383574029576 4 0 0 0 0
1826 1 0.006437418750412574 0.01036917038329761 0.09952375537833827 4 0 0 0 0
1827 1 -0.008871738212976855 0.002390320603988509 0.09950227229249897 4 0 0 0 0
1828 1 0.009363962605597595 -0.007935992721783029 0.09950595722858653 4 0 0 0 0
1829 1 0.0009385503502021223 -0.01227072807184503 0.09949134585226563 4 0 0 0 0
1830 1 -0.007517355619810574 0.000971938780570324 0.09649377886745547 4 0 0 0 0
1831 1 0.004696047074409656 -0.0113497091957693 0.09649322230115351 4 0 0 0 0
1832 1 0.000545931126161707 0.008586601357646158 0.09632019270909731 4 0 0 0 0
1833 1 0.01127868784792938 0.004706932956005696 0.09649301745593264 4 0 0 0 0
1834 1 -0.01190114780980913 -0.002856567002917382 0.09648192327386057 4 0 0 0 0
1835 1 -0.007961663021752639 -0.009351676616682691 0.09649266215156466 4 0 0 0 0
1836 1 -0.0009448076958007629 -0.01220629003005156 0.09952318204342606 4 0 0 0 0
1837 1 -0.004730150882673948 0.0113250629761524 0.09649291815890398 4 0 0 0 0
1838 1 -0.01199277783449932 0.002913657785290662 0.09650805053073228 4 0 0 0 0
1839 1 0.0074206726406752 0.006960101334994894 0.0965029883784236 4 0 0 0 0
1840 1 -0.00796226236332734 0.00935183614058218 0.09649268370068631 4 0 0 0 0
1841 1 0.01049462548284941 0.006397010686118904 0.09950730739691667 4 0 0 0 0
1842 1 -0.01051666716782581 -0.006388652613740864 0.09949268896097276 4 0 0 0 0
1843 1 0.008039139551678613 0.009348861757437297 0.09949194361531585 4 0 0 0 0
1844 1 -0.01033714488219573 9.850951517385978e-05 0.09649780272359301 4 0 0 0 0
1845 1 0.01049811158178321 0.006428751303791084 0.09650730739691665 4 0 0 0 0
1846 1 0.01140140327294887 0.004739335180919358 0.09949301745593264 4 0 0 0 0
1847 1 0.001324595850399536 0.009836182636987632 0.09634025211410752 4 0 0 0 0
1848 1 0.004689775886501 0.01135694919275621 0.0964940512902549 4 0 0 0 0
1849 1 0.0005594289773593634 0.006262292612244213 0.09633058991034021 4 0 0 0 0
1850 1 0.002955560406959183 -0.01197687385641911 0.09652329418513117 4 0 0 0 0
1851 1 0.002953620249197044 0.01197872835939259 0.09652329417182196 4 0 0 0 0
1852 1 0.01141505324935745 -0.004730303587846324 0.09652329417182198 4 0 0 0 0
1853 1 -0.01130750317013869 0.004683766370256104 0.09951076143618715 4 0 0 0 0
1854 1 -0.00199708101600914 -0.00740313466073216 0.09634101981475532 4 0 0 0 0
1855 1 0.0003208340436933259 -0.007580526157112851 0.09631094969589038 4 0 0 0 0
1856 1 -0.002907271545324727 -0.01194520139758173 0.09649289801773533 4 0 0 0 0
1857 1 -0.01195421870781009 -0.002891849840064309 0.0994819232738606 4 0 0 0 0
1858 1 -0.004743355703941274 0.0114040346072144 0.09949291815890399 4 0 0 0 0
1859 1 -0.0008980048776000121 0.01237008661672517 0.09652272150861405 4 0 0 0 0
1860 1 -0.0008965455107436144 -0.01237568365325721 0.09652318204342603 4 0 0 0 0
1861 1 -0.01224956153607678 -0.0009547893958474378 0.09950634079806783 4 0 0 0 0
1862 1 0.01053986752331612 -0.006459146581469101 0.09949322229344418 4 0 0 0 0
1863 1 -0.009364688835622319 0.008021802961783814 0.09950518505054493 4 0 0 0 0
1864 1 -0.00151161500254274 0.005152549998774887 0.09634103033697458 4 0 0 0 0
1865 1 0.01190474464596653 0.00287231338780329 0.09953010753008634 4 0 0 0 0
1866 1 -0.001987642934031163 0.007423204165726236 0.09632005276345816 4 0 0 0 0
1867 1 0.01203135090810113 -0.002872835085583466 0.09946849138356711 4 0 0 0 0
1868 1 -0.0009824016800097275 0.0122828843296077 0.09952272150861405 4 0 0 0 0
1869 1 0.0113075666005916 -0.004683613229986887 0.09952329417182199 4 0 0 0 0
1870 1 0.01216314905296828 -0.002278082567813985 0.09908076759306333 4 0 0 0 0
1871 1 0.01218763130530018 0.001097543062986493 0.096387723790504 4 0 0 0 0
1872 1 0.0008954230296373182 0.01231806650529417 0.09649132437727186 4 0 0 0 0
1873 1 0.0008956289741517006 -0.01231831097599196 0.09649134585226563 4 0 0 0 0
1874 1 -0.001987464480342763 0.005460081519038833 0.09634103033697458 4 0 0 0 0
1875 1 -0.002793316333286535 -0.01202046306239524 0.09949289801773535 4 0 0 0 0
1876 1 0.001438038404244018 0.01037029770563137 0.09634025211410752 4 0 0 0 0
1877 1 -0.006431008346036161 0.01049445181941831 0.09952364307581016 4 0 0 0 0
1878 1 0.00111271540977388 0.01073415701540723 0.09634025211410752 4 0 0 0 0
1879 1 0.01219071796997129 0.001023627280045038 0.09968038640963328 4 0 0 0 0
1880 1 -0.001380166991153742 -0.008999999999999991 0.09630714435153982 4 0 0 0 0
1881 1 0.0122235752080559 -0.001126895484348872 0.09961227620949623 4 0 0 0 0
1882 1 -0.002759075955983164 -0.008980191963097213 0.09950202358954717 4 0 0 0 0
1883 1 -0.01142962402487496 -0.004732957322562993 0.09952375536931952 4 0 0 0 0
1884 1 -0.004785586949765357 -0.01136928631701966 0.0995102673433633 4 0 0 0 0
1885 1 -0.006134195479052047 0.002693397834714731 0.09648162725160478 4 0 0 0 0
1886 1 -0.002134657285762221 -0.01043620776482016 0.09640494437020039 4 0 0 0 0
1887 1 0.01225709688763793 -0.000987084206578217 0.09630697419237874 4 0 0 0 0
1888 1 0.004571990121713606 -0.001013698222477942 0.09750941338890778 4 0 0 0 0
1889 1 0.004897274737407486 -0.0005048033488482119 0.09700316188622801 4 0 0 0 0
1890 1 -0.004303469809047106 -0.004278949347460161 0.09753244402389748 4 0 0 0 0
1891 1 -0.00480360752116659 -0.004100506330824006 0.09702140742235793 4 0 0 0 0
1892 1 0.002186226952199403 0.008278240729164256 0.09748544698635112 4 0 0 0 0
1893 1 0.002457313209355651 0.008565728210062438 0.09697618461610258 4 0 0 0 0
1894 1 0.006826419468174687 0.0004548896134036815 0.0970083281211582 4 0 0 0 0
1895 1 0.006469386543488453 -5.723978432820156e-05 0.09750459911783334 4 0 0 0 0
1896 1 0.0006308999634125692 0.0003981415625961441 0.09701705952490911 4 0 0 0 0
1897 1 0.001160302380045023 0.0001419624718477961 0.0975173804280029 4 0 0 0 0
1898 1 0.0008576461897060604 -9.91229652861275e-06 0.09651580231377077 4 0 0 0 0
1899 1 0.001387048606338514 -0.0002660913872769608 0.09701612321686458 4 0 0 0 0
1900 1 -0.00285521635931245 -0.006010152962160401 0.09685205641629484 4 0 0 0 0
1901 1 -0.0026861533410762 -0.00648355147222737 0.09634101981475529 4 0 0 0 0
1902 1 0.002056745672990178 0.001511027034618985 0.0970048643026844 4 0 0 0 0
1903 1 0.002323250694255511 0.0020791247612551 0.09751970113643639 4 0 0 0 0
1904 1 -0.003604814350005927 -0.003880467695196711 0.09651317313092422 4 0 0 0 0
1905 1 -0.003471732993882929 -0.004282210548239095 0.09702420973246377 4 0 0 0 0
1906 1 0.01079124756337292 0.002361486820012004 0.09903288221299256 4 0 0 0 0
1907 1 0.01074728802970279 0.001676114310958916 0.09854022839950632 4 0 0 0 0
1908 1 -0.007786861447653197 0.002957009031726128 0.09698389954410375 4 0 0 0 0
1909 1 -0.007290960866328825 0.003305014246502469 0.09648162725160478 4 0 0 0 0
1910 1 0.0001591304149189298 0.01048148106367848 0.09685307999969484 4 0 0 0 0
1911 1 0.0002701766788258437 0.01090434818178198 0.09634025211410749 4 0 0 0 0
1912 1 0.007580694526507031 -0.002834655770021627 0.09899911917625903 4 0 0 0 0
1913 1 0.007067925741972882 -0.002363644165134268 0.09849539017293417 4 0 0 0 0
1914 1 0.002318956779636045 0.007674333850257895 0.09647060432127208 4 0 0 0 0
1915 1 0.001978832349590114 0.007694093340010621 0.09697986669152062 4 0 0 0 0
1916 1 -0.01003098916956612 0.007010559653303642 0.09699726807091555 4 0 0 0 0
1917 1 -0.009414209378902735 0.007152050876648396 0.09650518505054492 4 0 0 0 0
1918 1 0.0077841786487611 0.002225683258431388 0.09749928737045656 4 0 0 0 0
1919 1 0.008297200163514509 0.001975928338149369 0.09700421191451156 4 0 0 0 0
1920 1 -0.0009634467803127163 0.007611964590238546 0.09712810740780903 4 0 0 0 0
1921 1 -0.001068550367907786 0.007886790861496627 0.09664024547255545 4 0 0 0 0
1922 1 -0.0006393164592919263 0.007978586686349039 0.09632019270909731 4 0 0 0 0
1923 1 -0.000857417167932456 -0.007692098608626112 0.09717249231450287 4 0 0 0 0
1924 1 -0.0004229990440506901 -0.007790660179015019 0.09683147249974758 4 0 0 0 0
1925 1 -0.001274457605723656 -0.008049101420042705 0.09716868697015232 4 0 0 0 0
1926 1 -0.0008400394818418896 -0.008147662990431612 0.09682766715539701 4 0 0 0 0
1927 1 0.01160438504780465 0.002115694272065827 0.09953010753008631 4 0 0 0 0
1928 1 0.01210565621684123 0.001753631821490043 0.09921049393971962 4 0 0 0 0
1929 1 0.0001043249908573491 -0.01051468705597141 0.09649859451729764 4 0 0 0 0
1930 1 0.0005162830713383718 -0.01057490255531103 0.0970077881223092 4 0 0 0 0
1931 1 -0.001724917370737946 -0.007950200478855462 0.09664816416629513 4 0 0 0 0
1932 1 -0.001502514226214338 -0.008217838353326951 0.09630714435153981 4 0 0 0 0
1933 1 -0.002861929007929818 -0.0004697149087439011 0.09647013309433294 4 0 0 0 0
1934 1 -0.003206195703786439 -0.0006931833537234316 0.09699289907551481 4 0 0 0 0
1935 1 -0.009368462538101387 0.007181152666093747 0.09950518505054493 4 0 0 0 0
1936 1 -0.009941972538996376 0.006986518610824635 0.09899726807091555 4 0 0 0 0
1937 1 -0.008492961418075956 -0.004713072702010872 0.09951262268042782 4 0 0 0 0
1938 1 -0.008561853643270513 -0.004161333956960186 0.09901291486954915 4 0 0 0 0
1939 1 0.004029418383986383 -0.0002426017429092583 0.09900721179264671 4 0 0 0 0
1940 1 0.003876039660426265 -0.0008408316730592762 0.09851346329532648 4 0 0 0 0
1941 1 0.00368391534906873 0.01010468271516855 0.09647720678042068 4 0 0 0 0
1942 1 0.003238618991681938 0.009909560788794916 0.09698278707525121 4 0 0 0 0
1943 1 -0.003308647255055707 -0.007087261413202334 0.09685485555505105 4 0 0 0 0
1944 1 -0.00291077204159386 -0.007032044648329048 0.09634101981475529 4 0 0 0 0
1945 1 0.003014052704393473 -0.004926335270374565 0.09689615748540491 4 0 0 0 0
1946 1 0.00310389792538896 -0.004515098289142826 0.0964350007477377 4 0 0 0 0
1947 1 0.003220258374269235 -0.009267274701383442 0.09651439018578289 4 0 0 0 0
1948 1 0.003053522128523843 -0.008881105234077461 0.09697792943850325 4 0 0 0 0
1949 1 0.004440509135421395 -0.005556073677725426 0.09902739549251188 4 0 0 0 0
1950 1 0.003887930361386242 -0.005519809193317644 0.0984885522301791 4 0 0 0 0
1951 1 0.003525789443931152 0.009411853393535305 0.09947720678042068 4 0 0 0 0
1952 1 0.003063298056192018 0.009374153981147723 0.09898278707525121 4 0 0 0 0
1953 1 -0.006209054088661698 0.006154740387456694 0.09901480989173858 4 0 0 0 0
1954 1 -0.006651840802688175 0.006557999965332809 0.09851193199332792 4 0 0 0 0
1955 1 0.01076663520020705 -0.005131116691677085 0.09652329417182198 4 0 0 0 0
1956 1 0.01084049260929535 -0.005697423692742442 0.09701651646526618 4 0 0 0 0
1957 1 0.008415804701454109 -0.002653553352048802 0.09702059074571878 4 0 0 0 0
1958 1 0.008148845612784221 -0.003142238387515491 0.09752195612806025 4 0 0 0 0
1959 1 0.00378960009803593 0.003403349388621598 0.09899241074282651 4 0 0 0 0
1960 1 0.004341926958361129 0.003502470241950255 0.09947757390907452 4 0 0 0 0
1961 1 0.0117022610249917 0.00359038984401828 0.09902312498601895 4 0 0 0 0
1962 1 0.01123174903712072 0.003962415806961388 0.09949301745593261 4 0 0 0 0
1963 1 0.002759129457435674 -0.003451415306282957 0.0964350007477377 4 0 0 0 0
1964 1 0.002341258693743368 -0.003190570207977481 0.09693385976999966 4 0 0 0 0
1965 1 -0.003681623875690219 -0.0111906627726627 0.09840810973129901 4 0 0 0 0
1966 1 -0.003253038722373967 -0.01072750729220571 0.0988978423879357 4 0 0 0 0
1967 1 -0.004079537519479182 -0.01162900623134026 0.09900316536109864 4 0 0 0 0
1968 1 -0.00365095236616293 -0.01116585075088327 0.09949289801773534 4 0 0 0 0
1969 1 -0.01032255901619454 0.002939360872098379 0.09901032282323124 4 0 0 0 0
1970 1 -0.01012027931544226 0.003507996903464223 0.09850088393089665 4 0 0 0 0
1971 1 0.009503798693594094 -0.006812039065070128 0.09851624880418364 4 0 0 0 0
1972 1 0.008932810212171525 -0.006915564682764283 0.09902302651073946 4 0 0 0 0
1973 1 -0.009157943737465037 -0.001187188717178358 0.09700707322060564 4 0 0 0 0
1974 1 -0.009546342424495141 -0.0007829941577629485 0.09750487594419863 4 0 0 0 0
1975 1 -0.002018711662467912 0.002757382769253956 0.0990952836912383 4 0 0 0 0
1976 1 -0.002359425290005797 0.003184391218556641 0.09860958910520237 4 0 0 0 0
1977 1 0.009793016279790887 0.007298954572053585 0.0969963871800452 4 0 0 0 0
1978 1 0.00977212485601945 0.006699057036054357 0.09650730739691665 4 0 0 0 0
1979 1 -0.01160727842488038 0.001706536171340817 0.09748212935709377 4 0 0 0 0
1980 1 -0.0111902851617485 0.001253830557414864 0.09697407882636147 4 0 0 0 0
1981 1 0.0005523000270846511 -0.004074640648052643 0.09652061673500326 4 0 0 0 0
1982 1 0.0007284153652965238 -0.003602335536748145 0.09701947575726524 4 0 0 0 0
1983 1 -0.004893661540333396 0.009703548112567052 0.09700958781512853 4 0 0 0 0
1984 1 -0.004768932111137575 0.01042651517597611 0.09700043841616071 4 0 0 0 0
1985 1 -0.005465525520959869 0.009865195598589227 0.09753323089093871 4 0 0 0 0
1986 1 -0.005340796091764048 0.01058816266199828 0.09752408149197089 4 0 0 0 0
1987 1 0.0008882265920224827 0.009439022220494819 0.09666044482320479 4 0 0 0 0
1988 1 0.0006143171551033374 0.009608098524577401 0.09717327270879214 4 0 0 0 0
1989 1 -0.002136245063817283 -0.008807177483072 0.09630714435153981 4 0 0 0 0
1990 1 -0.00229071550748681 -0.008728041800038371 0.09680916794108697 4 0 0 0 0
1991 1 -4.059817550972332e-05 0.007462177581979425 0.09632019270909731 4 0 0 0 0
1992 1 -0.0001475095672728113 0.007356427614803929 0.09680805464435087 4 0 0 0 0
1993 1 -0.00048289210128198 0.007562412334911698 0.09632019270909731 4 0 0 0 0
1994 1 -0.0005898034930450681 0.007456662367736204 0.09680805464435087 4 0 0 0 0
1995 2 -0.006175763982007166 -0.0002739540129311963 0.0921855609574736 3.999935585982993 -0.02212644437671282 0.02949641119345012 -10.57137434083928 10.57143864722154
1996 2 -0.006128502378404631 0.0002993384139545511 0.09250779858837405 3.999941041787833 -0.02288195864007844 -0.01286551507582062 -10.57260816110374 10.57264075024527
1997 2 -0.003861099352501426 0.000364020254537014 0.09233333399836866 3.999938253322551 -0.0423332520713426 -0.08498265425658079 -10.57417380798901 10.57460003391694
1998 2 -0.005846480594365307 0.0008283452421552929 0.09215770151892033 3.999935185987138 -0.09307152223611798 -0.1223628679419675 -10.57385529595719 10.57497285100743
1999 2 -0.00341893738336907 0.0007912450541498926 0.07203395736894734 3.999593472121438 0.01769824618594016 0.01810098156368373 -10.6276711698294 10.62770132095717
2000 2 -0.003896015813180388 0.0003902763339612623 0.07263900090715869 3.999603771886508 0.003738546332099761 -0.003147592751943729 -10.60136282295337 10.6013639494155
2001 2 -0.003869504238584776 -0.0004270976322404303 0.09235503802007677 3.999938569967808 -0.04420227085061763 0.006491902984413355 -10.57144450839689 10.57153891255514
2002 2 -0.006174019454851987 -9.878522056283091e-05 0.07220854501116175 3.999596462317698 -0.00116437595401755 0.003445210033829377 -10.60139203415902 10.60139265790933
2003 2 -0.003413682321285581 -0.0008030649829984093 0.09169183718662736 3.99992733522039 -0.01574673389814456 -0.03309346415181543 -10.61906282998704 10.61912607158472
2004 2 -0.004513824369659343 0.0009194326859277478 0.08764527770484054 3.999858603716058 0.003083732891938507 0.005922020288102321 -10.59160200717385 10.59160411165853
2005 2 -0.004001690309645259 0.000304708130056506 0.08764344602983817 3.999858573244772 0.005793427076159935 0.00269335486383738 -10.59164012303155 10.59164204992642
2006 2 -0.006613333356708521 -0.0002755410235578418 0.08116287432936925 3.999748554086892 0.0005235694621545766 -0.004445309676208816 -10.59530672342568 10.59530766888685
2007 2 -0.00677237354158074 7.980769809542353e-05 0.07282327942088528 3.999606904503679 0.0003384434162501983 0.002467505700190581 -10.60328690897262 10.6032872014823
2008 2 -0.003521505699559772 0.000707500452143895 0.08432281659266638 3.999802209117228 0.00239992281092103 -0.0004037996703512458 -10.59313691985049 10.59313719940335
2009 2 -0.006749306297063308 0.0005091269742771046 0.09183814366705322 3.999929765798704 0.07769327259308678 -0.05042523369284888 -10.45955775790486 10.45996785079892
2010 2 -0.003895504210901574 -0.000410003637372917 0.07263709461225908 3.999603729488316 0.003815789200986609 -0.01242496875404121 -10.60123572984276 10.60124369778332
2011 2 -0.005954031581539413 -0.0007449769672093772 0.09217734202996974 3.99993547268183 -0.01858536336445943 0.02054321908303336 -10.57173424348623 10.57177054019245
2012 2 -0.00341764756236639 -0.0008095003828972449 0.07203211700979098 3.999593454912381 -0.005525651756721546 0.001225652964435999 -10.58439453360604 10.58439604692124
2013 2 -0.006305152256323616 -0.001005415921076234 0.08114733409191784 3.999748286046139 -0.0002181555391591297 -0.002599497038186485 -10.59531515494102 10.59531547607241
2014 2 -0.004000103916573531 0.0003031527571961205 0.08371896612721544 3.999791958546806 0.002003026066096825 -0.003054393568905165 -10.59719123813399 10.59719186761367
2015 2 -0.006638245926109071 0.0001440746669339781 0.08043281712368902 3.999736160219278 0.000334700997823179 -0.002485048183939386 -10.59858965890701 10.59858995552615
2016 2 -0.006040216766333202 -2.984932537815743e-05 0.08178142386695328 3.999759058497932 -0.0002616537919058503 -0.006104551953760626 -10.59815792263255 10.59815968397704
2017 2 -0.006040814689423952 -3.2744298749528e-05 0.07981961354169688 3.999725745219751 0.0004832016442996416 -0.002685884888799135 -10.59893540991646 10.59893576124709
2018 2 -0.006130191946019594 -0.001384285925934075 0.07208690980196135 3.999594403439739 -0.008097100576393413 -0.002053187675503925 -10.61557742499182 10.61558071160563
2019 2 -0.006796567900665842 -6.41654526086428e-05 0.09151590603615278 3.999924309993864 0.0669377788074209 -0.07711341618078456 -10.4718965783292 10.47239442975719
2020 2 -0.005849960325211322 -0.00082461737494085 0.07265489725817792 3.99960405446986 -0.004383412387644893 0.01078692636693142 -10.60148542116475 10.60149181517645
2021 2 -0.005729587496923182 -0.0007619449160636288 0.07981401020117654 3.99972564514141 0.001390049854539614 -0.004902426881522233 -10.5990133193899 10.59901454431648
2022 2 -0.005732035665948297 -0.0007597242228965494 0.08176588362950186 3.999758790457179 -0.002047810669386179 -0.001820087699443362 -10.59830417773689 10.59830453186183
2023 2 -0.004448250410115075 0.0009878731679390713 0.09251730657120963 3.999941360818191 -0.08994627932028941 -0.03038716357402572 -10.57126505228756 10.57169137454314
2024 2 -0.004001465948184295 0.0003060554763657256 0.08568381792799318 3.999825314730951 0.003354076705578982 -0.0007872537413087656 -10.59636986667891 10.59637042675745
2025 2 -0.00337615657846648 0.0003068010206943076 0.08506109784266638 3.999814740238642 0.002154068037605742 0.0001051311321825784 -10.59414417261365 10.59414439212461
2026 2 -0.006018837633223395 -0.001315000847898515 0.08041167354571727 3.999735792100183 0.001333391345227454 -0.004505847031920443 -10.59960908937983 10.59961013095545
2027 2 -0.003375501212469307 -0.0004948897690893277 0.08899171400856901 3.999881451216673 0.00616374399708678 -0.003595777903565692 -10.59430226749807 10.59430467074048
2028 2 -0.006467284513023983 0.001038133802477846 0.0914880465975995 3.999923909998009 0.07613188326146454 -0.05686411322234822 -10.45728106517828 10.45771279330034
2029 2 -0.003930522160451094 0.001405868505712283 0.07203395754078383 3.999593488443163 0.03752429629819039 -0.005221038107592911 -10.6276916684833 10.6277591961994
2030 2 -0.004407600590262411 0.001004899785523653 0.07263900107899518 3.999603788208234 0.01391028599944017 -0.01524085235225442 -10.60128398195997 10.60130406345361
2031 2 -0.005455783147480462 0.0007377574311894492 0.06975103510312566 3.999554716634927 -0.0128628060869583 0.02073260497915883 -10.58420999822788 10.58423811992515
2032 2 -0.005329454694919409 -0.001682524752767428 0.08040179539041395 3.999735622627818 -0.002039454503324107 -0.00207917883623764 -10.59963257201549 10.59963297214064
2033 2 -0.005279250597492454 0.001119962246675184 0.09212849140378107 3.999934738193378 0.03973916663997442 -0.03452473693534308 -10.57495968485791 10.57509070860367
2034 2 -0.004379731221067874 -0.001041468981222514 0.09222924740936325 3.999936353533172 -0.100064340758645 -0.06103934287824783 -10.57186918750945 10.57251894259273
2035 2 -0.004382714658745623 -0.001019625683657878 0.0725942146275769 3.999603003198711 0.01579510289680673 0.001986471357356364 -10.6015351489841 10.601547101555
2036 2 -0.003373436096197217 -0.0004964857230832351 0.08507795702546309 3.999815020491809 0.003468164435781962 -0.009821043439909499 -10.59414491278582 10.5941500326437
2037 2 -0.006175962380592535 -7.612092663725938e-05 0.07773073896122944 3.999690271582029 0.002261491083139669 0.0009853389396394245 -10.5998869071716 10.59988719421403
2038 2 -0.005040204558619196 -0.001129468820932542 0.07980413204587322 3.999725475669045 -0.003027833600571001 -0.002394518943899453 -10.59797264109802 10.59797334413327
2039 2 -0.005857328653381334 -0.000806798593651124 0.07773432296612488 3.99969033161735 0.002783905040892256 -0.0002147059163766388 -10.59988481851467 10.59988518626516
2040 2 -0.00390485801021044 -0.001419122429182205 0.0719892370251088 3.999592728622777 -0.001298376043787083 0.006472610203024087 -10.58439141889142 10.58439347760492
2041 2 -0.003998485291567497 -0.0004965558891875957 0.08960542619519635 3.999891872412089 0.004295017220498095 -0.005500235437923775 -10.59010156263655 10.59010386194205
2042 2 -0.003892800080297945 0.000400198840825561 0.07495668713410494 3.999643146319122 0.001639155630455195 -0.002606697229791794 -10.60117243364122 10.60117288084183
2043 2 -0.005174518663327285 -0.001173269876140904 0.0777442279497511 3.999690492689937 0.008692300114538521 -0.003193006429077096 -10.59986498165559 10.59986902658235
2044 2 -0.003923909303768678 -0.001417436331980493 0.09156604657591383 3.999925118785753 -0.04664607594678884 -0.07007935575832938 -10.61905696259494 10.61939064858906
2045 2 -0.005750646643086764 -0.0008666988778633118 0.07001038813012624 3.999559139677531 -0.005556959881475966 -0.006766398142186265 -10.5811256955959 10.58112931826971
2046 2 -0.005421737733504822 -0.001739022026318619 0.07201311485857213 3.999593147945603 0.003584862880376717 -0.007870950892136932 -10.61554897758605 10.6155525008658
2047 2 -0.003897385775599523 0.0004005403163940701 0.07769079583756799 3.999689590170944 0.0002109415108546367 -0.002726999503941544 -10.59988982975448 10.59989018263657
2048 2 -0.003998745465915032 -0.0004972312674118172 0.08570067711078988 3.999825594984118 0.003708713835386234 -0.009595892050995841 -10.59472204896255 10.59472704369847
2049 2 -0.004413220089510634 -0.001016583222331619 0.07772171260140458 3.999690104494836 0.002534065619592739 -0.004305311480716622 -10.599883023741 10.59988420098013
2050 2 -0.005141506112696549 -0.001179353475325394 0.0725811023147887 3.999602798975725 0.01397803515173109 0.001569164575918517 -10.60151323585838 10.60152256696294
2051 2 -0.006170191575741231 -8.25709312870089e-05 0.07500811329265991 3.99964402267063 0.0009398161908660692 -0.001625921090487571 -10.60117767508804 10.60117784143153
2052 2 -0.004001690309645522 -0.0004966907328438158 0.08764344602983817 3.999858576800726 0.005779134289786553 0.00283540973221608 -10.59161571271048 10.59161766887745
2053 2 -0.003897713223390014 -0.0004012489606223654 0.07769447403524851 3.999689646339484 0.0002109115099879709 -0.007086972460855543 -10.5998878571118 10.59989022834711
2054 2 -0.006746374762608894 -0.0003270987153558892 0.07712098027377561 3.999679914877945 0.0002452762422045768 -0.001040838662943959 -10.60316807080018 10.603168124723
2055 2 -0.006427741035397692 -0.001057776382369754 0.07712456427867104 3.999679974913266 -6.043404053201273e-05 -0.0003429753873563578 -10.60317171970546 10.60317172542472
2056 2 -0.003405277435202224 0.0007894517666793568 0.09167013316491925 3.999927028090325 0.01846950769265333 -0.004713282049942819 -10.67669784396545 10.67671485940683
2057 2 -0.003892716735419972 -0.0004011002343204637 0.07498504469976895 3.999643628436951 0.001636701723157578 0.003244276729121141 -10.6011740688589 10.60117469162594
2058 2 -0.006074288089092734 -0.0001416817914263969 0.07002750801440842 3.999559418483765 -0.01448339186115478 0.01521224798783175 -10.58421826489679 10.58423910633653
2059 2 -0.005054123300551111 -0.001787028912628795 0.07713839121758789 3.999680200597184 0.006924882989986231 -0.0007077052594805429 -10.59647090072817 10.59647318709532
2060 2 -0.005262615905933476 -0.001118291798187879 0.09216060636217641 3.999935156762635 0.04321438830720756 -0.03596366074689486 -10.57509914740444 10.57524859498277
2061 2 -0.005810647572880767 0.001453864275655618 0.09271233690513395 3.999944615912691 -0.04636194104146883 -0.002215034281258797 -10.4902770895756 10.49037977158257
2062 2 -0.006581013708868195 -0.0007498101412482701 0.0927336764736594 3.999944873877949 -0.02406533288892999 0.02291867020937644 -10.566481781427 10.56653404115654
2063 2 -0.004292824726734461 -0.00163034225881951 0.07711587586924137 3.999679812402083 0.003284911220909065 -0.001412402763638586 -10.59653795400754 10.59653855729528
2064 2 -0.003520850333563211 -0.000895589200539646 0.08825343275856901 3.999868923116206 0.006779096448852146 0.0001567766991156194 -10.58787215865047 10.58787433003685
2065 2 -0.003270372529392924 0.0004004681295641105 0.0755821123458936 3.99965376945426 0.0009505557901162207 -0.002327990671489945 -10.6020610290263 10.6020613272276
2066 2 -0.005961205345368205 0.0006685146041879056 0.07220479312029578 3.999596395901321 -0.001672572584735994 0.001696909501787768 -10.60136343223193 10.60136369998055
2067 2 -0.006276539640568407 -0.001269258362456718 0.09150920539620176 3.999924109898567 -0.01616593058582456 -0.05541188497107796 -10.63585723615271 10.63601386620616
2068 2 -0.005849858181600182 -0.0008117480558553567 0.0750099151341807 3.999644048443079 0.002494212990336276 -0.005154046569907753 -10.60117116039746 10.60117270670265
2069 2 -0.004000543109171702 -0.0004987712494047513 0.08372202565795281 3.999792011822271 0.001235087051896107 0.004583643521143718 -10.59586381272648 10.59586487612382
2070 2 -0.004033500674286423 0.001322199455122564 0.08432102321932064 3.999802184911069 0.006333893519681058 -0.004988096998057386 -10.59309588468562 10.59309895268906
2071 2 -0.003270372016508757 0.0004004675156234803 0.07705783219015661 3.999678838469009 0.0009671235693020874 -0.003054024304601604 -10.6008371805642 10.60083766460107
2072 2 -0.006559559432096959 0.00084710752284616 0.07281952753001932 3.999606838087302 0.0001355605546068256 0.001743740516140494 -10.60328287046348 10.60328301471162
2073 2 -0.004512098891300181 0.0009178517601747893 0.0837171727538697 3.999791934340648 0.00358961807608882 -0.00494309113075724 -10.5972268098318 10.59722857064646
2074 2 -0.00327028918451495 -0.0004008309455819142 0.07561046991155762 3.999654251572089 0.0009486195191994003 0.002904504474341106 -10.60206230334338 10.60206274363626
2075 2 -0.005910754183211129 0.001294607960723389 0.07025824405021616 3.999563282103094 -0.01753120449772159 0.02877512019937301 -10.57187765059642 10.57193134719734
2076 2 -0.005815540233162738 0.001256289854048649 0.06912589499333785 3.99954408633751 -0.01425142116276864 0.02195900327718636 -10.59081944234249 10.59085179582501
2077 2 -0.005042178531342109 -0.001129408715876813 0.0817562790835972 3.999758629724086 -0.00351848437765178 -0.0008198026879783756 -10.59863167532471 10.59863229105553
2078 2 -0.003270699464299248 -0.0004013217613929552 0.07706151038783712 3.99967889463755 0.0009684983918786676 -0.006769030069139926 -10.60083732900885 10.600839534389
2079 2 -0.003519224409888681 -0.0008977102982345195 0.08434273530620046 3.99980254264586 0.004459382349751574 -0.003645710476921458 -10.58423993852049 10.58424150581741
2080 2 -0.004034664715969541 0.001321834059966229 0.08825306462673518 3.999868893969556 0.01828206557871922 0.005272822598103746 -10.56858408470982 10.56860121265637
2081 2 -0.003522530655955457 0.0007071095040949875 0.08825123295173282 3.99986886349827 0.007831023835226202 0.01758418384952588 -10.56862492389456 10.56864245352359
2082 2 -0.006745190165943334 -0.0003332066304964994 0.07565674346440611 3.999655040803619 0.0006867785012485577 -0.001905428804357731 -10.60075201444411 10.60075220793621
2083 2 -0.006413634022098038 0.0009089221927148795 0.08043851776866909 3.999736260443018 0.0001884387965786164 -0.003267702547777004 -10.59858660230086 10.59858710771678
2084 2 -0.004408036989552123 -0.001016401260929687 0.07501602115050766 3.999644154547668 -0.002971651852933929 -0.0022674114312466 -10.60119401754442 10.60119467652061
2085 2 -0.006316738207792159 -0.001114183343915453 0.06940875191497883 3.999548921353751 -0.01384611383430262 -0.004742073719703889 -10.59360771903733 10.59361782900341
2086 2 -0.004515612615021872 0.0009211461514102926 0.08568939607913986 3.999825411632556 0.00197574956188529 0.0008210211521451343 -10.59639363217657 10.59639384817751
2087 2 -0.004028374166978415 -0.001509449404726676 0.08825935763148046 3.999869023635396 0.002213383564971015 -0.008630371370790452 -10.58784554285537 10.58784929160493
2088 2 -0.004925912183413443 -0.001742624318925411 0.08112785139070985 3.999747955840681 -0.002521154117232793 -0.001885574495468327 -10.60050839374533 10.60050886125163
2089 2 -0.004509214143060727 -0.001110550937030845 0.08764937090274963 3.999858677319917 -0.003118937333854984 -0.009065887684482932 -10.59584966212256 10.59585399957891
2090 2 -0.005841721991968916 0.0006093772564317786 0.06790507270812461 3.999523461422563 -0.03042252525862321 0.01956965079051148 -10.52794627260003 10.52800841660132
2091 2 -0.005168635510759172 -0.00117413865382803 0.07501409779337309 3.99964411756718 -0.00315836619291622 -0.002300131385637779 -10.60119468315195 10.60119540315952
2092 2 -0.00581620278541292 0.0007321032270313734 0.07982531418667695 3.999725845443491 0.0003554336422459699 -0.003175988504218081 -10.59886084053634 10.59886132234453
2093 2 -0.003992428492815872 0.001413304680081414 0.09185410573776022 3.999930135585965 -0.03489857727453372 0.05791935386561956 -10.67438408332011 10.67459826506299
2094 2 -0.006049327451312787 0.0006032072803162918 0.08568680269217585 3.999825387514988 0.00310647788008296 -0.009412860163266833 -10.59463009478781 10.59463473167079
2095 2 -0.005585123964962468 -0.00164257319343522 0.09149246972840842 3.999923793979372 0.00374901005290135 -0.06494280359492598 -10.62940670767771 10.62960575844839
2096 2 -0.00505021404255311 -0.001221619048479624 0.07000128028319876 3.999558991494732 -0.0103749783063127 -0.003599752749958224 -10.58227707229473 10.58228277042385
2097 2 -0.006048056470992035 -0.0001566396324795621 0.06792857660276504 3.999523873396202 -0.02974359817430238 0.0217944673605032 -10.5279841224154 10.52804869680373
2098 2 -0.006424856771802285 -0.001062383755064847 0.0756585453059269 3.999655066576068 0.002107534621826464 -0.005148695191224229 -10.60073620242098 10.6007376622612
2099 2 -0.003377181534861818 0.0003064100726449841 0.08898951420173282 3.999881395154692 0.001649807241998405 0.03104966394784611 -10.59430211943395 10.59434774780108
2100 2 -0.005340140496154159 0.001037682682504705 0.08592992086150342 3.999829507396975 0.01564170714338688 -0.00211496421610867 -10.59871683132715 10.59872858444509
2101 2 -0.005455716096170266 0.001049253830282017 0.08974390397054838 3.999894238477063 -0.0001007528127521035 -0.002758923346739702 -10.58965978006194 10.58966013993229
2102 2 -0.004506295834632994 -0.001110470892411492 0.08960543318790623 3.99989185951016 -0.003736440380263218 -0.01920665034996815 -10.5856905644414 10.58570864810232
2103 2 -0.006640379653798127 -0.0003891662574785378 0.06942587179926102 3.999549200159986 -0.01854547375964227 0.009863872868265205 -10.59364506505426 10.59366589028243
2104 2 -0.004513134303984817 -0.00111236553800357 0.08571145000682928 3.999825776988717 0.007709944336049827 -0.002837146868637657 -10.59689015457477 10.59689333912386
2105 2 -0.006046325616927791 0.0006080188699646812 0.08962831703032442 3.999892287365996 0.02076354932315926 0.009800292327618443 -10.59668951000498 10.59671438428722
2106 2 -0.004000165613960007 0.0003047439525467161 0.08960322638836016 3.999891816350108 0.002925854025548781 0.03010352753537264 -10.59663215922208 10.59667532298935
2107 2 -0.004018810839491135 -0.00150999816873347 0.08436174169549962 3.999802863483927 0.003239095084277048 -0.005989391859644746 -10.58423281891584 10.58423500918072
2108 2 -0.006466158710788202 0.0008006822009784042 0.06862214957770015 3.999535558326442 -0.00487663108697681 0.03389041190527374 -10.56852006589983 10.56857552960082
2109 2 -0.004404981791443457 0.001014932143730118 0.07495485537408023 3.999643122446467 0.00497341381386633 -0.006587001120365133 -10.60115846529436 10.601161678312
2110 2 -0.004271345396905861 -0.0009753964172854269 0.07981068182340241 3.999725591660302 -0.00366577937448966 -0.002412959928235927 -10.59779246702071 10.59779337571529
2111 2 -0.005954100696726279 0.0006895633581198842 0.0777319766266735 3.999690293030857 0.001205203675598093 -0.002676489067881294 -10.59988854577234 10.59988895219687
2112 2 -0.005953610748963988 0.0006847584985969212 0.07502402507878146 3.999644297149456 -0.0001381662138418678 -0.005419755702440488 -10.60118259141775 10.6011839777178
2113 2 -0.006672493189811319 3.466531206706346e-05 0.06864565347234057 3.999535970300081 -0.01644199603200168 -0.00535841132704572 -10.56865651917734 10.56867066721994
2114 2 -0.004409988487032238 0.001015350733939774 0.07769079383565039 3.999689592999942 0.0002142061977342994 -0.002730912674749734 -10.59988982493117 10.59989017888618
2115 2 -0.004154997409107965 -0.001590340619301376 0.08112769314875774 3.999747955785629 -0.0008797963947474699 -0.001936806236384463 -10.60050701589523 10.60050722934069
2116 2 -0.004271263757036631 -0.0009771250162527783 0.08175612084164509 3.999758629669034 0.000211189485746778 -0.000352924436063888 -10.59755415156415 10.59755415954508
2117 2 -0.004500129538774157 -0.001111059119903702 0.08374103204725197 3.999792332660339 -0.007703686249625422 -0.007329671615130262 -10.60005913808614 10.60006447158654
2118 2 -0.006450109218000365 -0.00103000550936902 0.0870447346459598 3.999848424512773 0.007745912772210915 -0.01054695563004677 -10.59271640983786 10.59272449262634
2119 2 -0.006163479790921841 -0.00134504097440851 0.08631512559309279 3.999836039382764 0.004200468921279615 -0.006622730497592979 -10.58365456006974 10.58365746570548
2120 2 -0.006773415359911494 0.0001219428670092191 0.08630775804722536 3.999835937118497 0.009516555557807602 -0.008669640478648918 -10.60470646938078 10.6047142832432
2121 2 -0.00341764756236639 -0.0008095003828972449 0.07055922922441787 3.999568460268152 -0.005229269555497005 -0.001669729992527215 -10.59770837371793 10.5977097954053
2122 2 -0.003417711488393533 0.0008014710497295534 0.07842118349167441 3.999701996599641 0.0003821508109944418 -0.002195135389349514 -10.59916033061107 10.59916056481163
2123 2 -0.006753025013942881 -0.000296593757756543 0.08704100989332163 3.999848380899658 0.009821516399171072 -0.01555827284684311 -10.59268788165015 10.59270386068148
2124 2 -0.004883804947846075 -0.001407326027278214 0.06576143018495341 3.999487544957711 -0.09325670660605272 -0.370473924967724 -9.945451408301718 9.952786115319601
2125 2 -0.005067112277903485 -0.001780797863891935 0.08704970257072916 3.999848491097432 -0.000731405144650912 -0.005568792272650677 -10.59075476586915 10.59075625520581
2126 2 -0.00341816267681814 0.0008032189954792629 0.08628859497295044 3.999835575436134 0.004682617337573628 0.003568966623609713 -10.59000782911765 10.59000946577486
2127 2 -0.00429085786248354 -0.001062172600704283 0.06996380079211399 3.999558356953442 0.01281061762973959 0.0006496523600724977 -10.57789146314632 10.577899240401
2128 2 -0.005475902293437349 -0.001719894476654005 0.08631769297286607 3.999836074873143 0.003404355106547865 -0.006198253012204421 -10.58366214098909 10.58366450349689
2129 2 -0.003912235759037701 -0.001420743183715839 0.07058522992893977 3.999568898357669 -0.002853167344809535 0.001279196165222107 -10.59771020446822 10.5977106657427
2130 2 -0.004292571162296708 -0.001630439450557683 0.08704176160427769 3.999848359126531 -0.001553542559989929 -0.005719553458017951 -10.59074244209449 10.59074410046659
2131 2 -0.003796269665812229 -0.0004509297998856888 0.06993780008759208 3.999557918863925 -0.0007095405069966245 -0.01428510377124376 -10.57970607402412 10.57971574194601
2132 2 -0.00341607820378695 0.0007994499014197888 0.08235315581485927 3.999768768601175 0.0008707899453630076 -0.001643389273253371 -10.59733560193286 10.59733576513442
2133 2 -0.006543481091496189 0.0008820252748077318 0.08629579595094641 3.999835740133909 0.009874595149941569 -0.007498286809819749 -10.60471051036819 10.60471775865101
2134 2 -0.006279261719728092 -0.0001568751274822208 0.08569876478845478 3.999825584499576 0.005768960427549014 -0.003945847153117245 -10.59626270342502 10.59626500851173
2135 2 -0.005904826707241898 0.0009405419519595437 0.06590497129408253 3.999489830462185 -0.5093291154027685 -0.07004760193055214 -10.00247268716253 10.01567684541417
2136 2 -0.006771972234493691 8.63519971824931e-05 0.07428946753785103 3.999631814394795 -0.0003741857818267539 -0.0002524419880021677 -10.60369110181991 10.60369111142704
2137 2 -0.003270658490811454 0.0003999538871214207 0.08702506383532681 3.999848073046787 0.004736048961838758 0.003431677370993964 -10.58978571604508 10.58978733111868
2138 2 -0.006146100190603766 -0.001360843828740564 0.07847791593091953 3.999702957448788 0.003337666897926088 -0.004721170455012867 -10.59339321184259 10.59339478968775
2139 2 -0.005283755258667504 -0.001260909350365097 0.08765731186920109 3.999858809290818 0.00123675507985222 -0.007478902102569854 -10.59459867225072 10.59460138417659
2140 2 -0.006775961110315738 9.903445558740115e-05 0.07847993526654445 3.999702997491809 0.001751967000064934 0.001596900459123427 -10.5987956570692 10.5987959221691
2141 2 -0.003270658490811718 -0.0004014449757789011 0.08702506383532681 3.999848076602741 0.004737629172954917 0.002106312599075174 -10.58978572543271 10.58978699465958
2142 2 -0.004292227834961694 -0.001629818207908439 0.07566857327754452 3.999655237291988 -0.0030954168522946 -0.002772938222420993 -10.60058943341592 10.60059024803059
2143 2 -0.006438344554183262 -0.00104984100019342 0.07920072742521815 3.99971523192272 0.004035680167956047 -0.005456097058038401 -10.59517401538975 10.59517618881818
2144 2 -0.006746612701151931 -0.0003548385620265632 0.07139251627439978 3.999582596072146 -0.003296475632246054 9.525385141128649e-05 -10.60681210748834 10.60681262016946
2145 2 -0.003268333200191964 -0.0004023655515484335 0.09095355593662736 3.999914784227694 -0.004858164483801427 -0.02578332315786143 -10.63736312471927 10.63739548144435
2146 2 -0.005814445567459258 0.0007330967622482138 0.08178490380725668 3.999759123415163 0.0002720699139735776 -0.003577634091910403 -10.59780249325044 10.59780310061632
2147 2 -0.004890266658880333 -0.001403523789332054 0.094740864794334 3.999978847383067 -0.0552534714144812 0.03688014125904373 -10.48774770584865 10.48795809642927
2148 2 -0.006751122389950676 -0.0003094727156003355 0.08312843545641775 3.999781931914402 -0.0003665657725376682 -0.004549564332152178 -10.60075378402256 10.60075476663689
2149 2 -0.003771729713838809 0.00033393661775352 0.06789377791202234 3.999523119929948 0.07317317303505042 0.1512125930021368 -10.53966726439594 10.54100591052456
2150 2 -0.006749571746684033 -0.0003206403828793194 0.07920633076573849 3.999715332001061 0.00188785704011143 -0.0005143405182498449 -10.5951995707721 10.59519975144592
2151 2 -0.006282090497222407 -0.0001515587464752 0.08765118657156684 3.999858734583422 0.009057365658890849 -0.01675348317657684 -10.59470021897822 10.59471733672439
2152 2 -0.003920613136892964 -0.001415924566796742 0.09021751974339486 3.999902242249877 -0.01002950240000211 -0.01863009530202736 -10.59458760794197 10.59460873528263
2153 2 -0.004346230137931353 -0.001090418738678251 0.06759245859892396 3.99951810163361 0.0963826639993383 -0.05932672090116592 -10.54933857339509 10.54994566876314
2154 2 -0.006774533105185544 0.0001099257675475355 0.08239359574766925 3.999769455203476 -0.0002917351525721812 -0.006068134355505443 -10.59811861566956 10.59812035689186
2155 2 -0.003417239837797409 -0.0008030065931814792 0.08235805270291008 3.999768852152656 0.0002477950488138705 0.002166580284067014 -10.60016850767573 10.6001687319869
2156 2 -0.005896074512573298 0.000944696528704916 0.09441261867661069 3.999973193122737 -0.03838800735597599 0.02141693451026238 -10.52132239822996 10.52141422678948
2157 2 -0.006421794609600419 -0.001081047707908705 0.07139868677351237 3.999582700619807 -0.001943268851991873 -0.003021191251427293 -10.60680142351418 10.60680203179794
2158 2 -0.003761011323020536 -0.0003627489131198771 0.08175514078066096 3.99975861259575 0.0008638637574130503 0.0002138623639496861 -10.59732583201795 10.59732586938575
2159 2 -0.00327379910141704 0.0003907981393758488 0.07129560718136117 3.999580936408011 -0.003642527050496066 0.0342195872071248 -10.5887885600058 10.58884447976556
2160 2 -0.005979174701279891 -0.0008849704980876766 0.087654911324205 3.999858778196539 0.006927456291074105 -0.01037422120607745 -10.59392619726636 10.59393354176072
2161 2 -0.003760288881608248 0.0004377835748805192 0.08175330342334751 3.999758582319733 0.0008297942589570008 -0.001775679756037481 -10.5974981264851 10.59749830773528
2162 2 -0.003272362880184406 0.0004007722322205938 0.07916030739741142 3.99971454878724 0.0001644974109656465 -0.001678545157212721 -10.60016319440736 10.60016332858327
2163 2 -0.003412914953950345 0.0008008770574850834 0.07421058122579753 3.99963047132911 0.001994770227713643 -0.001455960043777204 -10.60280255804119 10.60280284565043
2164 2 -0.003412802593827467 -0.0008020095635728457 0.09021751275068499 3.999902255151805 0.003428755035364943 -0.002502438991891184 -10.59452873585651 10.59452958622757
2165 2 -0.003417625598899111 -0.0008012217920646903 0.07844461677757236 3.99970238816218 -0.001318316808925625 -0.002399199139546358 -10.60673510402453 10.60673545729609
2166 2 -0.005972241946680955 -0.0008904472172874735 0.08570240758168404 3.999825643150727 0.003137183662591973 0.002777800663462188 -10.59702244532297 10.59702327376782
2167 2 -0.003273020882693174 -0.0004096673263371094 0.07129567311710443 3.999580961597148 -0.003152106196517042 0.003091832771583039 -10.58878862650273 10.58878954706141
2168 2 -0.005252934633388614 -0.001741516209035209 0.09286283085024977 3.999947125914752 -0.01235689076206499 0.09890960084629 -10.73092529136188 10.73138823315413
2169 2 -0.005284664449196462 -0.001265300719532968 0.08570497496145732 3.999825678641106 0.01300925002131905 -0.001615627532838706 -10.59824833049558 10.59825643800389
2170 2 -0.003248536708023131 0.0003751320690048414 0.06728467236310487 3.999512624455335 0.1951994222540155 0.08879291103893196 -10.71334506576406 10.71549109904116
2171 2 -0.006270511268893404 0.001813140383582588 0.06963310394042833 3.999552651805676 -0.02674416182278636 0.0411732034933063 -10.57819315441614 10.57830709022072
2172 2 -0.003933132465019731 -0.001416556053773944 0.07847185534372841 3.999702846317532 -0.002636093597084594 -0.003984817081846584 -10.60673163892808 10.60673271502561
2173 2 -0.005052826356168744 -0.001787555600806782 0.07566664992040993 3.9996552003115 -0.002830399198176637 -0.002721939595665287 -10.60059422675932 10.60059495408243
2174 2 -0.003238115273403237 0.0003656863746352819 0.09319618431174131 3.999952925870433 -0.05241540512960222 -0.08032644238278373 -10.5884674332995 10.5889018457102
2175 2 -0.005283962266291384 -0.001260677133935186 0.08960543851850739 3.999891855327459 0.005629390938941335 -0.01694670550566327 -10.58820008740055 10.58821514570321
2176 2 -0.005463290200549717 -0.001727315111230344 0.07848782091454576 3.999703118521375 0.004266450059091763 -0.005198092434002562 -10.59337696348981 10.59337909797236
2177 2 -0.006156035908267426 -0.001353156193789829 0.08238169823563658 3.99976924052222 -0.001513739800945394 -0.005933113577757688 -10.59279770096584 10.59279947071746
2178 2 -0.003929831032618925 -0.001416600881790354 0.08631622705178657 3.999836041249853 0.003976254044346573 -0.002450062561630956 -10.60236125399129 10.60236228269618
2179 2 -0.003248536708023246 -0.0004262667938953542 0.06728467236310487 3.999512677666228 0.1992767796235228 -0.007400420045484732 -10.7133452078906 10.71520095679714
2180 2 -0.006440806293417463 -0.001042679779419308 0.08313207818183649 3.999781985273898 0.001681738617181403 -0.009388932242565149 -10.60072867982959 10.60073297105701
2181 2 -0.003271451524113736 0.0003996168448596543 0.08309327442217272 3.999781333537415 0.001217357618031248 -0.00249167347055124 -10.59578290645003 10.59578326934894
2182 2 -0.005088224854194163 0.001278789514550912 0.06596688032684586 3.999490931578314 0.1966834969850185 0.2951600358348533 -9.991663485866988 9.997956944273563
2183 2 -0.006130112808984383 -0.001385441266343765 0.07066880741320354 3.99957030462757 -0.006875938696337331 0.002438720714533852 -10.59427139072866 10.59427390274121
2184 2 -0.006279665213788186 -0.0001612451931112313 0.08374354255457167 3.999792379117415 0.000984502423026582 -0.002434548185877696 -10.59728495915709 10.59728528453618
2185 2 -0.00590297665993264 0.0002635235389975364 0.09502120600654487 3.999983478511385 -0.03644821082508038 0.0267090040318507 -10.52282773507227 10.52292475431498
2186 2 -0.00341544219454914 -0.0008014666111986016 0.08630545415574714 3.999835859245255 0.002112823055002457 -0.004687820445242959 -10.60236620117476 10.60236744805116
2187 2 -0.003927492271813504 -0.001417382696314381 0.08235903276389422 3.99976886922594 -0.00167008722822523 -0.0001367363088315789 -10.60017269596247 10.60017282840786
2188 2 -0.003267565832857052 0.0004001776260354935 0.07347229997579753 3.999617925836381 0.002253154944231373 -0.002103105936279569 -10.6039751757996 10.60397562373358
2189 2 -0.003271949542899493 -0.0004001313325572145 0.07918006248562884 3.999714884181238 0.0001648607433620699 0.001450621956405981 -10.60016408073681 10.60016418127691
2190 2 -0.003771729713838923 -0.0004674622451466755 0.06789377791202234 3.999523173140841 0.08851459081935323 -0.06851928842838687 -10.54843792447392 10.54903182155378
2191 2 -0.005245312859185423 0.001116866749599929 0.07242000145925008 3.999600066428595 -0.01775471777156341 -0.009420522001332728 -10.6010818208967 10.60110087441793
2192 2 -0.005429680208450728 -0.001740361436960078 0.07065969956627607 3.999570156444772 -0.003041364753284808 0.00052396878595542 -10.59428393255242 10.59428438206098
2193 2 -0.003761922679098997 0.0004398053371309116 0.07979092375589966 3.999725259088694 -0.0006463717435737624 -0.001084032501459986 -10.59874456218166 10.59874463732844
2194 2 -0.005066151625825226 -0.001783836187552114 0.07920075425354105 3.999715223522942 -0.0008147872476748427 -0.004474721139097651 -10.60232027141952 10.60232124700817
2195 2 -0.005476609544879543 -0.001714444852809798 0.09021258927367744 3.999902110031331 -0.02314871021438414 -0.03131575929920448 -10.54310670313617 10.54317862379652
2196 2 -0.005339727464576445 0.001039054696384236 0.08789355617666592 3.999862870934846 0.07637076395306795 -0.01458770292113968 -10.57970405044951 10.57998974903856
2197 2 -0.004241898453179733 -0.001676989160220162 0.06805140993405079 3.999525839968516 0.07322703452542494 0.007920983304328741 -10.64005884773556 10.64031377468906
2198 2 -0.003271890716711907 -0.0004023071617412174 0.08309633395291008 3.99978138681288 0.001205160199402979 0.004562582763820096 -10.59578304717796 10.59578409804751
2199 2 -0.003412320006793557 -0.0008007019889951205 0.07423703249656192 3.999630911048746 0.004643992500889819 -0.007456244095898583 -10.61516758466678 10.61517121919391
2200 2 -0.005466178773661238 -0.001722840686770092 0.08237209368973192 3.999769079789127 -0.00741594180001327 -0.002857722466762547 -10.59275729033838 10.59276027175105
2201 2 -0.003761509341814083 -0.0003610982276468966 0.07981067884411708 3.999725594482692 -0.0005359945607329126 0.0009972566536038167 -10.59894196033045 10.59894202079927
2202 2 -0.004281729580330457 -0.001628971135373069 0.08311632040319339 3.999781724724231 -0.005315925421572811 -0.002443226760043581 -10.59287144021081 10.59287305584532
2203 2 -0.00590499320846914 0.0002626882572445348 0.06539484685866125 3.999481697481018 -0.4411301036308975 0.1402527235598164 -9.941960449409413 9.952730488283924
2204 2 -0.005723636523470866 -0.0008840590289291437 0.06798264222961709 3.999524773024312 -0.003402240790305076 -0.05780891426456167 -10.53429210826313 10.53445127512704
2205 2 -0.005049501307872713 -0.001782145426204747 0.08312922308707896 3.999781935232367 -0.007437916023604768 -0.002854221508420745 -10.59282595383327 10.59282894968945
2206 2 -0.004631941150988527 0.0009297072251459748 0.08947182716783939 3.999889593965172 0.03277233734807856 -0.00506009385533642 -10.59649141713547 10.59654330355285
2207 2 -0.004370049948523013 -0.001664693392069843 0.09293147189743661 3.999948322685289 -0.02846155357992165 0.09974977459809606 -10.7345387587807 10.73503993664344
2208 2 -0.006774255597997641 9.260435183715409e-05 0.07638999780825438 3.999667497701375 0.0007750705693543341 -0.002131474615397729 -10.60118495608807 10.60118519869861
2209 2 -0.006741439203289095 -0.0003393740366914934 0.07355746887954942 3.999619378741705 -0.0003197894831736963 0.001193341651918526 -10.60118063171013 10.60118070369879
2210 2 -0.005267901266316413 -0.001264233410735379 0.08375393473113754 3.999792543168474 -0.004145315516319584 -0.005973627327948016 -10.59904987931078 10.59905237330121
2211 2 -0.004297292464111892 -0.001629763783904998 0.07920730403107024 3.9997153395142 -0.004819133862714976 -0.005209589755438794 -10.60227010123901 10.60227247638464
2212 2 -0.003415721137602051 0.0008011669470730702 0.07631955094015661 3.999666299010311 0.000951141206609617 -0.002298939374261366 -10.60204717642612 10.60204746834105
2213 2 -0.005969349117254973 -0.0008944522569302039 0.08374718527999042 3.999792432476912 0.00347292846315189 -0.009735177084706786 -10.59818643468506 10.59819147492852
2214 2 -0.004521091131904422 0.001546097901115484 0.08885994665621441 3.999879203241042 0.03260784658651005 -0.00437770596890369 -10.59848931898905 10.59854038444415
2215 2 -0.006128252906924694 -0.00137107760219753 0.07424879061818548 3.999631126831889 0.001806265880616876 0.004619447552972384 -10.58817564812628 10.58817680988878
2216 2 -0.005079472659525562 0.001282944091296285 0.09441261867661066 3.999973263833975 -0.07702711500876705 0.001903777585251539 -10.52105605499684 10.52133819023043
2217 2 -0.004390835588950009 -0.001722664976500253 0.08899764587419032 3.999881538833935 -0.002109466988184054 -0.01286210264570072 -10.57766462723196 10.57767265752394
2218 2 -0.005403120024306334 -0.0009489407905527005 0.06542218785203659 3.999482244431621 -0.2190098768560415 -0.2940739841298672 -9.988392827804336 9.995120615422088
2219 2 -0.003267054230578237 -0.0004001023452986858 0.07347039368089792 3.999617883438188 0.002258090962619938 -0.01351215583252298 -10.60397506371292 10.6039839130949
2220 2 -0.005103595402534567 -0.001249629764334347 0.06763969570030494 3.999518950186856 0.001955556007845689 -0.06117765829925682 -10.53518231845295 10.53536012735768
2221 2 -0.004920619964407624 -0.001823855540392491 0.06940242180006929 3.9995488358483 -0.01072903386571404 -0.003100739124220159 -10.58151614823533 10.58152204184804
2222 2 -0.005408850083253013 -0.0009448355365235686 0.09506476014810317 3.999984256539562 0.0006764056444382024 0.002338205890289276 -10.5070043982068 10.50700468014878
2223 2 -0.004115446142704453 -0.001162454729922692 0.06576340197240799 3.999487580654989 0.3188447502319232 -0.2052864186209079 -9.951618906456114 9.958841466142307
2224 2 -0.006756083874367312 -3.099654465608752e-05 0.093828376872755 3.999963356757581 -0.0276929001428621 0.06454077722271107 -10.55308239262476 10.55331608520136
2225 2 -0.005979454980535912 -0.0008838071529847267 0.08953095826106872 3.999890608149091 0.00546710604573226 -0.01687263683414716 -10.58817504542012 10.58818990043055
2226 2 -0.006279704213028064 -0.0001502285871546967 0.08952782245566523 3.99989057915456 0.006363702827745506 -0.01930676405455631 -10.58790644622932 10.58792596129933
2227 2 -0.00617210225912407 -0.001337574871859338 0.09013810901623877 3.999900862852963 0.001554585299736881 -0.04486465121117227 -10.54300144482992 10.54309701744936
2228 2 -0.006537268755145632 0.0008883211066599637 0.09023394949794165 3.999902628864002 0.06288144206232377 0.0267956733228619 -10.65667335347315 10.65689256052107
2229 2 -0.006770647351245907 0.0001300736495405857 0.09013345492328247 3.999900920652566 0.04027526021078329 -0.04586053253846693 -10.65645146076472 10.65662624945927
2230 2 -0.004073034414237988 -0.000471394632248026 0.06542415963949116 3.99948228956107 0.3793359310800886 -0.07946135353956503 -9.9884269709049 9.995943337595266
2231 2 -0.006707943007125996 0.0005401816792810042 0.09345131032484214 3.999956966306098 -0.04793013709300369 -0.0115090590355484 -10.50232464453266 10.50244032097492
2232 2 -0.005686545937404243 0.001558441534216372 0.08531609854281744 3.999819091897596 0.01541997597945437 -0.0008134078734144886 -10.60110123504657 10.60111248091433
2233 2 -0.004114161246255537 -0.001161922464252668 0.09475450570329397 3.999979088334352 0.01360315880583986 0.06418706802216349 -10.48653252381703 10.48673778630433
2234 2 -0.006410919552492921 -0.0001433974119304138 0.09462708024243799 3.999976851121821 -0.01429002490444875 0.06631214621819317 -10.50437594517477 10.50459497092173
2235 2 -0.004402298220030708 0.001536590698717543 0.08506488262046732 3.999814812934088 0.004363954182308544 -0.003620585559982515 -10.58909569061903 10.5890972088192
2236 2 -0.004071017865701493 -0.000470559350495031 0.09507840105706314 3.999984497490847 -0.01378947718619782 0.00760142934311754 -10.50333727944823 10.50334908194792
2237 2 -0.006418053269861146 -0.001067626511503169 0.07351499011836307 3.99961866540635 -0.004564452233912178 0.01080964883865465 -10.6012253079237 10.60123180163957
2238 2 -0.003246520159486587 -0.0004254315121421623 0.09321788833344943 3.99995324251569 -0.0557299757314061 0.0002418377865732227 -10.58846826910894 10.58861493183161
2239 2 -0.006135288476645391 -0.001367250439745058 0.07639538365467062 3.999667583509144 0.0006619386764816011 -0.002183047114081374 -10.6062588569574 10.60625910227752
2240 2 -0.005239594768546081 0.001128651713527908 0.07475146720174811 3.999639671465042 -0.0004203375319261129 -0.005615371982036185 -10.60117151078861 10.60117300633482
2241 2 -0.005241095051131527 0.001131473221968484 0.07795630148936131 3.999694103881049 0.0009290507979157972 -0.002863421995357308 -10.59989940470948 10.59989983218149
2242 2 -0.003927640260925709 -0.001416003015604344 0.07426800894730064 3.999631437159464 0.007364358587993747 -0.004205539546667889 -10.61516087847011 10.61516426609323
2243 2 -0.006749904951548898 -0.0002947111807449184 0.09076357364110697 3.999911582390244 0.03718483244366108 -0.1111977422264747 -10.56886423270327 10.56951459713049
2244 2 -0.006778572346541863 6.578496597529153e-05 0.07067975679837314 3.999570478886143 -0.003450772398407543 0.002145889937062487 -10.61038362018223 10.61038439831966
2245 2 -0.004999263717782946 -0.001836200185876258 0.06809864703543177 3.999526688521763 -0.0127422559406475 0.001843289620617541 -10.62106081263546 10.62106861612821
2246 2 -0.005444480731852859 -0.001730031687514319 0.07639930560996126 3.999667648120476 0.0007213042982482095 -0.002212988789364544 -10.60625885944635 10.60625911484268
2247 2 -0.005243743149195419 0.001766871304167136 0.09149985075609388 3.999924120825167 0.03906631125088379 -0.03535130422422773 -10.57395592362055 10.57408718358494
2248 2 -0.006451609091919214 -0.001028781136314812 0.09076509192865981 3.999911495596111 0.01542954008535543 -0.058014715592539 -10.5683188398623 10.56848933759792
2249 2 -0.00437722928739402 0.0009586323303756506 0.0676878396808679 3.999519611970582 0.1187027466862977 0.1055494535119793 -10.54785379687034 10.54904975575334
2250 2 -0.004387411363869457 -0.001723907864173938 0.08510773631080168 3.999815523334475 0.008035107646304537 -0.001452957352332258 -10.59510843610349 10.5951115825569
2251 2 -0.004526664550494681 0.0008336106807850555 0.06545675589142458 3.999482808029317 0.1793474927636859 0.3030664995372791 -9.986177209112808 9.99238460419266
2252 2 -0.00522008723230597 0.00106656402971059 0.06795205675244124 3.999524187638405 0.07107021273299935 0.1031032651675064 -10.54076822531624 10.5415120375714
2253 2 -0.003789680758900597 -0.001376168649496278 0.08040818692599103 3.999735738564024 -0.002921115798350968 -0.0026441175359249 -10.59683738317056 10.5968381156662
2254 2 -0.006394593753840344 0.001130006431969441 0.08901678956552245 3.99988195660116 0.01175220584888708 -0.03129772590606667 -10.53752646429806 10.53757949662877
2255 2 -0.004421147847901541 0.001645063201553712 0.09141818244523058 3.999922695311355 0.01573892666816879 -0.03288196179121205 -10.57522998323704 10.57529281559521
2256 2 -0.004524648001958181 0.0008344459625380571 0.09502120600654487 3.999983549222624 -0.004606468153127034 -0.0298722170147236 -10.4983631472091 10.49840665718262
2257 2 -0.005328746153433303 -0.00177252319668016 0.06868537694692838 3.999536653799303 -0.02360615815966658 -0.0008373758911241 -10.6036267295628 10.60365303901444
2258 2 -0.005447030236083684 -0.001733468200170203 0.07425297327737787 3.99963119595599 0.005615604880171558 0.002700622232038667 -10.58815396557621 10.58815579915246
2259 2 -0.003415965240514567 -0.0008019214050893901 0.07635158670350113 3.99966683729668 0.00106399760047858 -0.002024217794653861 -10.59310446869073 10.59310471552812
2260 2 -0.004269584932554439 -0.00162502541819287 0.07345849014695445 3.999617683259301 0.015347595186591 0.001115287034181129 -10.60040344256891 10.60041461159751
2261 2 -0.005803984233082819 0.001571241392286776 0.08913237650574637 3.999883907712227 0.03062643393739637 -0.02394453120732816 -10.53759270060875 10.53766441119441
2262 2 -0.003922583636829161 -0.001415607640806691 0.07637871361874933 3.999667296905862 0.00135257108312763 -0.001678771003432092 -10.59310506545329 10.59310528482809
2263 2 -0.00534619363188715 0.001664763513312077 0.08861599937081838 3.999875135184162 0.0765138829020664 -0.01529685241689355 -10.5835330730405 10.58382070313517
2264 2 -0.005740602887686358 0.00149362956988793 0.09325255001433647 3.999953680688978 -0.05451510052548605 0.01970200756183052 -10.42981741991365 10.42997849844483
2265 2 -0.006050399437205559 0.0006066840473409003 0.08764984696547684 3.999858755589091 -0.003115483570596681 -0.05047729777922281 -10.60387082825185 10.60399142804631
2266 2 -0.004374259335662782 0.0009736169893753125 0.06969361599985455 3.999553805338082 -0.08425556229160182 0.01784524971295801 -10.59831283480197 10.59866276456811
2267 2 -0.005028376386505364 -0.001784753209860386 0.07344537783416626 3.999617479036315 0.01464006042050341 0.0009823329254026922 -10.600439372967 10.60044952802928
2268 2 -0.003542081006641888 -0.0002443460733715536 0.06591634713949117 3.999489954481393 0.2915615768946487 -0.1792718056759676 -10.05292012713359 10.05874493244357
2269 2 -0.006080418597384732 -0.0009567292927020216 0.09467063438399628 3.999977629149999 0.0101309069624611 -0.0006661967050687028 -10.5024252441343 10.50243015152795
2270 2 -0.006223164369478579 0.001209526240986622 0.06731390409462842 3.99951335377036 -0.0316551974001981 0.1109927271387728 -10.64189288927748 10.64251876690169
2271 2 -0.006395732892562871 0.001123966132027958 0.08507298037348984 3.999814972015608 0.00375470079409474 -0.00541471265451599 -10.60110009565732 10.60110214341117
2272 2 -0.004161263784338054 -0.00166440909261715 0.06936494230898452 3.999548201307009 0.01151322939576452 -0.002126955950866086 -10.5817166657309 10.58172314286288
2273 2 -0.00605034574421507 0.0006012748309656283 0.08374018338306044 3.999792327963839 -0.0004804695167596279 -0.006549558969043258 -10.5983936816942 10.59839571632185
2274 2 -0.003540064458105392 -0.0002435107916185585 0.09458621355706312 3.99997627447837 -0.06915213984316425 -0.05524797630229999 -10.46278119229056 10.46315557731411
2275 2 -0.006555391407716448 0.0008536814270664231 0.07430537932397259 3.999632088873621 -0.001930111024193428 -0.005804731200129792 -10.60366551924007 10.60366728373508
2276 2 -0.006727288172995913 -0.0003546213264564177 0.06723880963075213 3.999512124548829 -0.07320911681591333 -0.04365859561099167 -10.61756120319972 10.61790335007094
2277 2 -0.004927351964342406 -0.001803233961933317 0.06644448587185503 3.999498587895328 -0.112425628477909 -0.08692820393652725 -10.64201148999453 10.64296033008457
2278 2 -0.003797743480070087 0.0003505003969617484 0.06993498035968793 3.999557920914603 0.0007597315099827722 -0.0608321037280991 -10.57664478088912 10.57681974617819
2279 2 -0.003930314199826248 0.001416281467275257 0.07842118148975682 3.999701999428639 0.0007683851143989042 -0.002659496705820327 -10.59916033710641 10.59916069861327
2280 2 -0.003419899595348114 0.0007923952796631505 0.07055634356077045 3.999568437129694 0.01740499833863057 -0.01013278179980027 -10.50410829358285 10.5041276006411
2281 2 -0.005168502020608399 -0.001872871218023948 0.08899765120479147 3.999881534651235 0.0002312203526638282 -0.01185367977954449 -10.57766312246685 10.57766976680508
2282 2 -0.006876896432763947 2.04526663348546e-05 0.0843541343642181 3.999802752942243 0.003314741647787968 -0.005472767746969464 -10.60273148112575 10.6027334116988
2283 2 -0.006024431796284183 -0.001417771170819433 0.06868259921491043 3.999536591121957 -0.0110029968414207 -0.01008599705493439 -10.60358150150541 10.60359200706741
2284 2 -0.00643738201129252 0.0009400722554298382 0.06663642401861146 3.999501706842359 -0.10652667861488 0.05026636576549815 -10.85835886493949 10.85899773830873
2285 2 -0.006402868225474745 -0.001082040722905999 0.06729287525760416 3.999513024176939 -0.06916417183130365 -0.05472442415753254 -10.61794338830773 10.61830966974369
2286 2 -0.003928369668554118 0.001414203336616103 0.08233877148249236 3.999768527549239 0.001735508246011313 -0.002678912333147246 -10.59733188456277 10.59733236527622
2287 2 -0.00392790386141311 0.0009981854553751141 0.0658110869178105 3.99948826899536 0.09960879406505638 0.3221886700419184 -10.01791373190359 10.02358832907762
2288 2 -0.006879166185290637 3.291511013530525e-05 0.08825804282549535 3.999869047721671 0.007795691270921584 -0.01510118227055146 -10.59179553204534 10.59180916610397
2289 2 -0.006162950253823546 0.001252252589849431 0.08117205491465272 3.999748719227862 0.0002544770423823907 -0.003137328898981433 -10.59837183396296 10.59837230137396
2290 2 -0.003268333200191957 0.0003990333113518883 0.09095355593662736 3.999914793742886 -0.004956343552291196 0.01092710927286048 -10.63736314995158 10.63736991699576
2291 2 -0.004296781915162433 0.001630306701451785 0.07557734428175865 3.999653700098178 0.004474840472688747 -0.004239115231064973 -10.59842176612834 10.59842355857881
2292 2 -0.006581892972506978 -0.0007476959382996145 0.09343298065247271 3.999956720134272 -0.02036537584477779 0.02483886411283438 -10.57673419886903 10.57678297173717
2293 2 -0.006305057441128217 0.001205278133454136 0.07713229346304711 3.999680110151369 0.001127749608290523 -0.002331949042956082 -10.60027001745392 10.60027033394612
2294 2 -0.003925096665095857 0.00141561036038964 0.07420874946577281 3.999630447456455 0.00618598236184765 -0.006446846846464632 -10.60279813835738 10.60280190284468
2295 2 -0.003334898258033833 0.0006997698741892702 0.09382452369760513 3.999963520808157 -0.07839774683380536 0.02863905434385085 -10.41634931921114 10.41668371133408
2296 2 -0.003932309343655717 0.00141830967052383 0.08629417312409712 3.999835672337738 0.006599139035136477 0.001283475436731768 -10.59002846538176 10.59003059927313
2297 2 -0.005012907796551992 -0.001790703978909561 0.07131578398319567 3.999581296942873 -0.00355458218714233 0.0005815077244710176 -10.59513925069476 10.59513986291915
2298 2 -0.004290978283736006 0.001611777611458883 0.07017991895055045 3.999562047948902 -0.0794630033945864 0.0267700849170353 -10.58330439546408 10.58363656468817
2299 2 -0.003542081006641292 0.0004207607475555604 0.06591634713949079 3.999490025926122 0.2886835809026041 0.06899503318206243 -9.99352453559357 9.997931344433068
2300 2 -0.004272580346375415 0.001052537010076834 0.08173891909098059 3.999758341267798 0.001723064147299082 -0.002680938829817027 -10.59732268557795 10.59732316477365
2301 2 -0.006554099426449483 0.0008647187403445448 0.0784811729319885 3.999703018940636 0.0004333666528215285 -0.002927246594701624 -10.5987754211706 10.59877583426451
2302 2 -0.00392685195742124 0.001000550826219021 0.09466517039240868 3.999977571029901 -0.001304917882545317 -0.03071778510235778 -10.49964317155464 10.49968818656565
2303 2 -0.005123041831351276 0.001725835549454199 0.07055893456714911 3.999568398087458 -0.03937220667230571 0.01322313721898231 -10.59986736205005 10.59994873171895
2304 2 -0.004208523940207998 -0.00162650868556393 0.06683040788292331 3.99950516152633 0.09119398976250663 -0.0551328426468447 -10.52586401168235 10.5264034297825
2305 2 -0.004296939217663115 0.001629769118037229 0.08703247366147587 3.999848200419678 0.004707302679513783 0.002418933615519448 -10.58614851471049 10.58614983766267
2306 2 -0.004254819527208535 -0.001630532173440664 0.07127879383694416 3.999580673397061 -0.004012044091917644 0.0004779332589247002 -10.59512923399875 10.59513000439603
2307 2 -0.006291399685510726 0.00122173144385807 0.08702770819095268 3.999848204920737 -0.002502389392401222 -0.02483376146999629 -10.63998478976672 10.64001406503434
2308 2 -0.003344355048109098 0.0007076854794679248 0.06665462838949079 3.999501974865996 0.2468991923403997 -0.1007920897814329 -10.37409183723442 10.37751895704916
2309 2 -0.003730177902880914 0.001285110187287479 0.0665493681678105 3.999500217935234 -0.02767520687769854 0.2314173870426238 -10.46847096006121 10.47106509223136
2310 2 -0.005158941509081102 -0.001876843045703337 0.08510126126542972 3.999815424986864 0.01129369979471286 -2.986974487075757e-05 -10.5950001377807 10.5950061570591
2311 2 -0.004225295832387966 0.001602386761770488 0.07140664085281104 3.999582831878263 0.04156551023764966 -0.01291552002045375 -10.61496051606989 10.61504975306388
2312 2 -0.003541029102649423 0.0004231261183994668 0.09458450896931325 3.999976248348279 -0.07046641015956646 0.06118869081004695 -10.49061287590449 10.49102798027614
2313 2 -0.006548761906311601 0.0008728718551739067 0.08239707568797265 3.999769520120707 0.0004752968844446739 -0.003511888672213174 -10.5981297018953 10.59813029441819
2314 2 -0.006412838887121158 -0.0001444675238566671 0.06580637293556579 3.999488105139114 -0.3488480341316473 0.2824290297483792 -10.01410941717098 10.02416323324968
2315 2 -0.00620385051879137 -0.001315351379705876 0.09386371208680944 3.999964021484596 0.001748481588146356 -0.01233061857463472 -10.54593416861749 10.54594152222343
2316 2 -0.004274055186162534 0.001054529607872061 0.07978817702733051 3.999725214155545 0.0004670514044063018 -0.00236737571394836 -10.5989548079279 10.59895508260615
2317 2 -0.004297202402565471 0.001630383202152301 0.07705489388412877 3.99967879581458 0.0003973328873715251 -0.003512401451640417 -10.59891131681843 10.59891190625808
2318 2 -0.006561715590883241 0.0008377626744601915 0.07077658774293172 3.999572094619701 0.009185323797354043 0.0451495208233226 -10.61044106226094 10.6105410976593
2319 2 -0.003720721112805651 0.001277194582008824 0.09390518512070056 3.999964843489779 -0.02273777695041349 -0.04065559131745652 -10.43155040585375 10.43165441114081
2320 2 -0.004972616057837561 -0.001801365761401179 0.09408805146903471 3.999967920974825 -0.05978907033197538 0.05783780343440236 -10.43610443508793 10.43643596849515
2321 2 -0.006735171335786737 0.0001419415768981395 0.06653782566009472 3.999500065647189 -0.07677922516333872 0.1327142999004407 -10.84200752056786 10.8430915891578
2322 2 -0.003729841856202129 -0.001336105602496386 0.06650168322240799 3.999499511999493 0.1718674972445435 0.00881835388435092 -10.60269795712005 10.60409450023396
2323 2 -0.003859811549237016 0.001389360450495399 0.07066737706038383 3.999570316278221 0.003488492018119121 0.006229180527172298 -10.50406222867055 10.50406465498237
2324 2 -0.003929948812226049 0.001416272216056188 0.07631661463604637 3.999666253526883 0.002298064596673931 -0.0039104032171784 -10.60204705962595 10.6020480298326
2325 2 -0.005338464581174787 0.001037165636108286 0.08397216427051049 3.999796269572509 0.003255826226296303 -0.004851307270864554 -10.59729031286041 10.59729192344118
2326 2 -0.003279844703808819 -0.0007618704598577482 0.08040818394670569 3.999735741386414 -4.252060783127437e-05 -0.0003896361127003734 -10.59683250850811 10.59683251575671
2327 2 -0.005233521908245688 -0.0002035374468601228 0.06506982861310487 3.999476890607585 -0.15419244481695 -0.07001304583905979 -10.05938676484502 10.06081205576197
2328 2 -0.006554799960383219 0.0008592969158900362 0.07640007333208185 3.999667671525971 0.0006343913455567398 -0.002622844630392896 -10.60118317697379 10.601183520415
2329 2 -0.005231505359709188 -0.0002027021651071212 0.09543273208344943 3.999990449553479 0 0 -10.50777081615381 10.50777081615381
2330 2 -0.005226508844991921 0.001653338897742786 0.08482587424948451 3.999810763279323 0.003115835198189933 -0.003241420325865575 -10.58909067337124 10.58909162790239
2331 2 -0.00607459132452979 -0.0009610693769044051 0.06583371392894113 3.999488655979184 -0.1297509085442218 -0.3192978718548766 -10.03152301132706 10.03744192292157
2332 2 -0.003167819685488893 -0.0004410285078114576 0.06929453665623092 3.999546949209921 0.0563907023013753 0.01570408514664856 -10.66257720838422 10.66273788735102
2333 2 -0.003344355048109807 -0.0007588202043593848 0.06665462838949117 3.99950195663216 0.2123993479405007 0.06512157790783343 -10.58748263016803 10.58981315921223
2334 2 -0.005122842312580218 0.001749391128493718 0.08728075213330125 3.999852467638466 0.07550889120020676 -0.01042238682707338 -10.5864611374576 10.58673555132542
2335 2 -0.004671795103318964 2.913741408902944e-05 0.06506982861310487 3.999476900039756 0.1406490189033499 0.05211428716937247 -10.06519332389948 10.06631087801863
2336 2 -0.006309153701551669 0.001200815363440312 0.07568273077435513 3.999655489107042 -0.0005261052106913095 -0.003532850349114933 -10.59878790807426 10.59878850992695
2337 2 -0.005058110752840605 0.001717342408603026 0.07129248659881898 3.999580881131339 -0.04032912389452611 0.01143652608441154 -10.63148313627208 10.63156577881173
2338 2 -0.005444579541947074 -0.001785859020902578 0.06689076189031919 3.999506147505423 -0.05399929674180511 -0.09400776442422411 -10.69418556131148 10.69473506934994
2339 2 -0.006361845212421917 0.001411370347638697 0.09497988659316126 3.999982743569258 -0.01577434808224419 -0.02144003676041976 -10.5566687853703 10.55670234255212
2340 2 -0.005582740319705105 0.001654468212074731 0.08678297637828605 3.999844035320946 0.01832632504269676 -0.01097242591077515 -10.64002080298724 10.64004224316432
2341 2 -0.006647576963190831 0.0007829726904117142 0.08435077519270687 3.999802701788666 0.002991202326806486 -0.006051488991808587 -10.60272884537516 10.60273099424676
2342 2 -0.003812024708760519 -0.001453865723248722 0.06860066035446262 3.999535170704766 0.05179609345576579 0.01011674385135754 -10.6645648766593 10.66469545708074
2343 2 -0.004669778554782464 2.997269584203107e-05 0.09543273208344943 3.999990449553479 0 0 -10.50777081615381 10.50777081615381
2344 2 -0.006072503825674199 -0.00140207967259918 0.06661923228032213 3.999501516115369 -0.03153239008431308 -0.1056053545918963 -10.69170544728744 10.69227347920445
2345 2 -0.005102292036450541 0.001170958430990433 0.08200091474548624 3.999762792683213 0.00150186638608608 -0.002654611545980088 -10.59739392913102 10.59739436803916
2346 2 -0.006355876537892263 0.001108953801714058 0.09364142636459094 3.99996017528169 -0.02626069865131123 0.02983815797712524 -10.48874043673206 10.4888157524624
2347 2 -0.006854986630551293 -0.0003986362998474139 0.08508830164128003 3.999815220153772 0.003151677323323232 -0.00667463744511748 -10.60068145821296 10.60068402804059
2348 2 -0.005580581714243582 -0.001810014059584622 0.0882673039285331 3.999869151423597 -0.00462632755473978 -0.01203127443944451 -10.58589171367626 10.58589956159376
2349 2 -0.005592051795533463 0.001647187997302736 0.0773566183257349 3.999683921001561 0.0008418353434939168 -0.002527577386453555 -10.60027875748135 10.60027909225245
2350 2 -0.004286370725740559 -0.001630651903754413 0.0908277723186237 3.999912554891129 -0.03950828134317382 -0.03573471237637421 -10.53637574495501 10.53651041440379
2351 2 -0.005131394892265058 0.001744026271249575 0.07537395610942653 3.999650249116753 -0.0006500466467511454 -0.003316727918579475 -10.598434697827 10.59843523673887
2352 2 -0.003313168806582668 -0.0008417279392616237 0.06855625540623092 3.999534356697195 0.05602506526476932 0.01457560387159383 -10.66457671617951 10.66473383594004
2353 2 -0.006647475125273789 0.0007911579039514055 0.08825670321940535 3.999869068727339 -0.01306693318623013 -0.05189822446437405 -10.59167372491499 10.59180893263753
2354 2 -0.005601529609815631 0.001666713014265433 0.06736088813894506 3.999514079986203 0.00819019542846049 0.1324565849748818 -10.63293808823953 10.63376622907139
2355 2 -0.005103313154453625 0.001171903417433341 0.08004985255689923 3.99972965983227 0.001209284713599656 -0.002388930745353127 -10.59917311851237 10.59917345671609
2356 2 -0.005110037267264691 0.0019293568769961 0.06539705171374099 3.999480932542577 0.0001971737999505912 1.109837835673801 -10.69694091072208 10.75436120408136
2357 2 -0.003728556959753053 -0.001335573336826171 0.09401622445329397 3.999966677439486 0.01857929520248686 0.05521082241409473 -10.51128556422488 10.51144698116316
2358 2 -0.003920142194395623 0.001385796833108139 0.06834749744717232 3.999530797577616 0.03342792117464266 -0.02518731276938694 -10.79578902332421 10.7958701577393
2359 2 -0.006282828119747234 0.001227100328441621 0.09080869771954965 3.999912414082632 0.05517095324057792 0.01728381589998419 -10.68076499678977 10.68092147153152
2360 2 -0.005129824297849046 0.001745471960748184 0.07684292327365078 3.999675196542487 -0.0003133154472638727 -0.003384398678183583 -10.59889939769998 10.59889994267735
2361 2 -0.004246041426219815 -0.001627910457307732 0.09371774215438097 3.999961703093875 0.03102008941469484 0.06508701267128497 -10.49982519815626 10.50007275008144
2362 2 -0.005193415500969195 0.001715247984569341 0.06861742627950301 3.999535405801601 0.02047653348943562 0.03880126068212772 -10.66052317725898 10.66061345510333
2363 2 -0.005614631403616879 -0.001701299595596549 0.09360502452561703 3.999959722465917 -0.1144822667281404 0.06623470739587066 -10.48723742523818 10.4880714165749
2364 2 -0.004211089185788703 0.001566963995856893 0.09346081830767772 3.999957356047694 -0.08261205699425338 -0.002948484562040114 -10.49453082033989 10.4948563870396
2365 2 -0.003134908920000091 -0.0003616663265299446 0.08112671010848828 3.999747941534734 0.0001323955842534346 -0.0001198821213603707 -10.59632220310466 10.59632220460992
2366 2 -0.003279535599681445 0.0008395655929204562 0.08038659150117483 3.999735375716399 -0.0003668845184576165 -0.0004801764585697444 -10.59795313997089 10.59795315719939
2367 2 -0.005064700702068749 -0.001778965948243774 0.09082283651830513 3.999912426855285 -0.01924866349957079 -0.03195101775672055 -10.53623707839677 10.53630310643943
2368 2 -0.00510330162113259 0.001932676171988471 0.09497988659316126 3.999982814280497 -0.08033237946763397 0.01223016999381095 -10.51328661624633 10.51360063648954
2369 2 -0.004291332321084587 0.001629534380502441 0.0734704683876093 3.999617918285452 0.01124828228457022 -0.009564722230958477 -10.59241986988764 10.59243016062679
2370 2 -0.006368580858554018 0.001408051052646326 0.06533514268097766 3.999479887702949 -0.827417256773941 0.5986735703199438 -10.6459572037584 10.69483212326694
2371 2 -0.00423985913635016 0.001577252489446526 0.06697347391027014 3.999507359565207 0.1239154949545432 0.1297989037089218 -10.62335399735886 10.62486955018716
2372 2 -0.005558112712245037 -0.001816107641094546 0.08436816933401323 3.999802975644451 0.002881314119861124 -0.0005417735959678743 -10.60949094698754 10.60949135207245
2373 2 -0.006276001156855968 -0.001434075207307202 0.08826490338353699 3.999869120329318 0.006757693486078303 -0.0167995247304247 -10.58582724811711 10.5858427353438
2374 2 -0.006316941836009527 0.001184438971209073 0.07148559532809239 3.999584145389326 -0.001846096432086215 0.03634656144844801 -10.65064083116478 10.65070300942973
2375 2 -0.003342338499573153 -0.0007579849226061994 0.09384793230706312 3.999963863583504 -0.06677128218270896 -0.06280384250528721 -10.47932168583459 10.47972259756721
2376 2 -0.006547966857504156 -0.001132208389652667 0.08509194443450929 3.999815278804923 0.0001822922638766246 0.002971206141049576 -10.60073126899601 10.60073168695285
2377 2 -0.005597183684612247 0.00164508054444986 0.07590125585323625 3.999659203273366 -0.0003088227545921996 -0.003384171384609854 -10.59879904007325 10.59879958485135
2378 2 -0.005601049349826744 0.001632791116621097 0.07170080366704669 3.9995878159166 -0.02694021950503977 0.01963239870054866 -10.65109397710375 10.6511461409372
2379 2 -0.004351308928894657 0.001608213994071674 0.06884441433733894 3.999539327724713 -0.07897244840497801 0.02955318440144508 -10.65425505358246 10.65458871965984
2380 2 -0.003134186478587805 0.0004388661614704516 0.08112487275117483 3.999747911258718 3.417989324087314e-05 -0.00135171990439496 -10.59632212312537 10.59632220939658
2381 2 -0.006259560563183597 -0.001446326487289371 0.08436141988286608 3.99980286495289 0.003616843891913944 -0.0008427689881507287 -10.60948561849246 10.60948626846831
2382 2 -0.006303098158806746 0.001209891427658726 0.07921326907616261 3.999715453673629 0.0003553291228973007 -0.003033535618702466 -10.59903453689482 10.59903497696306
2383 2 -0.005129044590007598 0.001741501344578717 0.0732514687678642 3.999614196505813 -0.01837720876399935 -0.004246066408175902 -10.59244729753085 10.59246409018461
2384 2 -0.003314642620840412 0.000761101120486009 0.06855343567832677 3.999534305536981 0.0295701370595174 -0.02189848228514061 -10.79581037686019 10.79587308325057
2385 2 -0.004295737963607553 0.001629069283034638 0.08307709671646005 3.999781068279321 0.002875487126837291 -0.003434194567792301 -10.59959159080147 10.59959253716424
2386 2 -0.00631204426702807 0.001195255217943173 0.07356962877480501 3.999619586804154 -0.0001754448217108606 -0.002544264334175454 -10.60960463864274 10.60960494516038
2387 2 -0.004297098098680658 0.001630306920507447 0.07915755866692467 3.999714506683089 0.0005328886402432756 -0.002504263294398791 -10.5987068816174 10.59870719086762
2388 2 -0.005450796722814829 0.00169011425859165 0.08138806585288226 3.999752388495912 0.001315745902508707 -0.002063005663158565 -10.59838250686836 10.59838278932559
2389 2 -0.004999145398581838 0.001735506591300018 0.06674531709569143 3.99950353417433 0.0404787672655833 0.1451143452294117 -10.67200951279543 10.6730728351767
2390 2 -0.006296031721503615 0.001215993396102895 0.08312855622520993 3.999781945678056 -0.0004606323950303258 -0.004778186079910425 -10.60087744816497 10.60087853502043
2391 2 -0.00341448291621997 0.0008006891410617878 0.09021531294384878 3.999902208605017 -0.00357791207827117 0.007119293337890318 -10.63031567144923 10.63031865752158
2392 2 -0.004988590860130026 0.001786584051859066 0.08087906707712091 3.999743744099846 0.001197924487807814 -0.002147542478526077 -10.59822414118763 10.59822442646947
2393 2 -0.003169293499746751 0.0003604016890359796 0.06929171692832677 3.9995469512606 0.06474827868062202 -0.0904393204711627 -10.66257721383558 10.66315733970409
2394 2 -0.005590208527847451 0.001649691618060693 0.07943780744638489 3.999719268062407 0.0012251261517635 -0.002446487290961839 -10.59904940417795 10.59904975733387
2395 2 -0.006107376271681034 0.002040869184643696 0.09267101749175036 3.999943880970564 -0.09105638477240603 0.08701427187321137 -10.46738074017125 10.46813843567353
2396 2 -0.004914095620487366 -0.002003791708639868 0.09530813271088456 3.999988397829588 -0.05760763941541439 0.01361422933450577 -10.4636446696504 10.46381210458514
2397 2 -0.006859663409957466 -0.0003864838189660374 0.08891763459695326 3.999880227384057 0.00729519458762732 -0.018481121484513 -10.58596846834541 10.58598711431856
2398 2 -0.004905617360916608 -0.002006758664833027 0.06519160157184854 3.999477541725136 -0.1175218842006761 -1.247318448370705 -10.84028476889844 10.91244191625887
2399 2 -0.002938893419712418 -0.0002187787109263662 0.0653465185263863 3.999479636987715 1.862830328312478 -0.1780928136259529 -11.14786177972885 11.30383457691616
2400 2 -0.005128204149895434 0.001746428794595112 0.07893003616489858 3.999710644179606 0.0009182421357101704 -0.002576068188974708 -10.59869705861469 10.59869741145503
2401 2 -0.002938893419712423 -0.0002187787109263727 0.0951534814736137 3.999985824924891 -0.01830939778145541 -0.05520997310737807 -10.42737530484433 10.42753753880824
2402 2 -0.005124727212262602 0.001746624329058784 0.08284506751365225 3.999777130997427 0.001478432246749976 -0.003175798379623957 -10.59958033822814 10.59958091709336
2403 2 -0.005597421911121492 0.001641296894263706 0.07378636167369559 3.999623274695392 -0.001663154928638424 -0.003582016850207397 -10.60960183158228 10.60960256662063
2404 2 -0.005584150558463332 0.001651884201245553 0.08336053711265996 3.999785887286726 0.00271808175341174 -0.002652571807661024 -10.60091266505513 10.60091334537887
2405 2 -0.005784420504602362 0.001797193202410512 0.09539141267006582 3.999989714611352 0 -2.165385918520172e-15 -10.54806644588468 10.54806644588468
2406 2 -0.003791668106744982 0.001454289863661605 0.08038384477260568 3.99973533078325 0.001311656700966983 -0.002083344574458645 -10.59795832683442 10.59795861277477
2407 2 -0.005290347867432396 0.001766676564146698 0.09039055071179923 3.999905238595987 -0.01232758830319419 -0.01743604273021177 -10.62562697196513 10.62564842879588
2408 2 -0.005791156150734464 0.001793873907418141 0.06501012443542128 3.999474271911292 -0.4058491255900578 1.171654344064926 -10.9115022208953 10.98172883162353
2409 2 -0.00636874735978126 0.0007301973579313171 0.09558847392309544 3.999993028957906 0 0 -10.57245294038315 10.57245294038315
2410 2 -0.004972044687971674 0.001738818368825317 0.09361221624945165 3.999959798199169 -0.08830168560001209 -0.00171371115050315 -10.49144419287552 10.49181592369535
2411 2 -0.005432679044860046 -0.001545103455831383 0.09563202806465373 3.999993806986083 0 0 -10.50419701660821 10.50419701660821
2412 2 -0.005626516752791522 0.00166422082561102 0.0908497119931833 3.99991307270355 0.01941626652468859 -0.006379051508035404 -10.68042975509174 10.68044930876753
2413 2 -0.006559414177465313 -0.001120062384796067 0.08892077040235671 3.999880256378587 0.006802968097259414 -0.01684970563983206 -10.58597242436389 10.58598802013057
2414 2 -0.003652905089066931 -0.000887769008044438 0.09564566897361371 3.999994047937368 0 0 -10.48416473186678 10.48416473186678
2415 2 -0.003652905089066927 -0.0008877690080444315 0.0648543310263863 3.999472355336722 1.055462063780242 -0.4521752268250898 -10.92969643703208 10.98984653257293
2416 2 -0.007059748514099951 -0.0001186653312382233 0.09519434815898856 3.999986401568342 0.02249359675896905 0.06530476593684041 -10.53188021380911 10.53210669867967
2417 2 -0.005424932437376866 -0.001548373428107513 0.06485235923893172 3.999472241199046 -0.4706272161298971 -1.163868508590191 -11.09122126131572 11.16204591234564
2418 2 -0.004548476963565209 0.001484178043230243 0.06488692727831971 3.99947280899358 0.2967924434402662 1.064680563259107 -10.88581022748164 10.94177749568181
2419 2 -0.006924168330613722 0.0005622187220582969 0.09558847392309544 3.999993028957906 0 0 -10.57245294038316 10.57245294038316
2420 2 -0.004036956196156079 0.00175814114559881 0.06488692727831971 3.999471715737545 0.99694974387677 1.450795384740578 -11.2711305827903 11.40776492808785
2421 2 -0.004158610450418509 0.001668343867407916 0.08110774169023875 3.999747625273633 0.001443426559609714 -0.00213789875561482 -10.59823431520334 10.59823462912786
2422 2 -0.004548476963565209 0.001484178043230243 0.09558847392309544 3.999993099669145 0 0 -10.46521073034697 10.46521073034697
2423 2 -0.003121951681470827 -0.0006607204491679591 0.0648543310263863 3.999471227960557 1.847572384306376 -0.2240893139855812 -11.19513326124021 11.34877739991498
2424 2 -0.005960920768022362 -0.00176326660747263 0.06485235923893172 3.999471174036593 -0.9507756034804316 -1.429322657589712 -11.38129578185477 11.51003176284662
2425 2 -0.00636874735978126 0.0007301973579313171 0.06482501824555638 3.999471754721782 -0.911237170911519 0.4847444779126037 -10.75195101325866 10.80137866117245
2426 2 -0.003121951681470831 -0.0006607204491679655 0.09564566897361371 3.999994047937368 0 0 -10.48416473186678 10.48416473186678
2427 2 -0.002938893419711823 0.0004463281100007478 0.06534651852638593 3.999479708432443 1.944273456804424 0.06748987005687918 -11.14786197829943 11.31634131884544
2428 2 -0.002939858064256453 0.0004478581990916525 0.09515177688586382 3.999985798794801 0.02047950493289995 0.06175369228926608 -10.42737523692186 10.42757820686111
2429 2 -0.003508739180786677 0.001467224645152798 0.09523243830895928 3.999987121476423 0.01395847680369802 -0.006806262594882976 -10.47431343261674 10.47432494478669
2430 2 -0.00596866737550554 -0.0017599966351965 0.09563202806465373 3.999993806986083 0 0 -10.50419701660821 10.50419701660821
2431 2 -0.003695316817533392 -0.001578829105719097 0.06519357335930312 3.999477646430641 0.8506128987593938 -0.7838127544441362 -10.77689229881963 10.83878740256137
2432 2 -0.006546189297233357 -0.001373938950251425 0.09523790230054685 3.99998717959652 0.006991970820006949 -0.003509384571725631 -10.49921312527804 10.4992160399454
2433 2 -0.006924168330613722 0.0005622187220582969 0.06482501824555638 3.999470329060951 -2.407225396894969 0.05225278750926433 -11.64535838249784 11.8916708801611
2434 2 -0.003507774536242047 0.001465694556061893 0.06524125830470563 3.999477989511279 0.9330331744706801 1.481964634155926 -11.31555688936848 11.4502662762962
2435 2 -0.004036956196156079 0.00175814114559881 0.09558847392309544 3.999993099669145 0 0 -10.46521073034697 10.46521073034697
2436 2 -0.003696048469620975 -0.001579132121802075 0.09532177361984454 3.999988638780873 0.02972924692011961 0.04812931114647938 -10.4619725706941 10.46212551677094
2437 2 -0.006538345475841915 -0.001377443752700807 0.06526388531583627 3.999478398699218 -1.271686439150949 -1.268255691879215 -11.13471798782931 11.27863482731816
2438 2 -0.007059651300191688 -0.000118900161411475 0.06523654432246093 3.999477493250238 -2.426781524817907 -0.004511165369236131 -11.60074523810807 11.85185972745617
2439 2 -0.00312195168147023 0.0008882698482423396 0.06485433102638592 3.999470954145553 2.207296761092097 0.8606203334372314 -11.82109346916895 12.05616345097735
2440 2 -0.004224498477446833 -0.001871275695255067 0.06483924233291682 3.999471439904799 0.4774534842182648 -1.38792513612282 -11.24055830909376 11.33598028902708
2441 2 -0.00692416833061373 -0.0008000190448812496 0.06491152607690456 3.999471619214352 -2.627643312339999 -0.5876755257247219 -11.91643937493415 12.21684899132759
2442 2 -0.00312291632601486 0.0008897999373332442 0.09564396438586384 3.999994021807278 -2.165388243542221e-15 1.08269412177111e-15 -10.47977581069013 10.47977581069013
2443 2 -0.006924265544521994 -0.0007997842147079979 0.09560587423589312 3.999993372610437 0 1.082693946553058e-15 -10.49501652089454 10.49501652089454
2444 2 -0.004225230129534412 -0.001871578711338038 0.09567610464623083 3.999994590843505 0 -1.082694275353834e-15 -10.42318420457154 10.42318420457154
2445 2 -0.003980146506315905 0.001422866117861554 0.09049596687961102 3.999907002677846 0.01848776489879765 -0.01904728967194239 -10.63041512068204 10.63044826123152
2446 2 -0.004466572922250657 0.001647129959010656 0.09011847390909025 3.999900594084095 0.01833137869810011 -0.01899561061939601 -10.63054429664732 10.63057707350117
2447 3 -0.005231762745781208 -0.002764877161664096 0.064375 3.136511396703147 -0.2172451870639973 -3.771795525228991 -2.152667381837867 4.34828860728777
2448 3 -0.005231762745781211 0.002764877161664095 0.064125 2.250305916046212 0.2631049773249191 -3.633122453730049 -2.960193939837755 4.693777919154545
2449 3 -0.003277591031954394 0.002038014802923904 0.064125 2.499866925933133 -3.045887336442421 -3.316662143306449 -8.131680451465737 9.295262470952203
2450 3 -0.006722408968045608 -0.002038014802923901 0.06425 2.656639190994924 2.214172309486548 0.3022020456212921 -8.131693942387118 8.433168530577936
2451 3 -0.003487770024414778 0.002309365451903678 0.06425 2.896575417979568 1.057714364613944 2.331461046842298 -2.770632274043086 3.772382998586282
2452 3 -0.003112770024414777 0.002036912003901668 0.064375 3.209426980477791 1.709668055256938 2.836442222842309 -1.915442102732611 3.825870854016035
2453 3 -0.006887229975585222 -0.002036912003901669 0.064375 3.090941567622929 -2.161746226060849 -3.08723576242547 -2.391650476470616 4.463649112585936
2454 3 -0.006512229975585222 -0.002309365451903678 0.064125 2.229609565811117 2.232696960615103 3.070840393836662 -2.152667381837867 4.364512950970306
2455 3 -0.00311277002441477 -0.002036912003901662 0.064125 2.233375021971656 -2.125967198926825 2.984786380043214 -2.48116255432088 4.425477814470248
2456 3 -0.00348777002441477 -0.002309365451903674 0.06425 2.486454945079969 -1.756656627677247 2.698730960378493 -2.965599984811082 4.377644866132852
2457 3 -0.004088040156576465 -0.0007822641564568732 0.064375 3.334191052036073 2.584133528791259e-06 -1.107080210533319e-06 -8.131733727661892 8.131733727662379
2458 3 -0.005091708699744782 -0.001197997279164433 0.06425 2.668914712012316 -2.497622259167553e-06 -2.531603946368952e-06 -8.131733727661894 8.131733727662672
2459 3 -0.006887229975585224 0.002036912003901666 0.064125 2.242367612324062 2.111858980839814 -3.042647098323705 -2.48004463743823 4.457383887840217
2460 3 -0.006512229975585225 0.002309365451903678 0.06425 2.508785676478849 1.74581746135025 -2.759123775072992 -2.960193939837756 4.407197610271253
2461 3 -0.005860901681129245 0.0006589988485761569 0.06425 2.668914404026571 -2.168534280776251e-06 1.271752329040896e-06 -8.131738326456654 8.131738326457043
2462 3 -0.00485723313796093 0.001074731971283714 0.06425 2.668915178909037 -2.867471288046815e-06 3.15388875650736e-06 -8.131738326456652 8.13173832645777
2463 3 -0.003277591031954392 -0.002038014802923903 0.064375 2.914085653045527 2.19771738483939 -2.743997937230409 -8.131693367410135 8.859115272121251
2464 3 -0.003834191603142668 0.001622658176020848 0.064125 2.0036444367023 -8.80103768577275e-06 -9.071011473006871e-06 -8.131680451465739 8.13168045147556
2465 3 -0.006163685361035773 -0.001627783637894666 0.06425 2.668915832612591 3.52177594029054e-06 1.062271423265859e-05 -8.13169394238712 8.13169394239482
2466 3 -0.006722408968045603 0.002038014802923908 0.064375 2.924200968961714 -2.212706931275913 2.689317630681769 -8.131709483100217 8.846083901928258
2467 3 -0.003740145010738774 -0.0009971573358219937 0.06425 2.668917700004744 -1.505476819866227e-05 -6.186147038752267e-06 -8.131693367410136 8.131693367426426
2468 3 -0.005185755292148685 -0.00159594872028796 0.064125 2.003640510799783 1.240307046828196e-07 6.530952602023062e-06 -8.131702903542161 8.131702903544785
2469 3 -0.003900161828606221 -0.0004414408980427359 0.064125 2.003642933448753 -9.204830439534796e-06 3.28444181600904e-06 -8.131727982397955 8.131727982403827
2470 3 -0.005465557176701262 -0.001089848881699447 0.064375 3.33419054166375 -1.152257048904829e-06 -2.849549807275169e-06 -8.131738026446454 8.131738026447035
2471 3 -0.003026133341384265 -0.0003281670387039285 0.064375 3.334193776152179 4.523492836814802e-06 -5.486477364734346e-07 -8.131672870456953 8.13167287045823
2472 3 -0.006071124536514287 0.0003721200512916447 0.064375 3.334190606026556 -2.231021803371325e-06 1.18682109797045e-06 -8.131738026446454 8.131738026446847
2473 3 -0.00478765410879339 0.00153175333541069 0.064125 2.003641075520055 -4.376347022739533e-06 -6.630931606600196e-06 -8.131701711592182 8.131701711596063
2474 3 -0.004505729188419248 0.001020528034948354 0.064375 3.334191390341193 7.266497237804944e-07 2.606703284756639e-06 -8.131727982397955 8.131727982398404
2475 3 -0.006626545507346749 0.0002041414154186246 0.064375 3.334189180365725 -5.893717275879781e-06 1.27932829577763e-07 -8.131738026446454 8.131738026448591
2476 3 -0.004276133341384259 0.001805716437779257 0.06425 2.668916268391907 -1.00752539596427e-06 -4.773130813192016e-06 -8.131701711592182 8.131701711593646
2477 3 -0.003994208421010118 0.001294491137316921 0.064375 3.334190297085159 2.440875667532213e-06 3.552045802795769e-06 -8.131727982397955 8.131727982399097
2478 3 -0.00572174362279418 -0.001810841899653077 0.064125 2.003642698562511 5.620125318145422e-06 9.569518342377339e-06 -8.131702903542161 8.131702903549733
2479 3 -0.006001545507346757 -0.001304742061064564 0.064375 3.334189474501297 -2.327825814135317e-06 -3.499473658050908e-06 -8.131738026446454 8.13173802644754
2480 3 -0.006233264390203296 0.000932961950944727 0.064125 2.003639721109076 4.122317678912769e-06 -3.338141725201494e-06 -8.131709483100217 8.131709483101947
2481 3 -0.005581099796576663 0.001402899009987644 0.064375 3.33418993693014 -9.936575336117908e-07 2.868610753823476e-06 -8.131738326456654 8.131738326457221
2482 3 -0.006971743622794169 0.0003230415768301164 0.06425 2.668915928537331 1.096091307302484e-05 -6.853483649717895e-06 -8.131684840221023 8.131684840231298
2483 3 -0.003209191603142674 -0.0007701087769455214 0.06425 2.668921551497016 -3.733044323017351e-06 -2.926091902489508e-06 -8.131693367410136 8.131693367411518
2484 3 -0.003369208421010122 -0.0002143923391662634 0.064125 2.003646784941024 -1.482184533519459e-05 1.667039867287377e-06 -8.131727982397955 8.131727982411634
2485 3 -0.004369965076950611 -0.001521038855994538 0.064375 3.334190309727274 1.168970331010582e-06 -3.398118056354386e-06 -8.131733727661896 8.13173372766269
2486 3 -0.006115646222264402 -0.002222175863704545 0.064375 3.083276170431984 -0.8616624454427564 -2.080235041580445 -8.13169394238712 8.437670672096711
2487 3 -0.005905467229804015 -0.002493526512684321 0.06425 2.656246545248178 -1.671863966254131 0.04650017318464025 -2.152667381837867 2.726035261069434
2488 3 -0.003884353777735602 0.002222175863704549 0.064125 2.173683975940902 -0.5839263995829396 -1.409710856727743 -8.131680451465739 8.273601495386153
2489 3 -0.002884353777735604 0.001324722415702538 0.064125 2.329830838959758 -3.032099237835352 -1.255934613946773 -8.131680451465741 8.768992217315592
2490 3 -0.002719532770195987 0.001323619616680302 0.06425 2.812719070641589 1.68359171210566 -1.060849182465575 -1.915442102732611 2.762028328951294
2491 3 -0.002701295515977197 0.0008827806774609466 0.064375 3.15180909277271 1.695388430961201 0.7022527501872324 -8.131672870456953 8.336162458176318
2492 3 -0.006788685361035759 0.0007649833150717067 0.064125 2.003642671280666 1.306192701739437e-05 -7.536933252604359e-07 -8.131709483100215 8.131709483110741
2493 3 -0.004599560923985594 -0.0001723437823422556 0.064375 3.334191800032374 3.443567007678662e-07 1.275935237315404e-07 -8.13173372766189 8.131733727661898
2494 3 -0.005161287728912316 -0.0004050186432914078 0.06425 2.668915529016844 -2.010534601506622e-06 -8.478343912118896e-07 -8.131733727661894 8.131733727662187
2495 3 -0.005953462505650715 0.001676862112356214 0.06425 2.668915254012645 2.493990607661933e-06 -5.551316690803201e-06 -8.131709483100218 8.131709483102496
2496 3 -0.005511520767409123 0.00185992037411462 0.064125 2.003641907154853 1.087635779306255e-06 -7.462793415688081e-06 -8.131701711592184 8.131701711595682
2497 3 -0.00226823725421879 0.000440838939219355 0.06425 2.330068477614619 -1.720385720893645 -0.9569899253342786 -2.778357355072639 3.405117668793883
2498 3 -0.00241147450843758 0.0008816778784387108 0.064125 2.28819682926942 -1.720385720893645 -1.201669777648395 -1.915442102732611 2.841241934804042
2499 3 -0.002411474508437575 -0.0008816778784387048 0.06425 2.363788266515694 -2.017580521645406 0.8708522646728984 -2.48116255432088 3.314390207741535
2500 3 -0.002268237254218788 -0.0004408389392193527 0.064125 2.074364092760134 -1.720385720893645 0.8585574861231416 -2.778357355072639 3.378774567519867
2501 3 -0.005324913350483755 -9.991448541910448e-06 0.064125 2.003639246778425 -1.532254101943698e-06 8.054904881349883e-07 -8.131738326456654 8.131738326456839
2502 3 -0.004763186545557032 0.0002226834124072418 0.064125 2.003640077937392 -3.345422374444965e-06 5.445159857590991e-08 -8.131738326456654 8.131738326457342
2503 3 -0.00567370448402281 -0.002405234125462955 0.064125 2.241888348038044 0.8181472894942141 1.975178283651265 -8.131702903542161 8.408048902747312
2504 3 -0.00239323725421879 0.000440838939219355 0.064375 2.854590680977191 3.632929794490673 0.7824077257633018 -8.131672870456953 8.940606490230836
2505 3 -0.002393237254218788 -0.0004408389392193527 0.064375 2.801875932920013 3.632929794490673 -0.9651098308069257 -8.131672870456953 8.958444036178594
2506 3 -0.00320919160314267 0.0009976581760208479 0.064125 2.003646477804217 -1.704915433944647e-05 -5.049165203701482e-06 -8.131680451465739 8.131680451485179
2507 3 -0.007115646222264399 -0.001324722415702531 0.064125 2.242281862930495 2.218298218009683 0.9188478587654344 -8.131693942387118 8.478772006855598
2508 3 -0.007298704484022804 -0.0008827806774609372 0.064375 3.103220610339258 -2.147040296433135 -0.8893319837850158 -8.13168484022102 8.457244926840598
2509 3 -0.007280467229804013 -0.001323619616680298 0.06425 2.676584239558499 -2.136147269108331 0.738706945008902 -2.391650476470616 3.29071498424362
2510 3 -0.002719532770195984 -0.001323619616680298 0.064125 1.995734415646452 -2.111849194374759 0.8747521056272326 -2.48116255432088 3.373613179818443
2511 3 -0.00402206993111292 -0.001735932035359659 0.06425 2.668916957695946 -4.652041788632564e-06 1.065504834985695e-05 -8.131693367410136 8.131693367418448
2512 3 -0.004464011669354514 -0.001918990297118066 0.064125 2.003643500590248 -6.26658691980646e-06 8.0412268436308e-06 -8.131702903542161 8.131702903548552
2513 3 -0.003026133341384264 0.0005557164377792561 0.064375 3.334193430892446 5.404222239930703e-06 2.107094808491864e-06 -8.131672870456953 8.131672870459022
2514 3 -0.002701295515977196 -0.0008827806774609455 0.064375 3.099094689975264 2.18541437274273 -0.9052269475507869 -8.131672870456955 8.468741079953281
2515 3 -0.005905467229804012 0.002493526512684324 0.064125 2.080267208442407 0.8580307768505299 -2.071474375414465 -2.960193939837755 3.71348502938596
2516 3 -0.006626545507346754 -0.0006797420610645598 0.064375 3.334188865844995 -6.433374216830962e-06 -1.438831730712672e-06 -8.131738026446454 8.131738026449126
2517 3 -0.007606762745781212 0.0004408389392193609 0.064375 2.799950370309321 -3.636196120492959 0.970985050438623 -8.13168484022102 8.960414752428802
2518 3 -0.007606762745781209 -0.0004408389392193493 0.064375 2.805734656273257 -3.636196120492866 -0.9509375066157835 -8.13168484022102 8.958264492012745
2519 3 -0.007588525491562423 0.0008816778784387099 0.06425 2.360297983181395 2.015444082289919 -0.8653441674672598 -2.48004463743823 3.310809082489231
2520 3 -0.007731762745781212 0.0004408389392193548 0.064125 2.073500987778576 1.73226629922807 -0.8536292649045304 -2.763222420500079 3.37117599636938
2521 3 -0.007731762745781209 -0.0004408389392193554 0.06425 2.282183451178728 1.73226629922799 0.7933816720377035 -2.763222420500079 3.3564265453188
2522 3 -0.007588525491562418 -0.0008816778784387105 0.064125 2.15303267985506 1.732266299227985 0.8987409968875693 -2.391650476470616 3.08682262407959
2523 3 -0.003884353777735607 -0.00222217586370455 0.064375 3.149183996913643 0.6353317557604735 -1.533827117337288 -8.131693367410136 8.299440287594031
2524 3 -0.006971743622794175 -0.0005608418996530678 0.06425 2.668915614016601 1.603096722379517e-05 7.866203163733572e-06 -8.13168484022102 8.131684840240625
2525 3 -0.00678868536103577 -0.001002783637894662 0.064125 2.003643313660823 1.49966429844602e-05 4.863290687450976e-06 -8.131693942387118 8.1316939424024
2526 3 -0.00336920842101012 0.0006694911373169211 0.06425 2.668919047605785 -1.188080892198246e-05 1.05354113578401e-05 -8.131727982397955 8.131727982413459
2527 3 -0.005535136205868797 -0.0002968702458264226 0.064375 3.334191358668279 -3.775156205081504e-07 -1.714157816302814e-07 -8.131738026446454 8.131738026446465
2528 3 -0.004411682596015351 0.0001684794760718819 0.06425 2.668916289369548 4.488253101080161e-08 -1.814449073098271e-06 -8.131727982397955 8.131727982398157
2529 3 -0.002884353777735605 -0.001324722415702538 0.06425 2.433822465320101 2.185414411640386 -0.9052327610765586 -8.131693367410136 8.468761392548132
2530 3 -0.007298704484022801 0.0008827806774609572 0.064375 3.097436638896052 -2.200812447513669 0.911604050674905 -8.13168484022102 8.473422904294248
2531 3 -0.005673704484022797 0.002405234125462959 0.06425 2.495682444648771 -0.5949030262670593 1.436218117302384 -8.131701711592184 8.278961578449351
2532 3 -0.006115646222264388 0.002222175863704554 0.064375 3.160955791506563 -0.5949019731712807 1.436220881621901 -8.131709483100217 8.278969615600232
2533 3 -0.007280467229804012 0.001323619616680306 0.064125 1.992510325381821 2.097313550516328 -0.8687310604387525 -2.48004463743823 3.36214800213146
2534 3 -0.007115646222264391 0.001324722415702547 0.06425 2.432163381639387 -2.200812494279166 0.9116110401046033 -8.131709483100217 8.473447317412074
2535 3 -0.004094532770195985 -0.002493526512684321 0.064125 2.056279900850615 -0.8160848474796047 1.97019601918017 -2.965599984811082 3.652731868367932
2536 3 -0.004326295515977201 -0.002405234125462957 0.06425 2.483910539807946 0.6353304635453292 -1.53383050933222 -8.131702903542161 8.299450158940836
2537 3 -0.004768237254218785 -0.002764877161664094 0.064125 2.294522560535683 0.001980243298240944 4.11757268021756 -2.965599984811083 5.074366164177457
2538 3 -0.005000000000000001 -0.00267658477444273 0.06425 2.722153199493015 1.39513526194607 0.4606160321753736 -8.131702903542161 8.263362610928938
2539 3 -0.004999999999999998 0.002676584774442731 0.06425 2.665721152252576 -1.131507580638904 0.02766015626188842 -8.131701711592184 8.210094226962257
2540 3 -0.00476823725421879 0.002764877161664096 0.064375 3.062431103190694 0.314224513694877 3.822628787099221 -2.770632274043088 4.731556941106765
2541 3 -0.004326295515977192 0.002405234125462957 0.06425 2.838955807630509 -0.5839235186814072 -1.409718418938601 -8.131701711592184 8.273623476003442
2542 3 -0.004094532770195986 0.002493526512684323 0.064375 3.235665758568628 0.9222675865933567 2.226548574941431 -2.770632274043087 3.672124624222825
2543 4 -0.003886393277136203 0.000407151614803805 0.05974297508004143 1.338152503181415 -2.217521257997893 -0.9034121294058911 -11.7186576684578 11.96078975468322
2544 4 -0.003877147436567878 -0.0003941844167017668 0.06021944451469528 1.338176494722719 -2.217319008265758 -0.5653089790083763 -11.7157508383453 11.93712258177626
2545 4 -0.004373705724401463 -0.001005844229486422 0.06021939495175209 1.338171750200617 -1.483097889743503 0.3255533723714694 -11.70750110640485 11.80555574741379
2546 4 -0.004407629424970488 0.001023477878225811 0.05962098458673128 1.338139970225293 -3.17485071193582 0.20757438067024 -11.7083010872115 12.1328924216523
2547 4 -0.003417114150376572 0.0008081662729500727 0.06036755782580153 1.338190126811454 -1.187050341660161 0.5432004981128037 -9.986798515614003 10.0717575371062
2548 4 -0.005899112477241756 0.0007587755273251191 0.06001334117068938 1.338143824383133 -2.892278292350696 -0.6245521771522796 -11.71600728714858 12.08388041545047
2549 4 -0.005213182141819457 0.001147709649782088 0.06000138948695693 1.338151494270385 -1.898919638351804 0.00632924817400261 -11.71026425709591 11.86322994901973
2550 4 -0.003938350298210857 0.001424492536372079 0.06024556733249138 1.338177593855333 -1.915170748205221 1.38199459668977 -9.982986370001713 10.25854789547237
2551 4 -0.005177526749522638 -0.001147829007675642 0.05995514408876453 1.338150338691533 -2.024063117787271 0.2180417108672916 -11.70830178921454 11.88396838096555
2552 4 -0.005908596801810743 -0.0007018921072542915 0.06004377520627274 1.338148306972083 -1.798735984418209 0.08132530326589839 -11.70954558393239 11.84717361773612
2553 4 -0.006171188100514561 6.261892317383839e-05 0.05997151782502875 1.338139380518635 -2.139569208323261 1.33759067466586 -11.69788478375517 11.96692999996946
2554 4 -0.003408952897057754 -0.0007974155552196871 0.05959918017210615 1.338150718495534 -3.568430655602846 1.195383585179031 -9.483326407500634 10.20275056103796
2555 4 -0.00390551118489134 -0.001409075368004343 0.05959913060916296 1.338145973973432 -3.483851646492694 1.290724217052356 -9.487148532724245 10.18867894190543
2556 4 -0.005874759705531829 -0.001602040320093203 0.06090055296370827 1.338199203960671 -1.03077542873254 0.2407048872581578 -12.53293891581237 12.57755917078958
2557 4 -0.005312918664264085 -0.001763378002026489 0.06060166152416889 1.338186207321651 -1.984971488865809 0.3500263163951337 -11.91269238248128 12.08200604342701
2558 4 -0.006215685958815331 0.001304580328891021 0.05939923981070153 1.338102618525965 -3.147089736029574 1.328746661437096 -13.91070668057812 14.32401835554478
2559 4 -0.006348797393277937 -0.001156134714382324 0.06071990634541663 1.338184262366583 -1.462621993313963 0.708221448911954 -12.79937301690629 12.90212348188985
2560 4 -0.005529755623393032 0.00169351445134799 0.05938728812696908 1.338110288413217 -3.42045262933315 1.173221184813943 -13.93112098867865 14.3927786107899
2561 4 -0.005193243620146567 0.00176821689866628 0.06067838537567619 1.338189336460612 -1.838388351507058 0.1069208400754755 -11.57210983984206 11.71771436511271
2562 4 -0.004926575765958194 -0.001393204598860698 0.06247036058878588 1.338288129600544 -0.3422275458163856 0.317728275403771 -10.41686140629593 10.42732336259331
2563 4 -0.00506149012954947 0.001319323979305726 0.0626269885871369 1.338295566293267 -0.7144207319383845 -0.2930777064085119 -10.46092298139708 10.48938516534399
2564 4 -0.005421044874138204 -0.0009251269215933383 0.06296914647402299 1.338311816304445 -0.1768232194430134 0.2233840065560525 -10.47353344346708 10.47740758282995
2565 4 -0.004362333455837146 0.0009990403277029024 0.05744713678377013 1.338038361978596 -13.20496601240416 2.132974873017022 -11.85872687402688 17.87596465286387
2566 4 -0.005880483895438638 0.000978915876106199 0.06239239657706106 1.338280923274267 -0.5513940934992594 -0.2244103131466628 -10.45967470820302 10.47660204629413
2567 4 -0.0058445598409568 0.0007543811813335908 0.05745245307079389 1.337960203223215 -7.52736054589968 5.57170383375202 -11.61815422418405 14.92268568240783
2568 4 -0.005797279563466436 -0.001641128850230932 0.06153721652347583 1.33823653247495 -1.023878950798351 0.1011255144670139 -11.70168034801486 11.74682414283457
2569 4 -0.004092535045055776 -0.0004558437015438478 0.06298881037484344 1.338315641683114 -0.868495817948685 0.2339692100800114 -10.37397552615985 10.41289560086066
2570 4 -0.006246113618910409 -0.001268677477384925 0.06185646227371462 1.338252754279763 -0.7733007819414341 -0.1060720943000593 -11.94853020648697 11.97399764004787
2571 4 -0.003827529913196967 -0.0003916181815785913 0.05745145025707982 1.338067795263254 -8.327083175962899 5.732675632163813 -11.67548120673981 15.44411685827142
2572 4 -0.006606646916544728 -0.0008581929701474083 0.06134616169684577 1.338219925913857 -1.431954298731085 0.6866382908155725 -12.85366809338746 12.95139948851225
2573 4 -0.00589284445914081 -0.0007181923932789115 0.05744085708575195 1.337961037158785 -13.13814752590892 2.708170657587439 -11.87403927893682 17.91474023034938
2574 4 -0.004386610514172187 0.001642718341301236 0.06079527395866295 1.338201589190124 -1.185618440637772 0.09960569749816613 -11.45284205260999 11.51447799354301
2575 4 -0.003840219970791344 0.0003825669989687392 0.05743751716716283 1.338062849863306 -8.321282121840431 -3.377888031960983 -11.35529618661068 14.47745195790273
2576 4 -0.004371786678529451 0.001620114225086056 0.05697454481731247 1.338002995721585 -13.36129331728877 2.792085513744877 -12.72948088409271 18.66439348613213
2577 4 -0.00415979274180249 -0.00115659623976036 0.06249002448960633 1.338291123820245 -0.93246844234877 0.1093585593917911 -10.40925923396191 10.45151350237419
2578 4 -0.005921108634763039 0.0002825910068751562 0.06280392265396562 1.338301469622141 -0.3758071645959921 0.2319858226441095 -10.56243147410535 10.57166056454901
2579 4 -0.006129204180574433 2.744354703229643e-05 0.05748102296148351 1.337951721059759 -11.18897147777126 -4.121377390758695 -11.51044141025763 16.57314381119073
2580 4 -0.004540388063947148 0.0008556739710238353 0.06303851466404146 1.338316943800109 -0.5201173297047004 -0.3981509148717543 -10.40899830885758 10.42958733514765
2581 4 -0.00477867625608389 -0.001813236951242243 0.06114065706726549 1.338219431691188 -0.9831714205785832 -0.03157667979982095 -10.95665341095242 11.00072166254037
2582 4 -0.006511423141764845 -0.0008870279741621481 0.05932612311801055 1.33809359852822 -4.984490504390018 -0.8173988771617816 -16.20387509380353 16.97288586447001
2583 4 -0.006092516174361661 -0.0009372555079450429 0.06255762039711843 1.338290136846357 -0.4186655319439519 0.2893345963997481 -10.5712915037695 10.5835343526622
2584 4 -0.005184015749693929 -0.001147581712550586 0.0574177673709589 1.33800393676301 -10.69650011265635 1.00158858475736 -11.659401115651 15.8543346983977
2585 4 -0.005023172553592456 0.001305225777195944 0.05520633734369009 1.337793939593455 -55.49674033968777 -2.907304151721695 -26.0882219696859 61.39166011194801
2586 4 -0.003258948698933742 -0.0003981048929784302 0.06109673377724299 1.338227535852225 -1.045268017283757 0.1420326956068902 -9.753520910638633 9.810399006607364
2587 4 -0.006428785811142217 0.0009896378502851123 0.05674126841024615 1.337796032181825 -34.46025658049392 2.419634449191993 -45.53473868531852 57.15572011270118
2588 4 -0.005146098357724243 -0.001768687667836881 0.059254334542022 1.338112272644622 -2.021178494031967 0.3130369650298564 -11.5538568049734 11.73348889785313
2589 4 -0.00584244795594078 0.0009680929003388352 0.05530088897762524 1.337627355845568 -37.01405239434111 5.576295383928833 -27.06165800668771 46.18948450600829
2590 4 -0.003561581637459676 -0.0002287951426673754 0.06248881037484344 1.338292912919601 -0.9226277997486334 0.1760324392858841 -10.33940363143872 10.38197943218721
2591 4 -0.00648444692114839 0.0009913383651666311 0.06082428874461356 1.338187605451315 -1.011441993383655 -0.4302116440520093 -13.92966355618971 13.97296045057373
2592 4 -0.006774014440468663 -0.0001225169437340181 0.05925386573676655 1.338084672074773 -4.992774311625938 -0.7915106152548332 -16.20522194108662 16.97537930476866
2593 4 -0.003268198737634051 0.0004101223965083612 0.0588727107374523 1.338128496158063 -6.847167185060887 2.074803772353631 -4.101634275798632 8.246933544436603
2594 4 -0.003209331175562831 -0.0003955386578552547 0.05682873951962752 1.338119824402071 -28.58272247764921 -1.970247941602817 14.26722623918253 32.00636883099553
2595 4 -0.00524852886081837 -0.0001809408661194916 0.06337026434258913 1.338331458446978 -0.2095770364444269 0.1101725289384858 -10.50943494302388 10.51210175664167
2596 4 -0.004686802055891647 5.173399482966067e-05 0.06337026434258913 1.338332289605945 -0.4575769393290315 0.007447728024844013 -10.51163696134856 10.52159416301768
2597 4 -0.003941018776717845 0.001019278329984453 0.06268311778400665 1.338301214508683 -0.6220050380456922 -0.3780496948055869 -10.36808617533278 10.39360489811997
2598 4 -0.006756522544421196 0.0002951817610153503 0.06078246539895293 1.338183161586818 -0.7818026548769954 0.1340323718162358 -13.94058657674211 13.96313482608794
2599 4 -0.003222021233157209 0.0003786465226920758 0.05681480642971053 1.338114879002124 -28.75280373002313 4.029668360788366 14.26717351306188 32.34987155286687
2600 4 -0.006428954313415058 -0.0001245647742260457 0.06239239657706106 1.338280162512603 -0.3861799146431468 0.2089830701845539 -10.57122086597291 10.58033645246117
2601 4 -0.003556479361066243 0.0004423869126667511 0.06251486746255433 1.338293831551007 -0.9271508564737946 0.05557092984531761 -10.31510281827323 10.35683556837958
2602 4 -0.00671343015075985 0.0002627002159838179 0.05676983830093578 1.33778755001837 -29.67411915705362 14.20454944613638 -45.22476939848987 55.92497062906101
2603 4 -0.004965171316343178 0.001775773068593557 0.06192669521330847 1.338260010939024 -0.5697709084563868 0.09418022645341646 -11.32761693599167 11.34232843166444
2604 4 -0.004888456786993083 -0.001388252769628915 0.05540031341720623 1.337961427053755 -38.4691345501825 -0.3532015515862451 7.679400278948122 39.22973684617826
2605 4 -0.003267114150376657 0.0004019643527183743 0.06111755782580153 1.338227321085524 -1.046758329219445 0.4521888842956794 -9.753519345408314 9.819944878059403
2606 4 -0.005512274617450982 0.00170467004065608 0.05816056781402017 1.338017820364067 -8.12701548306512 -0.1333348004818641 -19.81953866490983 21.42149088464329
2607 4 -0.004340539917063038 -0.001006502919367652 0.05722900491033569 1.338038997126461 -12.24035600494845 0.789767214524519 -11.7503159344156 16.98587566007701
2608 4 -0.004165839763139898 -0.001596742544441933 0.06109789832906268 1.338221401457811 -1.693213530894579 -0.2544494226349016 -10.82355684579399 10.95815218748205
2609 4 -0.005149213010737677 -0.00177778455805841 0.06173958876164254 1.338250228337643 -0.5902943191146482 -0.02231085397682008 -11.5392440761667 11.55435411465014
2610 4 -0.00562108000435887 -0.001677157717508484 0.05873061022085201 1.338065561500369 -6.56460493190998 -0.3141326116827153 -16.92065784204329 18.15217284562045
2611 4 -0.005536184617540461 0.00172931534306383 0.06138884979208179 1.33822695775237 -1.515172862043836 0.02504217851308569 -12.20919504418949 12.30287850625373
2612 4 -0.005405791421789713 -0.0009290498324831491 0.05502087005903266 1.337752914481285 -99.46546000230634 35.96496743864478 -12.12025486372374 106.4601202060884
2613 4 -0.006163414777422197 -0.001288726393168835 0.05679774054296841 1.337875294813536 -16.74229075289228 -8.487879055620619 -28.07201459776416 33.76960755019682
2614 4 -0.00608506330046856 0.001341556480249719 0.05607296345498453 1.337707621187175 -35.47851180460881 0.9473431661797922 -43.54683635978542 56.1778356283882
2615 4 -0.004094253485424507 -0.001152191074082717 0.05527505458694684 1.33813503623953 -50.68328348983613 -4.729907327023779 8.248067088475411 51.5674108263089
2616 4 -0.004049861315294414 -0.000460313275987799 0.05489561122877325 1.338186258702179 -53.09610689616195 -9.418385333063037 9.848069821708231 54.81684986410615
2617 4 -0.003931066382111549 0.00142172983651653 0.05815586091940622 1.338082667570501 -7.638251425089711 2.803921109739261 -3.495350990477041 8.855638710401147
2618 4 -0.006255334736111366 -0.001241434924255102 0.05871376767933236 1.338048919103418 -4.825586594155241 -1.448553371692598 -17.05658688703173 17.78515530107049
2619 4 -0.003408952897065748 0.0008052565077823669 0.05814624130279893 1.338107155455211 -6.720450702505937 1.722030924202641 -3.45247022057197 7.749154713429007
2620 4 -0.006707955202677571 -0.0002019830070993079 0.05606174873439259 1.337644717960143 -31.07589331741501 6.472109332104625 -53.72734559614359 62.40374195102024
2621 4 -0.005510290552975448 0.001727373708681351 0.0563115561490746 1.337836425971553 -24.79522961800252 6.798210174909189 -41.21407653609064 48.57591150060331
2622 4 -0.003746863307966494 0.00131043876486972 0.06193041126721906 1.338264669018661 -0.5812301005020682 -0.3150754982945626 -10.52228575017823 10.5430355404769
2623 4 -0.005883072695265182 0.0002717680311077927 0.05495280194126847 1.337550547740957 -45.87087849038848 -19.31063259670567 -33.6868793686187 60.09861784068585
2624 4 -0.004249913781989504 0.001603283495196932 0.06158551477342543 1.338244842955843 -1.110294879334253 0.1473767024712072 -11.00716992626587 11.06400761013834
2625 4 -0.00639429955077354 -0.001007773675940752 0.05612981685215678 1.337723146656283 -29.50861436412939 1.459130725330588 -53.1219992875802 60.78514779511668
2626 4 -0.004956245484751359 0.001762241514982736 0.05585645611468473 1.337884165938057 -54.88247517162281 0.4557406210673658 -16.65553610171015 57.35591219144593
2627 4 -0.005454586067975315 -0.001718115712440509 0.05677465082817535 1.337918194417761 -19.69571968409392 -6.764312271138007 -28.72640434589627 35.48074972460138
2628 4 -0.006751780768984169 -0.0001713875251778635 0.06148097813162608 1.338227751587538 -0.9891538336161469 -0.6044841175041117 -13.06578708528696 13.11711166808165
2629 4 -0.0063909183739172 -0.0001353877499934092 0.05526110436634367 1.337500239796546 -33.47846259300622 4.727472635783688 -45.63986717615306 56.79924234503743
2630 4 -0.00335926071726541 -0.0007377039534789138 0.06171527980949729 1.338256582196279 -0.9900702769563536 0.3071313042735115 -10.02064017251567 10.07411525933727
2631 4 -0.003268198737626165 -0.0004022814439458138 0.0588727107374523 1.33813076841635 -6.866038046302502 -0.8990036040198657 -4.101641240406442 8.048238738899157
2632 4 -0.003701188747930092 0.001287827788818623 0.05598859240200836 1.338107230627683 -37.17787863416099 8.970433855728265 21.49058803912781 43.86922289674053
2633 4 -0.004502070487990134 0.0008415757689140534 0.05485825030733332 1.337976866523964 -107.7929463345144 21.90959307260854 -6.687860498461625 110.2001679950157
2634 4 -0.006141457583119986 0.00134137093202115 0.06152280147728671 1.338232896630326 -0.440097311302629 0.5828242778191119 -12.48092662138677 12.50227575726404
2635 4 -0.003518907907698314 -0.0002332647171113264 0.05539561122877325 1.338239942398422 -28.22657798444336 18.59665230804691 27.53553125048829 43.59794333480499
2636 4 -0.006329231094178074 0.00142382839605235 0.06302213223447192 1.33831402868822 0.3609484050707869 -0.7323265918813036 -11.34127718676464 11.37062681716922
2637 4 -0.004351523173163507 -0.001637770698596264 0.05904211597035569 1.338111964870688 -3.974493747658167 0.2550897075972268 -11.01856833957019 11.71625023473272
2638 4 -0.006198060788307015 0.001313702789776866 0.05816734018903127 1.337991351443423 -8.211646242982269 -0.1832813116658714 -19.81857800751004 21.45322260870966
2639 4 -0.00607726272201317 -0.0009411784188348537 0.05532917248410786 1.337578668492686 -32.60329596594912 2.361182576858772 -45.71905831848163 56.20304604319289
2640 4 -0.005189514823672175 -0.001754923565834452 0.05804594630244158 1.338038224793475 -10.0678971498166 0.04424953311279106 -9.75165569977692 14.01639397018568
2641 4 -0.003362323892314892 0.0007335473475520173 0.06176216094576673 1.338257286060984 -0.9091340169041564 0.09855154136952611 -10.40153556553541 10.44165596005234
2642 4 -0.004232822498954878 0.001579950918437186 0.05628189964367458 1.338012007995237 -20.74996944174042 -1.372180275968002 8.664521388049591 22.52816107512741
2643 4 -0.00509631639158995 0.001779554088294178 0.05876650284335073 1.338078317945535 -3.781843618953336 0.5664380026090637 -12.33802804439732 12.91704800615653
2644 4 -0.003691364179665727 -0.001304193584479569 0.05606251824221045 1.338147998771635 -44.52224872662202 -9.568707089003427 32.41895144581119 55.89972450626394
2645 4 -0.006369855833502476 0.0007275035268213073 0.06343365831137648 1.338334575036094 0.5638393352086953 -0.4565818934329263 -11.49042282694846 11.51330528403541
2646 4 -0.004311548370514138 0.001642921988664531 0.05876033986074945 1.338091475317232 -3.237837613513383 0.4808592521722762 -12.33947918874914 12.76626666968284
2647 4 -0.003520360362653022 0.0004301583549969889 0.05539808739369232 1.33821193193333 -27.97040377998734 -3.362065800696737 22.36298178504006 35.96873542928328
2648 4 -0.003769593493637979 -0.001324681792157761 0.06171649392426019 1.338255192323967 -1.117048589823352 0.1390051917430422 -9.983718124114651 10.04697703675753
2649 4 -0.003396262839463485 -0.0007813325132191386 0.05816017439271592 1.338114373113445 -6.539512040903912 -0.02457247090452992 -2.484961332326484 6.995774035988542
2650 4 -0.003903509668124251 0.001006468377082282 0.05521506183666174 1.338162315501012 -37.21484258760212 8.888136000879266 21.24169769528834 43.76246326897229
2651 4 -0.006532598264871554 -0.0008898114533093948 0.05805219347571498 1.337978682792299 -6.106227806517962 1.442953298651416 -24.31012142853163 25.10677470558763
2652 4 -0.003303896929909778 -0.0007260904859223164 0.05618307488403688 1.338189802925041 -27.47664529437604 14.46205537958956 36.42924829987678 47.86655632202245
2653 4 -0.003318039442458863 0.0007115177667333294 0.05617161795903895 1.338156847060002 -27.86140933807524 -2.53553598924657 24.21086263424254 36.99801268380117
2654 4 -0.005211601395041728 -0.0001944576729968646 0.05454127586436391 1.337713064224922 -103.2837134430615 22.754676963211 -7.336590574351247 106.0147458967109
2655 4 -0.00646803289786828 0.000999652714957994 0.05878522690209428 1.338044179137639 -7.208050845088617 1.115174906130615 -22.68142870304668 23.82533987308546
2656 4 -0.004933381226456045 -0.002015233817156142 0.06310009624619675 1.338321712829992 -0.4363405972304621 1.000405371927551 -10.93250134585659 10.9868462127277
2657 4 -0.004649874590115005 3.821718795228763e-05 0.05454127586436391 1.33797279926004 -107.9589564946718 20.83085202966955 -7.020629695301629 110.1741799380371
2658 4 -0.004932189713267574 -0.001996765181046986 0.05485903755284233 1.33790124322479 -45.35259927162578 -35.99800793645187 -22.69529810163895 62.19157010405655
2659 4 -0.006754285756248807 0.0002687120464842356 0.05868167617381993 1.338030676550944 -6.510966158240628 2.964968916333781 -22.69190702737081 23.79298984002265
2660 4 -0.00410980842918485 -0.001588526494201569 0.05648573753105697 1.338049222111872 -16.8019095719369 7.469204314583316 6.483581440836454 19.49692300483576
2661 4 -0.006768957986305177 -0.0001441755129981871 0.05809235935144654 1.337969366693273 -6.420655086398713 2.431399863088891 -24.30188816192559 25.25308466836211
2662 4 -0.005449524348064205 -0.00153756224390122 0.05447959419466875 1.337692730652321 -115.4817330457667 -19.41733347222802 -63.28341039056345 133.1084277462772
2663 4 -0.005068295590047316 0.001947294761010282 0.06325672424454777 1.338329251235732 -0.6063163686739829 -0.9057796221261362 -11.11534340323796 11.16865771857508
2664 4 -0.005427850334636055 -0.001547156139888782 0.06359888213143386 1.338345399533893 0.01696471769487072 0.893293055580374 -11.21932376847349 11.25484278462515
2665 4 -0.006328122620456859 0.00142652222716236 0.05475961311326133 1.337275913726798 -103.3147361899942 54.93602494231821 -117.4252436984319 165.7727040501759
2666 4 -0.007060759773912904 -0.0001215939925214849 0.06302213223447192 1.338314614887754 1.738309414885031 -0.243135746153624 -11.97582523394818 12.10376902650599
2667 4 -0.006925276804334938 0.0005595248909482871 0.06343365831137648 1.338337525207684 1.786578583617557 -0.1030883384766 -11.9135919729056 12.04724715185388
2668 4 -0.004870513383263053 -0.001776088948541503 0.0561778680704621 1.337952171791944 -40.24584320066671 1.663295033521324 -1.446580712481425 40.30616629076636
2669 4 -0.002943387097957524 -0.0002258243609628192 0.06311854603225431 1.338328638963984 -2.025589066424802 0.2331184050337026 -11.10944858923296 11.29500788904529
2670 4 -0.005066905479866943 0.001946713365777873 0.05466506147932618 1.337610749490424 -59.46515007332746 49.29658244716164 -89.42753418050339 118.1674277617071
2671 4 -0.003657398767312032 -0.0008948146580808845 0.06361854603225431 1.338350074093766 -1.25902610690012 0.4492421690483324 -10.87862119505385 10.96044544577373
2672 4 -0.003724656464058746 -0.001595567196297397 0.0631197601470172 1.338325556230898 -1.167298815898309 0.5976958667914949 -10.81869735081576 10.89789150447577
2673 4 -0.006541263373101102 -0.001376226464482076 0.0631873560545293 1.338324199161196 0.683427977203119 1.35168151975572 -11.67911211920291 11.77691711033857
2674 4 -0.005963838665281549 -0.001762049319253899 0.06359888213143386 1.338347587296621 0.7687128403384312 1.308905266103827 -11.62250481536699 11.7212102877546
2675 4 -0.0059855126787097 -0.001752455423266336 0.05447959419466875 1.33735288228648 -129.8822617881308 -27.39008296392133 -70.2323124612784 150.1738868300001
2676 4 -0.00636874735978126 0.0007301973579313169 0.05441152607690456 1.337199105622187 -118.6721010726416 34.05151952768904 -132.7649481842407 181.2983867040851
2677 4 -0.004249344445727081 -0.001880968135796913 0.06350121411476289 1.338344285179615 -0.8571328346687914 1.099864989809942 -11.10620245200416 11.19339593675575
2678 4 -0.003651652503327311 -0.0008857674256474625 0.05435433536440935 1.338492638102836 -142.2311936147788 39.7083450781444 133.9619752949282 199.379727983686
2679 4 -0.002937640833972803 -0.0002167771285293972 0.05485433536440935 1.33850746430714 -101.1776349292682 17.52091152032475 77.34691325422764 128.555206585888
2680 4 -0.003126445359715932 -0.000667766099204412 0.06361854603225431 1.338353925586037 -2.027320769260571 0.2280164493494031 -11.10466709021782 11.29051159988846
2681 4 -0.006562937386529253 -0.001366632568494514 0.05478789661974395 1.337267624305889 -66.17516368169296 -59.3598161822428 -102.2034740407313 135.4558606022011
2682 4 -0.002938284821564091 0.0004453576943713073 0.0631446031199652 1.33832955759539 -2.079340892650429 0.07104004355117724 -11.10945621442639 11.30259804717009
2683 4 -0.004547193524444994 0.001483644752728392 0.06366825032145233 1.338350628742574 -0.5985919538032946 -0.9069715644821398 -11.10974432093057 11.16276527668598
2684 4 -0.006924168330613722 0.0005622187220582967 0.05441152607690456 1.336860934913775 -152.150986922131 24.35545912038249 -148.5363421436066 214.0237280017
2685 4 -0.004035672757035863 0.001757607855096959 0.06366825032145233 1.338354270373162 -1.203799573149528 -1.240726392626663 -11.50004420561193 11.62925415169451
2686 4 -0.005750697912637303 0.001812345081934175 0.06358847392309544 1.33834582790341 0.1487650973483212 -1.020749050461918 -11.54104548986864 11.58705271746984
2687 4 -0.004545803414264621 0.001483063357495983 0.05431697444296942 1.337793676420932 -102.5423230414044 55.86035216813187 -55.57097900214141 129.3191426909871
2688 4 -0.003696044673457404 -0.00157764522374238 0.05473377872258293 1.338441415640187 -115.6160903515514 82.78577180097331 113.7688681785832 182.1096365585764
2689 4 -0.007059651300191688 -0.0001189001614114753 0.05471982850197976 1.337066935222989 -151.1487374113872 27.33706789094003 -150.408523575515 214.979022386131
2690 4 -0.002939093288927511 0.0004466459435789181 0.05485681152932842 1.338479453842049 -107.9041885877035 -2.769021278829554 77.34529471830011 132.7903460673027
2691 4 -0.0035058824989741 0.001464190849930601 0.06331285344141753 1.338336358342833 -1.367457591770956 -1.160901000953209 -11.36802152889793 11.50867259421316
2692 4 -0.005750697912637304 0.001812345081934175 0.05434808703635677 1.337226435928687 -102.6318760518436 55.85692093123757 -118.1756700253949 166.1890086130564
2693 4 -0.003120699095731212 -0.00065871886677099 0.05435433536440935 1.338731355832511 -88.72307480611856 55.13022677338896 115.7704517804871 155.9292256525232
2694 4 -0.00403428264685549 0.00175702645986455 0.05431697444296942 1.338351653672643 -335.5631708754723 -72.59654632809624 102.431873719931 358.2808799539053
2695 4 -0.00422647891911046 -0.001872093395675319 0.05437944335817357 1.338262906234228 -170.6789456716065 -6.392660728222384 52.08534042561906 178.5638577484536
2696 4 -0.003121343083322498 0.000887299432612899 0.0636446031199652 1.338355555640941 -2.331973246555708 -0.6906218301531393 -11.75263029490964 12.00164057884436
2697 4 -0.00692416833061373 -0.0008000190448812496 0.06358847392309544 1.338346791475319 2.051218525627586 0.6651936679394536 -12.46786395710237 12.65296849393678
2698 4 -0.003505300856157147 0.001464897703905803 0.05467378597229783 1.338625158887578 -193.0928824128514 -142.1144462060529 221.8938452443969 326.6776019507623
2699 4 -0.00692416833061373 -0.0008000190448812496 0.0543083024250752 1.336889603341114 -164.058278026507 -10.20451150783431 -177.5148364299452 241.9313286800335
2700 4 -0.003122151550685918 0.0008885876818205097 0.05435681152932842 1.338859809353329 -159.5791245363452 -158.4974309912977 208.7488370311535 306.8599184978166
2701 4 -0.005158773670100767 0.001145348432212805 0.0574456806957828 1.337986672143859 -13.09379587460269 2.116935407755227 -11.85067977486302 17.7867230554905
2702 4 -0.005168226892793072 0.001766422329595959 0.05697308872932513 1.337951305886847 -12.60330220522791 2.884110045277131 -12.94917690712982 18.29870213435137
2703 4 -0.004367974889195992 -0.001640995623600669 0.05831972018655475 1.33807809629597 -4.477259238867547 0.4031608281432568 -8.691532357459895 9.785250311879933
2704 4 -0.003909272843329555 -0.001396217251008199 0.05793772904597178 1.338085574976653 -9.694385962375886 -3.740498622743702 -2.852659824040598 10.77544046459139
2705 5 -0.005144666132627614 9.954299123541888e-05 0.03543916603811866 1.13720312161604 -0.9627784896592214 0.1205673843611379 199.1602038026812 199.1625674107457
2706 5 -0.006017043582786792 -0.002014465471890338 0.04235608081283902 1.00006768947212 0.3326023506743113 -0.09194972803153517 0.4948958129435219 0.6033249056919333
2707 5 -0.005042572119921806 -0.0005091222805139982 0.03472672443417054 1.154674433929736 -0.253391566728766 -0.4315169831655374 209.4606397307841 209.4612374894749
2708 5 -0.00510731268964217 0.002898202972858011 0.04192881513575058 1.000026753506356 -0.115084994675721 0.02967696586235533 0.2118732979913077 0.2429312098187872
2709 5 -0.005375106150080237 0.002999321105613003 0.04274585085116316 1 0 0 0 0
2710 5 -0.004868674806880113 0.002355259863968665 0.04253021244389207 1.000026753506356 -0.2712891631223236 0.1212292161247607 0.04672563999044781 0.3007949771893666
2711 5 -0.003156815045982007 -0.001500778752210432 0.03833174636700534 1.047617290110807 49.48375451574456 12.67900021043556 186.3876359613548 193.2608337107475
2712 5 -0.005510523768732835 -0.0002073299500879823 0.0362823793285442 1.112761333493547 -42.89863174971279 -12.40578278762151 208.6170453948804 213.3430750736023
2713 5 -0.0036422886629061 0.002515545199137922 0.05154831842523205 1.281343554738831 -32.47255729426692 45.48766556116703 -505.5583909084833 508.6382617473924
2714 5 -0.002327110896957646 -0.001592579163674633 0.03885141434912519 1.026486548896544 21.40939784894252 0.9132166395249294 143.4043268388168 144.9965421552501
2715 5 -0.004221620012273244 0.002305210344849649 0.0427391256041043 1.000026753506356 0.1846938284172041 0.07244776894585668 0.20221694797193 0.2832881634091303
2716 5 -0.00549314923159064 -0.0004258461489096166 0.0432510450008173 1 0 0 0 0
2717 5 -0.004480845314995083 -0.000276447419564846 0.03472672443417054 1.154727332022315 -0.8918816756194985 -0.6960399092920723 209.5601897724 209.5632435851357
2718 5 -0.005499932554103715 -0.002268582030711632 0.04314732895361416 1.000000001404417 2.897258720021806e-06 7.979400855882936e-06 2.588010838572859e-06 8.874837813175986e-06
2719 5 -0.007308628449732641 -0.0009048552496614964 0.04710644208170998 1.032616302523632 4.04062030659092 -60.71903668503322 -176.7489578776992 186.931330009908
2720 5 -0.004673470865996246 5.980531075458489e-05 0.04314104216683567 1 0 0 0 0
2721 5 -0.003508199327170666 0.001959345033490654 0.04781807387525727 1.070144568868591 38.42867254703663 -25.3918173060588 -303.5334868183704 307.0082814517378
2722 5 -0.002130483478509449 0.001257835279046582 0.0485058841020049 1.108122374788017 -8.431623539944963 18.79414524416264 -451.7226021396308 452.1920183448368
2723 5 -0.0069134890288213 -0.002502998816376695 0.04234888403027121 1.00006768947212 -0.4069696120291673 -0.1418024498524411 0.4856123849323353 0.6492700426625239
2724 5 -0.00373118348028846 0.00196560108143978 0.05235307713737017 1.304932747484415 -50.01989507028482 -28.79608684745196 -256.5318412283606 262.9444619773939
2725 5 -0.008234658601206845 -0.0006495646301524523 0.04714406409631021 1.032173457906372 -58.75243758823354 -15.53516912892176 -164.8628799821493 175.7070277434344
2726 5 -0.002599139710787126 -0.0008737047603252188 0.03934731184632836 1.018637590762453 10.08261100991528 -28.97765530937784 88.86150919420119 94.00920895464168
2727 5 -0.005958244721422899 -0.002787042787024938 0.0416970448617916 1.00006768947212 0.4713469146627886 -0.3661071959177584 0.00566418219529468 0.5968538144511063
2728 5 -0.00458293932770089 0.0003322178521845711 0.03543916603811866 1.137256019708619 -0.7131704104090842 0.1970718608559598 199.1489423175101 199.150316784924
2729 5 -0.006283320809339759 0.0003557962718143435 0.03602261479895227 1.11941442350992 2.9186206966789 -49.1570543676505 221.1350266119935 226.5516151687343
2730 5 -0.005634390669839461 0.002240175345876663 0.04123053522234103 1.001130169000676 4.865711061678712 1.335219731520618 8.013532944906355 9.469670856280279
2731 5 -0.005141545155032262 -0.001203564531532147 0.04372928442212339 1 0 0 0 0
2732 5 -0.005917463173234537 0.0006626692131377447 0.03517940150852673 1.143856211632413 5.571238917606657 -4.67979765305866 204.215716023448 204.3452908195347
2733 5 -0.004147836615513577 0.002100500945912539 0.05081210179860006 1.241821386312316 -53.50388217574348 4.641833057577679 -651.3195995459237 653.5299784819917
2734 5 -0.007079039906044683 -0.001367315275851498 0.04628357455849566 1.009534839980688 -25.01850864413806 -3.39735121416043 -74.12956021153985 78.31129846456054
2735 5 -0.006173588380857157 0.002812976232744803 0.04276190750356448 1 0 0 0 0
2736 5 -0.005721698942213972 -0.001162215486287648 0.03606711728360246 1.118425299425261 -28.95755219205556 34.82358179347931 216.5095052834588 221.1958126999036
2737 5 -0.003634084777060429 0.002729727735002842 0.04259047798073893 1.000026753506356 -0.1491608712954617 -0.007676513951940807 0.26154335282101 0.3011856898940104
2738 5 -0.003423932403463381 0.002883074754822786 0.04778841612156673 1.068296739763837 15.3732610922647 41.36249027038582 -307.6873215768462 310.8354558558471
2739 5 -0.003901878237498497 0.002830845867757833 0.04340751369615151 1 0 0 0 0
2740 5 -0.005282097377150394 -0.002267508973245399 0.04095844562958359 1.000980507298687 -2.56350595432125 -0.8424998644145083 7.950132688908642 8.395592806385546
2741 5 -0.002904208945122084 0.001326069990531205 0.03985649325192538 1.014190449004618 31.78394408315558 3.878735561885928 97.45028904459917 102.5759354133128
2742 5 -0.006518760510250181 0.002714139478915858 0.04121400450852188 1.00115462491385 -6.344440126529911 1.426052575964281 10.30420296277849 12.18450430533267
2743 5 -0.005589035948088515 -0.002420062033970288 0.04012981770870413 1.008484672190655 21.15523899068748 -1.403915708489104 68.93460128506351 72.12138635938945
2744 5 -0.007147771834633924 -0.00135419038736621 0.03951410181048326 1.012775233033657 -23.32080033071388 6.737229583817185 46.67125472201529 52.60661562823939
2745 5 -0.004321866789437867 -0.0007179130718679453 0.04361928158814178 1 0 0 0 0
2746 5 -0.002104127268109321 0.001301668800335405 0.03937564244070128 1.018972965297093 26.89126930864019 5.92687874564193 100.828308040129 104.520887668114
2747 5 -0.006790164760829809 0.003185822233029006 0.04192834107433275 1.00005120941953 0.2856470727028628 0.08141127171948705 0.4902702630943632 0.5732250659045841
2748 5 -0.006182882933043249 0.003666709001492249 0.04310788709523906 1 0 0 0 0
2749 5 -0.005192215684537312 -0.001250369739713745 0.03522390399317691 1.142852016913205 2.123158496144468 7.768051875351675 202.8401443956296 202.999937463975
2750 5 -0.00782685735704081 0.001196741543730543 0.04760126063598706 1.041150123980319 -11.97891676397575 42.68254843445226 -196.0638012278442 201.0132048886571
2751 5 -0.005757216778871959 0.003756829937454647 0.04059618204505319 1.001802551291467 3.947365212164829 2.409113917212897 6.792883327081547 8.217590028692136
2752 5 -0.007902417591570106 -0.002324269096984013 0.04754092447274275 1.036698879452832 10.83637142483283 -47.71200026230488 -218.2198433253295 223.6375682563608
2753 5 -0.006186643563178371 0.002476612875482778 0.0356731572702022 1.130744896108402 5.255850410483296 5.805816692880998 189.8652766634705 190.0267211565387
2754 5 -0.003478909028790111 0.003515088187108718 0.04223148508239942 1.000026753506356 0.06659519813898773 0.1931449896231193 0.0003999442547955603 0.2043038604312039
2755 5 -0.003961002072117768 0.003482106532568379 0.05178986524497262 1.287890988584726 -15.59527003086789 24.38398330572115 -516.3159541009969 517.1266339576914
2756 5 -0.004710233230968039 -0.002568540752543418 0.04979343719512425 1.175700228242358 -23.94520194400052 7.112377052178006 -570.8293029135432 571.3755784667674
2757 5 -0.006290533062610433 0.001845546839364902 0.03517940150852673 1.143062717208196 5.642389953172362 5.755372657935952 197.1700039826806 197.3346683919115
2758 5 -0.005246047462630226 0.003113927240278525 0.04085556915731092 1.001130169000676 4.815314483851244 1.255876477805996 8.13215517099955 9.533961769962616
2759 5 -0.003265995501418081 0.001956251459560304 0.03943777622174054 1.019857082004837 -2.143991738929484 43.46223666506627 71.45371275313938 83.66119639782222
2760 5 -0.007722366317972913 -0.001536075125723071 0.0478232500773091 1.052413202849761 6.969764781658739 -23.38879604758223 -234.3631000167979 235.6303801532193
2761 5 -0.004491838627741719 0.003115220676628646 0.05259462395711073 1.310834147840712 -34.84496035908706 -45.20643214553425 -273.5843579768687 279.4748534293748
2762 5 -0.005031689087503647 -0.00309885462916939 0.04273078170979679 1.000000001404417 1.588915863216021e-05 -2.648629198165926e-06 1.160900157356548e-06 1.615017918918173e-05
2763 5 -0.00483028160534734 0.0003196385605231372 0.04114456597919672 1.00334338976516 14.47259015572486 6.114754491376464 24.41752714159369 29.03552513759407
2764 5 -0.002810856362866208 -0.001092990202985326 0.0523816005865686 1.307841662336279 -73.85494924036011 4.986436821912747 -264.1437104335492 274.3197365139405
2765 5 -0.007482106927395168 0.0006505079224035213 0.04712550445505644 1.034282846888672 -28.2678747357247 84.84511656075871 -146.0570216011345 171.2612627107415
2766 5 -0.002777459923514164 0.001003597295921962 0.04138175456826582 1.000874778678863 -0.0583665486046577 6.171241173057521 3.103304448307624 6.907830539968556
2767 5 -0.004182305206220857 0.00243998157111074 0.05299074250403563 1.317823559363714 -37.14696972133305 -43.58400800139527 -278.4619780830949 284.2895290911949
2768 5 -0.002931801100553183 -0.00152274703822616 0.04198506583663376 1.000791013148844 -2.891480975125226 -4.3762479021233 3.390369537540539 6.245543493678718
2769 5 -0.001472753044263454 -0.001718320088489454 0.03770000682398142 1.065333585781009 2.345083841805292 -6.974602060336811 235.8431467055306 235.9579079838003
2770 5 -0.006524885710344114 -0.001125993101071805 0.03576943477552149 1.12536063712958 16.46305736813529 51.50036689405142 230.4304203949706 236.6886112417142
2771 5 -0.007455667704281984 0.002724956477046022 0.04193892553474858 1.000051210580553 -0.1992669733183236 -0.1975020545845872 0.4980178658541355 0.5716084174769354
2772 5 -0.00549711787368566 -0.003629414540464678 0.04191242233163711 1.000000001404417 7.761563919191863e-06 -1.23780886972751e-06 -1.339998982000021e-05 1.55349210633909e-05
2773 5 -0.003238199530762836 0.00259374404764626 0.0423417219781291 1.000026753506356 0.5955412129090011 -0.1204286409124829 -0.006034488549987389 0.6076255498884258
2774 5 -0.00206521098907756 -0.00157291892750202 0.04175329420767954 1.000839614708263 4.936031479018033 -1.012482132488527 4.283978420994269 6.613773351273085
2775 5 -0.002554087608746727 -0.00279556653998192 0.03611882792691036 1.121300658748959 14.55170664251237 -16.00441156775567 254.7840105312586 255.700577586818
2776 5 -0.001894044913168069 0.000554277812926766 0.04165090375704172 1.000848025172507 2.695132912665771 2.815881627694516 4.935516684806367 6.289058411568764
2777 5 -0.004140615557357888 -0.002427521907118681 0.03817823044014533 1.051834168371052 -48.18281910629036 -54.42248563993355 183.7571160286244 197.6109022584928
2778 5 -0.007184263453702357 0.002253273722932874 0.04122458896893771 1.001154626074873 1.702214031897626 6.155620602967556 10.36618830124739 12.17567482790938
2779 5 -0.006854690167457407 -0.003275576131511295 0.04168984807922378 1.00006768947212 -0.2313738081153003 -0.4121651311046373 -0.0008867840820235285 0.4726676641851935
2780 5 -0.002204964976987127 -0.001060524647195792 0.05160329856008732 1.287526222246814 7.113327427523982 -25.35707463392463 -467.5178525249667 468.2590341794145
2781 5 -0.00717250323661726 -0.00121158694145527 0.03859392439960348 1.031393361610346 -7.870951002683173 -18.99670272407385 178.8561479032705 180.0342973626693
2782 5 -0.006927587854879193 0.002623383355920109 0.04382400298797946 1.000000001135387 4.584643443937175e-06 7.356194507868097e-06 -8.783725264782665e-08 8.668348662148841e-06
2783 5 -0.005032776556146886 3.542033851154674e-05 0.04690261048897704 1.030281926421934 -19.07740093072263 -10.59395719862594 -94.9799420144239 97.45444341055558
2784 5 -0.005044000816790228 -6.380578171932317e-06 0.04804180082490456 1.074356060672502 -20.37832281618306 -2.74920264930499 -389.311465725959 389.8541413165981
2785 5 -0.00396793763058137 -0.0007164514466128199 0.03856735577636568 1.042293955086677 16.62346553101295 26.79338629831805 190.3483689269402 192.9422885443682
2786 5 -0.001739327262777382 0.001955848406785993 0.04901146633179215 1.139956624536261 3.129503704934748 -3.891539567656465 -548.9489223798585 548.9716361121526
2787 5 -0.004905725729644603 -0.003224327877661312 0.04883899982733329 1.116289429071392 -17.2370694101281 7.299321935582085 -467.7873791796313 468.1617549333959
2788 5 -0.007246320591049621 -0.002219997004533867 0.03967171485604783 1.010571494816598 -21.72898841870204 -9.328139830644231 53.18210579375527 58.20222939938226
2789 5 -0.006539815226550162 0.001935448294905747 0.0432314621697554 1.000000001135387 7.203731017447299e-06 5.260915687850572e-06 -6.786316403913007e-06 1.120825877558255e-05
2790 5 -0.006043527768302002 -0.002956765068855929 0.04386001217802817 1.000000001404417 -1.7250410545312e-06 5.121310523209152e-06 1.345540031290325e-05 1.450004778252223e-05
2791 5 -0.003082330545588974 0.001460587612429 0.04997603769351099 1.196968363560924 -47.16549583339721 8.073420847150819 -579.3284413629307 581.301304912855
2792 5 -0.00444997291649284 0.003064972617124961 0.05061055671571093 1.22840880303787 -38.68529785548456 -10.91941040347917 -629.2449235348503 630.5275248457491
2793 5 -0.007876034193289813 -0.001506772695719574 0.04561606948506635 1.00119404730814 2.945450343654413 2.279976436740179 -11.55966733470546 12.14495282691871
2794 5 -0.002352069555475874 -0.001905192256151217 0.05263611444919385 1.316532257132419 -78.55987224009405 24.39273677923731 -269.3299511588137 281.6119346284352
2795 5 -0.006929703367217608 0.002932530005235038 0.03533433821622668 1.138653930019623 -1.958855651545425 7.957199030556497 192.6978695273981 192.8720380259244
2796 5 -0.004820970529413154 -0.003109880726685138 0.0411738230994291 1.000912819230984 -4.073243138987354 0.6495980112369204 7.03227045027019 8.152675323552007
2797 5 -0.006865697955773582 -0.0003207502519418203 0.03573921512109372 1.126035915253971 65.48401779281475 -16.73776365312417 238.3610045315855 247.7585070178298
2798 5 -0.002385503428464326 -0.0001705650687467781 0.04229923503116641 1.000791013148844 2.58932978063925 1.979389997068053 5.230425437968214 6.162788633041324
2799 5 -0.00511424818596784 -0.002500941622562382 0.04830329795740518 1.08431071444431 -2.979783871043859 -8.69978208767113 -390.1266990725478 390.2350658891808
2800 5 -0.001746178169596793 -0.001872726700361684 0.05185781242271256 1.296216817042953 3.732599075593615 8.766916126201789 -483.6412238368439 483.7350767813134
2801 5 -0.007195465650409804 -0.002316405534946233 0.04826736565418937 1.074522941454353 -39.01442681839482 -6.71987543015068 -381.484324600471 383.5330131053155
2802 5 -0.00174569324523967 -0.0007875379148667525 0.04176392245017981 1.000839614708263 3.974947668552074 -2.512652673789652 3.844153069521729 6.07380813400812
2803 5 -0.00703359286664967 0.002301463969117161 0.0348405824545512 1.150971751119417 -0.7313099235826267 8.916595435939143 201.7128391963797 201.9111437861642
2804 5 -0.008667180124747022 -0.001127890134675053 0.04567632876038732 1.001466429142385 0.5687490800780266 3.815226412921476 -11.59860313411411 12.22321654723604
2805 5 -0.004008009552263896 -0.003082462168452977 0.05004072228361362 1.194270831250824 -44.34120418843012 15.34483153446901 -603.3338199473631 605.1556035731459
2806 5 -0.006874964672366565 -0.003281357040885653 0.04375598915931391 1.000000001404417 -6.440702049978844e-06 4.800684259220262e-06 1.340802798945938e-05 1.563024077931792e-05
2807 5 -0.004426680282877498 0.0005087317052328074 0.04207433444193929 1.000026753506356 -0.07258064232072224 -0.08096086385367229 0.2054040073987734 0.2324078685653669
2808 5 -0.004443960392388637 -0.002503699598683279 0.03562828521764177 1.13360566459718 2.58135362284226 15.23104229219286 187.9418155264959 188.5756454562151
2809 5 -0.004718969482432933 0.003771954867259873 0.04155384907072047 1.000026753506356 -0.009315997406517987 0.1833444765739856 0.001305278277306688 0.1835856439083629
2810 5 -0.002609200455477557 -0.0008176096034989149 0.0481506549661747 1.086900475607872 -45.69293295280078 -29.29132000518646 -415.2188242765541 418.7511165156211
2811 5 -0.006003982185606016 -0.002419242015366091 0.0445023946528183 1.000006425834675 0.01047537992431953 -0.0310993603892001 -0.08170844974456247 0.08805211275623019
2812 5 -0.008663798325894652 0.001103591962477197 0.04784380059479233 1.049927989756986 6.706222672962423 46.95723158898824 -221.834525521385 226.8490946297543
2813 5 -0.004343067711456531 -0.002999166317035205 0.03610903945415207 1.121510089333059 -7.667532558728911 -17.37744879893955 233.5599587626446 234.3310075929073
2814 5 -0.00404773436244043 1.504299444625293e-05 0.04068399876450921 1.004134402914004 10.21272269004143 7.023742173010488 26.27584397861304 29.05258397535456
2815 5 -0.005232466723207953 -8.546838006526168e-05 0.03763792344678824 1.072971050580207 -28.8339467756992 -7.362445363364103 220.4790532708069 222.4783473050438
2816 5 -0.005482571858290668 -0.0004111786738333753 0.04117710586927796 1.003384324326507 -9.040985523957378 -9.481863106766038 21.65529542857372 25.31001713390695
2817 5 -0.003155297038142401 0.003366936956741644 0.04844885224885375 1.099917617833241 5.918214945602241 -11.78208583270273 -407.6324734256684 407.8456524297394
2818 5 -0.007850374662169873 0.001359911682109656 0.04683472311286526 1.0180622356027 -30.45349875243004 -10.587217133747 -82.98498574258051 89.02815628551258
2819 5 -0.001570868251777426 0.00156955361582025 0.04011731802212169 1.00629285358224 -17.16647884310217 12.4977983724053 45.28168685660188 50.01313951960347
2820 5 -0.005384400702266329 0.003853053874360449 0.04309183044283774 1 0 0 0 0
2821 5 -0.005205684195423372 0.003109435880274342 0.04746683371545373 1.042593872706507 -64.3793098148376 16.16305948564443 -264.3304075066458 272.5371614235401
2822 5 -0.008340211471649076 0.0001501805955739688 0.04713606943877469 1.032113743625913 -62.60865898237078 -0.6240505182145029 -161.5244506592436 173.235047780149
2823 5 -0.004904428375859592 0.002570516907853591 0.04794270518320767 1.073183085712834 -107.6612550678603 45.77328223382429 -337.6036160251443 357.2986716495001
2824 5 -0.003199375796039279 -0.002681588339856959 0.03814502144095428 1.05296997476202 25.12383664213895 -28.11708771452462 182.4538672871177 186.309397178973
2825 5 -0.008095924186137336 -0.0008891769094358471 0.04443673547423396 1 0 0 0 0
2826 5 -0.00701541437681261 -0.001528211563685291 0.04854969125875572 1.090237264851282 -45.06931286115611 35.53685769990997 -395.4832993439956 399.6262644984346
2827 5 -0.002370949928790189 0.00159395480601605 0.04059816883334578 1.001510337289765 -0.4515349656392454 3.125702426287748 15.75247413428552 16.06593728464761
2828 5 -0.002482851415665912 -0.001910371251861474 0.03629812640125282 1.116949183224502 16.21496788023422 -13.97765376701585 252.9184285436246 253.8228348379321
2829 5 -0.008234321474836293 -0.0002089684532569377 0.05050217874714877 1.205255138013119 -8.591732071872171 -2.972968480421832 -630.3391422308746 630.4047038450261
2830 5 -0.005355744302776749 0.00313303035493938 0.04824629313520208 1.080581538832832 -8.100432041023753 18.37580908448335 -402.3546698378164 402.8555171510735
2831 5 -0.00723360896163461 0.001419802008824427 0.04145716740769814 1.001103416655343 -2.108885391015769 -1.08610850920195 8.555418686335612 8.878187775931593
2832 5 -0.001241398092013119 -0.001150020067765246 0.04240482511410384 1.000048601559419 0.1854706697969515 0.2302458285303271 0.4413443594073925 0.5312225093981506
2833 5 -0.006835419089670578 -0.002743833987395815 0.04439837163410405 1.000006425834675 0.04251084285347854 -0.03168616286691152 -0.08849758402297486 0.1031649507112037
2834 5 -0.004374516647164635 0.003622919134852349 0.05135503601988289 1.267443329454953 -40.38763317451737 43.57617745116477 -521.1223651569544 524.4983923916955
2835 5 -0.001814914570349752 -0.0003722483917973265 0.04799700175108709 1.080566941462289 2.745416163797845 30.46568859238938 -409.1941943653509 410.3359406554945
2836 5 -0.007183572740763419 0.00133438320315237 0.04837753703639273 1.081148171040982 -55.39241774246567 -37.43488093446494 -393.6586968243581 399.2954543184599
2837 5 -0.001389727178243586 0.001041687599363125 0.04228507155095486 1.000057012023663 0.1318657164998685 -0.2827637302534219 0.5245611649327822 0.6103345886401091
2838 5 -0.002713529520512245 -0.001074234175038587 0.04719838445482774 1.043981382885758 55.61030493733934 48.56442208011779 -179.9290385327801 194.4877065897235
2839 5 -0.005089207209995497 -0.003247143946644662 0.05039703539960152 1.212239751938496 -44.55949967041636 -1.291240428955763 -609.3536663435433 610.9820840245985
2840 5 -0.00307775813045702 -0.001763224688802306 0.04974327675062377 1.179795662290638 -64.53917951556514 -24.52853595555374 -584.6386696485018 588.7013918932375
2841 5 -0.003169537905168317 -0.001767709506678416 0.04106397942794406 1.001703832379828 -0.7180469620923013 -0.9446411970963415 8.520715058870605 8.602936913954785
2842 5 -0.005161531056023605 -0.003848198449858045 0.04321024019666811 1.000000001404417 1.546497181447475e-05 -1.633833027359674e-06 1.655180406145945e-07 1.555191820341011e-05
2843 5 -0.002654227180819264 -0.002152572637624538 0.05037728972686908 1.220799029298963 -40.17261432773681 -21.32548055838573 -621.6510184551706 623.3126052065064
2844 5 -0.002445281417316396 0.00177991442279829 0.04176610829494903 1.000083765530019 -0.1724221707182375 0.4060917928826475 0.4603221515175582 0.6376020956518147
2845 5 -0.004288539402619489 0.0002102558631430972 0.03780279354491053 1.067022357674333 33.67963422322304 12.18317518980236 226.0883022419408 228.9075532387664
2846 5 -0.007305451570761922 -0.001263078679816829 0.04485152704896467 1.000006425834675 -0.03530631283881165 0.03641792344282992 -0.03835414789157201 0.06359120642548335
2847 5 -0.003889230154889097 -0.00312115847063208 0.03870300847051224 1.031815074602311 -38.29389903715573 -38.01273945038136 160.6581292606421 169.4769174888417
2848 5 -0.003644133039970588 0.0002041361391559232 0.04161376722725177 1.000817766655199 -8.089837679634222 1.493870393347671 3.254538254506996 8.846984892323473
2849 5 -0.005827625409804619 -0.003113500041568892 0.04829187852835574 1.081086590774271 -32.50401915400902 -18.009708909484 -392.700528152211 394.4547701412596
2850 5 -0.008796215988976097 -0.0007331420952979333 0.04638145584841687 1.009364377197674 16.54391717624446 -31.85080962028141 -78.17565814014888 86.02097880544764
2851 5 -0.007443956052764393 0.002017525647812109 0.04264064932202974 1.00000000229641 1.203281294625942e-05 7.082997186438778e-06 -1.159098533489104e-06 1.4010743947168e-05
2852 5 -0.006079685359485227 0.002940226968459918 0.04826018152106936 1.07858449202406 -37.73286578390634 18.62512761632699 -380.02687456239 382.3494343250024
2853 5 -0.006670415392550518 0.002260119842765212 0.0445411022547134 1.000022799333172 0.006371908604347231 0.1022176665841623 -0.2885970673245672 0.3062308277256128
2854 5 -0.00237728896206413 -0.001742691727667275 0.05074928662448558 1.244771666014044 -33.73603979801165 -13.0196993335398 -643.5422216155159 644.5573860827463
2855 5 -0.005730498223397918 0.002238572813561639 0.03471244160394812 1.154181766538109 -9.291572353437768 12.97003026029734 213.7703319493232 214.3648987672096
2856 5 -0.003643350900233596 -0.0004477907441507211 0.039456463548282 1.017757592377149 -24.05576162409682 -14.88374596845047 95.12585618986412 99.24280365458971
2857 5 -0.003766370039621681 -0.001018434288815635 0.04321981329611423 1 0 0 0 0
2858 5 -0.007235573874512814 -0.002318679385491553 0.04676778647705111 1.016908404961378 -28.11318607972581 14.65142924740278 -81.06967353436454 87.04773160463968
2859 5 -0.004627965308852838 0.001433915724506206 0.04264044933962174 1.000026753506356 -0.06398422835501999 -0.1885287258198972 0.1530086933559253 0.2510950461079408
2860 5 -0.007575062088073996 0.0003746367250749597 0.0501804392152421 1.187416667372391 -29.89179869033497 -36.34005521100874 -604.7761896314203 606.6039554658231
2861 5 -0.008880039202915781 -0.0001558342110755117 0.04998275998102929 1.17115976320861 -15.27335078439707 -3.587959906421057 -581.9679453676255 582.1793865604387
2862 5 -0.003518018224268729 0.001949096175977702 0.04403121477114497 1.000010953705325 -0.03749149102646419 0.02062796872231441 -0.08927583403022532 0.09900151279040419
2863 5 -0.002407273857089481 -0.0006240760812799127 0.05301523313150704 1.322187253985294 -68.14393891316018 29.38626241833456 -250.5385279028264 261.2981109637707
2864 5 -0.008793295645282601 -0.0007437987992207019 0.04495966487698811 1.00027880766892 2.721822181073582 -0.7721319020052428 -2.691978734518871 3.905285286196158
2865 5 -0.005619102953481381 -0.003836886296667822 0.04882758039828385 1.113065305401353 -47.03174317671262 -7.91476551861807 -463.1274591695659 465.5767088421766
2866 5 -0.006691817711789306 0.001904587015382134 0.03690805850186477 1.089882566472892 -41.99961514306659 5.614933933214799 269.2262145450382 272.5403635307824
2867 5 -0.001786694062523336 -0.0003286141634422465 0.03937030801092511 1.018179663375145 22.85036164067508 -15.3716780192754 92.93487555100123 96.92945169512718
2868 5 -0.008648396469447119 -0.001280784506214027 0.04786087209190933 1.0519703582325 -41.69685504635163 22.18257508118258 -234.6170269425723 239.3237215349963
2869 5 -0.003709208047494267 0.002290568266494156 0.04532700426041355 1.001274980125088 3.846712630805787 -0.7189207332987316 -9.873760480935937 10.62097882116615
2870 5 -0.001199042994265521 -0.0002661226698052826 0.03875447580483825 1.029816328024906 -2.994767651487175 -28.97457182571313 128.4272378716344 131.6892169963326
2871 5 -0.006029153925076275 5.163623459356501e-05 0.04644176235455731 1.018407843990597 -20.21164145904225 -10.16306770282582 -90.46687231244901 93.25263203576642
2872 5 -0.004197243492020072 -0.003735703408222498 0.04860806927586671 1.101758966774175 30.35142985724587 -14.26730464757636 -444.1557387400234 445.4201225045653
2873 5 -0.002302947793692695 -0.001817881395954275 0.04083220779898984 1.001752433939247 4.749860005181077 -1.855735946353923 2.835200014275432 5.834662380322985
2874 5 -0.008396225798083638 -0.0009889799677392488 0.05257822430193743 1.299526912743382 25.60500488463403 4.78687075304032 -294.7759813688895 295.9246687904547
2875 5 -0.002680412300641682 -0.0007573630568144143 0.05082395506648722 1.249220801196159 -33.73413990765405 -9.497603212999463 -646.7537555295349 647.7025682778
2876 5 -0.003991187387986022 0.002942784327728736 0.03647548837391577 1.108357585240435 12.89774049070382 31.15838595380916 267.9073366809816 270.021365400053
2877 5 -0.006067170300845799 0.003684093515879565 0.0487471922679911 1.106174463673664 -47.12356237498095 -4.138221222420242 -445.2626829125333 447.7684801326033
2878 5 -0.004555829912850945 -0.003293014120936142 0.03538231501998153 1.139166117640194 -17.08926176342005 -21.82039177025899 186.4671712514975 188.515724328666
2879 5 -0.007829446237762517 0.002708804934586214 0.043710499045577 1.000003444895817 0.05375104304872075 0.0003247110742786378 -0.0004929917573780695 0.05375428454532748
2880 5 -0.0047976140365308 0.0009543055516893996 0.04854978735127724 1.104940979136838 -17.81803165536179 9.317220471213075 -429.5609825791952 430.0313135154047
2881 5 -0.001986757899098193 -0.0013248408076501 0.04852549128926105 1.110542907198314 -39.55749266756008 -47.50275075556463 -434.9609904592532 439.3317309013588
2882 5 -0.003777530092746732 -0.0005335093465749193 0.03531040413297786 1.141237948553922 -19.87301876824066 9.815192558810541 205.7154006338923 206.9060195786778
2883 5 -0.004296140067319088 -0.001405414487964764 0.04743092752414346 1.047313164137669 -56.99960706004162 40.79571888930676 -234.7530397254625 244.9943581902226
2884 5 -0.004478011912970484 0.003673676716858571 0.03671823500154101 1.096822315001747 4.041371005108909 34.03916747691687 263.6572251510815 265.8761553364473
2885 5 -0.005128358703466706 -0.003262453868414319 0.03981679763592996 1.009539795696207 27.16550228590227 -13.35417079714482 60.58029082038561 67.72200549309784
2886 5 -0.006577584285139699 -1.33981849060799e-05 0.04732505688405254 1.041495732368215 72.75734930875741 -0.207008100176734 -172.8228130970242 187.5137313840217
2887 5 -0.003946652188277701 -0.0006432947967754509 0.0440356002032805 1 0 0 0 0
2888 5 -0.002872366264629913 -0.002408237542964655 0.03546440020413918 1.13874951237531 -18.24983667218774 3.081629684518649 193.1189968939097 194.0038657897928
2889 5 -0.004143577001793046 0.003222393397990771 0.04790973845301833 1.073142287721368 7.362944731573274 48.41867857104512 -315.4885424231159 319.2672889444651
2890 5 -0.007740568365264527 -0.0001324148989380719 0.04416886880981891 1.000000001135387 -1.726943448526074e-06 -1.130051233192422e-05 8.007830762574494e-06 1.395740900598721e-05
2891 5 -0.005626608723965856 0.002869638849679516 0.03520619736562359 1.141863945438315 -19.02463699967591 -4.636528303479662 199.9183890640521 200.8750768354404
2892 5 -0.004399646736832464 0.002519554410038948 0.03565169043519575 1.133406889558612 -18.97606241231313 -0.2442370880422954 196.1141048438297 197.0301822440608
2893 5 -0.004212335704755282 -0.003062776506582307 0.04274159733874662 1 0 0 0 0
2894 5 -0.003354893437811514 0.002729883421030464 0.04464630043453006 1.000336935114527 0.3637561776048642 -1.556333440311974 -3.00691681979707 3.405296036375917
2895 5 -0.007227814904202786 -0.003081707347227712 0.04303610915233209 1.000000001404417 -1.37623687928226e-05 7.446776424031861e-06 -1.539544312292898e-07 1.564867329411887e-05
2896 5 -0.003150709345046996 0.002482065731354716 0.05029772397680046 1.215407303355925 -47.92679742126311 3.686768103764777 -612.7871558988296 614.6695604995307
2897 5 -0.007225586967542853 -0.001558671210638964 0.03655529824718538 1.099988449132134 -33.07031428072688 -7.552896784952409 249.9221211511368 252.213716076572
2898 5 -0.007136580070080875 0.001661247685389543 0.04659109152372309 1.01695712660748 -22.46166160482721 7.980687306111117 -98.10395630917505 100.9584263716517
2899 5 -0.004455926361830832 -0.0008059079323828949 0.04831698138657971 1.090249310872087 -1.801789126475384 -28.37835347914029 -403.8757065668925 404.8754916578058
2900 5 -0.007993487158235954 -0.0005314012442784229 0.05298260552640259 1.309405851187514 6.683390572237362 -36.79150996091833 -321.4590478041055 323.626640327813
2901 5 -0.006286054346158951 0.002242169632909264 0.0488047904338602 1.11137394814717 -35.81369084627818 28.91849519992271 -436.0398925939218 438.4628692945158
2902 5 -0.007534292353352124 -0.001982974158693095 0.0423429277804876 1.000067690530087 -0.0002993224582577888 -0.3588045461203833 0.4860373996326699 0.6041300735373765
2903 5 -0.004574172027676714 0.001531353231222977 0.04769298120838403 1.06180488989683 -47.72981999557259 -73.9437164538639 -308.2459702641729 320.5641700251613
2904 5 -0.002701064114986092 0.002291251002921909 0.03871640461601643 1.031021527504846 -12.55504022950932 18.99483636232605 115.7916567835394 118.009070093248
2905 5 -0.006023579408264269 0.0004189387954918505 0.04067213001217111 1.004487739820828 -24.01613607347496 0.101614374783917 13.54841983565683 27.57435035361753
2906 5 -0.003611819044404898 -0.001290179518661196 0.04700079639483844 1.038974795279392 -117.7025473398621 57.08416704625327 -212.3857666466809 249.4397836187231
2907 5 -0.006299298986021042 0.0001647530414140721 0.04368531725654917 1.000000001135387 9.396159886383477e-06 -6.108126311250193e-06 -5.174185680094846e-06 1.234379297852841e-05
2908 5 -0.003941038341361624 0.0005705471461940433 0.0490448697024372 1.137795444355175 -35.40061333850605 10.74864471073199 -491.1107905174387 492.502330299587
2909 5 -0.001688032166924716 0.001712345834831863 0.04788232909743249 1.071621004564773 -29.56825386040182 23.17293602436559 -363.9494589949859 365.8831443276466
2910 5 -0.00460829030164402 -0.001400580848618903 0.03871241609589259 1.037060996240128 -52.06552101341516 -13.4986585318278 183.6361235565052 191.3511383175374
2911 5 -0.00468943918204444 -0.002612428646102494 0.04746769393450043 1.046437018485474 -76.63303387053939 -18.98333384739837 -208.3412515305381 222.798262860095
2912 5 -0.005907685574652953 0.001008787563507558 0.04383788836821764 1.000000001135387 1.022942239698425e-05 -1.361800785355274e-06 -3.860658528806564e-06 1.101817898887852e-05
2913 5 -0.001560915835851009 -0.001935401080400513 0.04239419687160356 1.000048601559419 0.03752518057567689 -0.3519418938654675 0.4412741705804823 0.5656802360489023
2914 5 -0.007505053821197863 -0.001029882508757583 0.04231525147026656 1.000067690530087 -0.3185921433721148 0.3522408347982433 0.496066884843022 0.6867728254347732
2915 5 -0.007271204770890689 -0.002077265966591695 0.03828868936539034 1.037778343980089 -8.785347602753353 -24.89519645008477 178.2569335887959 180.2012417029081
2916 5 -0.006551007518990786 0.003503367410306997 0.04383033811574231 1 0 0 0 0
2917 5 -0.003657915212415054 -0.003449877143597028 0.03643321835764248 1.108294709972434 7.978140580109154 -36.03552639621904 278.6696519356788 281.1031568654485
2918 5 -0.004874755891971586 0.0009849893300279838 0.04370715706451814 1 0 0 0 0
2919 5 -0.006016860880590556 -0.0001533348204690268 0.04834749021360663 1.085569866618784 -81.55428804734751 -9.063396207563814 -384.871200646087 393.5213947633414
2920 5 -0.007804296589701609 0.001947282920286457 0.04612509336777757 1.00720623020111 1.804451102589913 -1.856543965706589 -65.62217296105169 65.67322425013427
2921 5 -0.008020513709617261 0.001241233621899024 0.04862007699519802 1.089926036817649 -26.01331902641564 -32.54509313020411 -431.4724311060073 433.4793359067441
2922 5 -0.001919243635384441 -0.0006288729633369988 0.04654473123974014 1.01892708830995 12.95318496608554 -11.05604426164916 -121.8546698532298 123.0389437557101
2923 5 -0.005898648901415221 -0.0007077369887879064 0.04221687716600214 1.000067688067703 0.373421660902472 0.1776393236177644 0.5005171989727247 0.649243353908255
2924 5 -0.001192472013970388 -0.0008794795959485122 0.04837183807417346 1.104209373052732 18.70558613774308 17.77889603343201 -425.4779492911134 426.2598660792444
2925 5 -0.002801130071549098 -0.001523042254844208 0.03564369867848165 1.134398036850854 -18.61157982742869 1.739939567248562 190.4854014804817 191.4003826290604
2926 5 -0.005674814740545931 0.00255174959908957 0.04675017766810864 1.019364392656952 24.77646553203884 12.16521725893176 -109.8910303682131 113.3044761278426
2927 5 -0.002724011148582626 0.00214717705005294 0.04705603775203835 1.033927535670854 -6.585659981242723 -8.647211944038293 -211.1187252406735 211.3983475314806
2928 5 -0.001797852360206511 -0.0001080735751098141 0.04318340282507955 1 0 0 0 0
2929 5 -0.006622645384383454 -0.002738513309281134 0.04014106061804272 1.008144559526549 -27.23544707878354 -3.85689187644774 47.70513354995022 55.06745826299243
2930 5 -0.002947990393570488 -0.003375224903370359 0.03866979947132119 1.032950880993278 22.56773198036898 -19.05440874850674 161.8099691613548 164.4835527932551
2931 5 -0.005231757766327854 -0.001350926403881157 0.03974908236302738 1.011801308449459 23.65415937192043 7.06755259578142 67.69888249621876 72.05975469374832
2932 5 -0.008208868583124163 -0.0009015843441879582 0.04299505473663191 1.000000002462384 5.410598017785139e-06 2.166171213073546e-05 1.521155571109494e-05 2.701658324986077e-05
2933 5 -0.003782796060364003 -0.002372372513598151 0.0351311056586354 1.145398757641507 -5.702900170585585 8.545489149636945 200.4053049637207 200.6684696527188
2934 5 -0.007626685205855823 0.0006691125044178418 0.05106290216813548 1.239206455746577 -5.424709024152977 60.2623871371752 -554.9970939057669 558.2855515014822
2935 5 -0.005667459288699496 0.003294452890859282 0.04627523448623137 1.009631534203377 15.76854651265695 -7.395360279277982 -80.96670118618432 82.81874856428954
2936 5 -0.005231651013012298 0.001167358233056465 0.05294566143591024 1.314880746184794 -120.7986250848377 20.89037913479207 -274.6533342596685 300.7709590082389
2937 5 -0.004924819195389733 -0.001198373343156268 0.04057771028390684 1.004297143557492 -8.1508419009041 -22.27161046754704 13.81360831279816 27.4458855045905
2938 5 -0.00777520195236531 -0.002774019515579736 0.04634253466098042 1.008887890142204 -24.66135003895161 19.90034427893554 -72.49232126572494 79.11600679165335
2939 5 -0.003653058370510978 0.0001182111633948154 0.03703092912547383 1.093343942714019 18.49767447534447 8.2441095847373 279.030115262489 279.7640693999836
2940 5 -0.004946075103271946 -0.003859023908967274 0.04064242209900604 1.00203563080424 -5.341947176743465 3.656209901663101 9.889852383370755 11.82004444361361
2941 5 -0.005580685291014684 0.002413876895135804 0.03800041655557509 1.051348941766239 -29.9557854850993 9.117348231467318 241.9475237010293 243.9653240685308
2942 5 -0.004076106818611898 0.001176800804756546 0.03929159349391801 1.02253815965274 -49.88223950843609 6.501908539680686 69.98890475522238 86.19141153195569
2943 5 -0.001289129925431727 -0.0003426561288113445 0.0471234467465147 1.03855143186773 -29.90745799472952 -47.47677835041947 -209.1826565142546 216.5776634664849
2944 5 -0.003909140725701287 0.0006388537452086615 0.05003204065885811 1.197334165631912 -41.72606268893979 13.12796174143582 -580.0898273956102 581.7367235570356
2945 5 -0.003714320262315902 0.0005466193357274471 0.03971031052410284 1.016871526652521 -23.32647913114211 -26.30891822862539 90.52229647744159 97.11112174496769
2946 5 -0.003429967315926417 0.003540772135745399 0.03611728645915809 1.118097687370482 8.984326195986592 30.46219850235201 279.6883223854374 281.4857391300187
2947 5 -0.001834959823765614 0.002148479320329169 0.0387692894401144 1.029373151154614 27.65707453060066 -0.2053417142106806 114.6612459904575 117.9498082613745
2948 5 -0.004636329668534081 0.0009725119937078407 0.04663113759560137 1.022879178759945 6.027488969810166 50.91033857843321 -118.2543550073797 128.8886561170659
2949 5 -0.002929998857251534 0.002332614674982243 0.04194266900762786 1.000026753506356 0.03393267895504185 0.1145875814957645 0.2653481004708043 0.2910177914794531
2950 5 -0.006407968687863926 0.002763184580733795 0.03756649986997804 1.064199334354961 -32.79260539047872 10.41820163846825 253.2820107570436 255.6084326989362
2951 5 -0.004342177673275241 -0.003812120327270962 0.04322105582561794 1 0 0 0 0
2952 5 -0.00659359483439477 0.0008785649894741564 0.0450361495676927 1.000022799333172 -0.04451662926134344 -0.2071588877161331 -0.04395021728767727 0.2163981438002909
2953 5 -0.004269008519670772 0.0009669408457540718 0.05230799606924478 1.302547911557207 -17.37613357674131 59.82480789374648 -295.0099529969977 301.5158536874823
2954 5 -0.007744386635544208 -0.002763750428621643 0.04878853701521611 1.102734363304544 -35.65238216858206 14.45423465537805 -445.4850819092316 447.1431263672093
2955 5 -0.004420044058700407 0.003122529559961398 0.03751096895297828 1.069781280653162 3.400045923192004 30.54888261838191 239.7601136964388 241.7223751770629
2956 5 -0.006042650046521604 0.001330473797827903 0.04466972055183546 1.000022799333172 0.09112292865243476 -0.0865559241881062 -0.1983540573616336 0.2348183302258921
2957 5 -0.008518091181790605 0.00164594691700657 0.04636872495691974 1.008311339196331 -25.91679917142892 -19.67890386786659 -65.65584871546645 73.27776065956935
2958 5 -0.005104689222833983 0.003164871233426535 0.03781257228695015 1.058028303523496 -5.444504762172405 28.9566085014869 231.8132066094624 233.6781773434888
2959 5 -0.001301382471210399 -0.0005916105254903791 0.05173693110502575 1.294784864068454 -36.75535946170589 -75.6038954682874 -464.4192751145781 471.9662790465958
2960 5 -0.002367999294391109 -0.001981638478241083 0.04727340064212314 1.046325302823695 48.98503816594786 -16.94947501706305 -197.7772043628015 204.4569422471117
2961 5 -0.005332705475632043 -0.002715073131820794 0.05105733780325052 1.247419270341939 -119.8119817111742 15.85659483538492 -591.5884916346967 603.8073252254794
2962 5 -0.004386983531291353 -0.003761065362554222 0.05064432048809089 1.230810354946962 -59.45584859760162 4.300754323841003 -640.5661704505198 643.3339048626766
2963 5 -0.004072974775072845 -0.003251779733042721 0.0477716467930199 1.062577446990693 -65.55759880527002 -26.66191688935373 -226.3026154710003 237.1107976080866
2964 5 -0.007498751166091411 0.00118028372982289 0.04239641552053686 1.00000000229641 5.348756091365619e-06 -7.308137763129925e-06 -9.865248049210971e-06 1.339183289778764e-05
2965 5 -0.003838426664772859 0.003117542218055611 0.03529348852043808 1.14314699168866 -12.27224264820486 2.514267992296336 196.7158907394986 197.1143605945235
2966 5 -0.008000425279444601 -0.001371275261543653 0.04009031383043641 1.005271068141689 0.9496051795090061 -6.515634912074717 24.90029850729898 25.75616652487309
2967 5 -0.001645199740303632 0.001755513232602489 0.04228525748372493 1.000057012023663 -0.111805449002154 0.3866932097095627 0.5242483419539528 0.6609602264157245
2968 5 -0.006543146525673284 0.003564257586647257 0.04060906878671387 1.001853760710997 -5.314626019522962 3.811916857130692 6.883771907311433 9.495381799851847
2969 5 -0.003335426873273149 -0.0005453114722699893 0.04228100666012063 1.000791013148844 -5.029930122997281 -0.4593308897476109 4.615642043806466 6.84217314784314
2970 5 -0.002613022585488965 0.002101053116987652 0.04403049134849459 1.000010953705325 0.05762958130194498 0.004935532158221997 -0.1145848968172602 0.1283558596143725
2971 5 -0.00792206983216898 0.001805316875255045 0.04086240043822202 1.00144584646048 -7.159231013273369 -3.206717066844166 3.422594887690966 8.558725303072485
2972 5 -0.00203157274734788 -0.002537432437776309 0.04071280350750093 1.002115390867566 0.3653916635323511 6.398632409247989 10.94100417676162 12.67996767237097
2973 5 -0.004780723788073923 0.00386771533978499 0.04722692503320982 1.035742849229377 -73.52613128382895 -2.508830158141095 -239.0571075182806 250.1213442818026
2974 5 -0.005580471299478531 -0.003787258386724498 0.0439259268788855 1.000000001404417 7.222928415872634e-06 -2.905706740727469e-06 1.357585566109785e-05 1.564984611729112e-05
2975 5 -0.005119696438403872 0.003843108186119039 0.0465055668530077 1.01282476384651 12.6835284704839 -10.23405835999183 -82.28530063423138 83.88372038389292
2976 5 -0.001869102224416595 0.0007388802051169524 0.04642394043716401 1.019211189391628 25.82903965669922 -2.315569310452076 -99.76233071494239 103.0777559927281
2977 5 -0.00801853004296333 0.001337164447764382 0.04001240983152989 1.004222290083395 -2.623076220712153 11.51431421625286 22.80059087280031 25.67736171959832
2978 5 -0.003266288818283761 -0.002197583821863693 0.04707581258213384 1.041318715217328 0.3521520872373765 -60.13839926887645 -213.5212617564746 221.8289437827991
2979 5 -0.006557855519727001 0.002603596174025805 0.03643635576050717 1.107508770289544 -39.37732298668025 14.04699753994569 269.842119293855 273.0616433160902
2980 5 -0.002415882601036016 2.774507779199883e-05 0.04609522493038946 1.012793466892759 18.01244780024797 -26.51107163783969 -104.3554570782396 109.1666002820992
2981 5 -0.00188935663666182 0.002036455491485168 0.04722609502288355 1.039409636973434 19.58952823968701 -24.1561881700721 -213.1065056287148 215.3640029922431
2982 5 -0.008153757375128003 -0.0008473746536821326 0.03847393860321986 1.032468409257544 -35.16790692213099 0.6329211538458702 163.5931717227429 167.33173070514
2983 5 -0.008088154073509369 0.001424711604716488 0.04062867466851797 1.001445845299458 -4.463407713328047 5.437430551268268 12.01502083185579 13.92294455225583
2984 5 -0.003013389642083299 -0.002488801832664624 0.04259565232710798 1 0 0 0 0
2985 5 -0.003973190428287475 -0.003845791445036217 0.04730023869509313 1.040791135480942 -30.15211898996323 -58.83637696627029 -242.6594964000581 251.504474567018
2986 5 -0.00671396492792564 0.0005057892888065611 0.04126348443009245 1.001171103562023 -0.9467658172246453 -3.553923138868074 7.446857654972597 8.305565852069979
2987 5 -0.007777001219953307 0.0007993574108197883 0.040477675916397 1.003879860278258 -4.701462605998333 13.99703776363375 18.65217428393688 23.78916607009473
2988 5 -0.003118655737328145 0.002794339484315419 0.03756525992690492 1.066866528079574 14.59344413004904 24.10666294937582 236.133585663324 237.8091043008026
2989 5 -0.008904929971375505 -0.0007657501074309563 0.04256993919726541 1.00000103114039 0.01277932325045567 -0.001712101907171391 0.01003795992598203 0.01634022751236341
2990 5 -0.005917243355474199 0.0006196824317496017 0.03787665751565076 1.060596514763558 -47.68598482623388 12.58423624839438 221.4113616713648 226.8376230433813
2991 5 -0.001787493746275441 0.0005192567369204136 0.03937391559463471 1.018792298529867 21.92357549907006 13.1778325758683 103.5899704524745 106.7013608741968
2992 5 -0.003933219533715946 0.002391637170831564 0.03726822232535305 1.08131655089185 14.07527960599768 25.65055921510627 249.2847415750875 250.9959104571086
2993 5 -0.002751709753650711 -0.002965768478232846 0.0373224453283222 1.077706582699364 -5.475112505847009 -37.34420344352041 245.1914274306114 248.0794277509594
2994 5 -0.004001927747158304 -0.003070354847659666 0.04117151971948515 1.000962229609005 5.83429967893499 -1.01210503196452 10.29373695336741 11.87537072282253
2995 5 -0.001306476849891187 0.0006169728461202972 0.0430353125809866 1 0 0 0 0
2996 5 -0.005371289155320941 0.001149756029848363 0.04063959012208988 1.00444680525948 2.04875865265934 20.53754914496967 15.56686882645193 25.85180345660341
2997 5 -0.003802397372382477 -0.003654350937517013 0.049329723309602 1.148343316478485 0.387593775018374 -22.47171341537299 -581.3777301458816 581.8119913187891
2998 5 -0.005921895753101506 -0.003644476989770016 0.0475746337232498 1.044490924053417 27.58366294821166 8.707078706643113 -246.0946235728709 247.7886910912547
2999 5 -0.003375014409612061 0.0008434639243705747 0.03683907229808618 1.099184038893315 21.50561295748392 12.40249396367391 283.4621041729019 284.547145034571
3000 5 -0.003860844080985047 -0.0007846180060461819 0.05227923979580585 1.302677768385432 20.85767674809737 -30.05736864240756 -292.0512262677905 294.3338357266352
3001 5 -0.002097615926314816 0.00132627157919625 0.05036663554460784 1.224521248337052 -32.15549931348055 3.785355175877112 -614.3151579167818 615.1677968621467
3002 5 -0.003712466132851755 -0.002239035130211967 0.04316091941168873 1 0 0 0 0
3003 5 -0.001724215595331072 -0.00018213434303832 0.05251523313150704 1.315061446665982 -62.30197859747106 35.10256356123735 -246.2489770593747 256.4220840889467
3004 5 -0.002987616510356837 0.00159666810627912 0.04635124919200304 1.01553175908637 -26.33472088247378 45.11860786336132 -96.9174453830634 110.1008515819231
3005 5 -0.001710106711308077 -5.456783352242398e-05 0.04522006125347582 1.000919384461422 -4.862492335377141 -1.587449165329102 -8.377911862453669 9.815968303695128
3006 5 -0.002284815554956733 -0.0003546959619531407 0.04461815149756877 1.000013377519597 0.04617676221523516 -0.08360147390606094 -0.01419922661772514 0.09655629365551306
3007 5 -0.001827811550921864 -0.002093134698371183 0.05023262024532624 1.21486803835045 -25.82094623765271 -18.03815682290148 -611.8175582618308 612.6277996986784
3008 5 -0.006273539287519524 0.00298603618032891 0.04929180118078195 1.138963919796774 -37.53346513327496 4.15160775485128 -528.6880981114068 530.0350006711985
3009 5 -0.006095840994829383 -0.0008296312650884828 0.04592127524354626 1.008347218507224 -15.64620379034011 0.6712689612772378 -77.20894419179207 78.78118657572054
3010 5 -0.006079603026923548 0.001223511112790827 0.03517940150852673 1.143646157418438 3.263704909926377 11.40735449125723 199.4590131394166 199.8116048401049
3011 5 -0.007264910081854447 0.002327697735600617 0.04833546000838159 1.079315514101931 -26.11130859508922 28.71311595764672 -386.2371181304109 388.1821156187264
3012 5 -0.00650463220742604 0.003140901821832509 0.05261230895747317 1.306573440296139 -22.85830036513442 -45.46094394083325 -270.2266631057061 274.9757239699881
3013 5 -0.004695103025245715 0.001067207261806299 0.05055360938278618 1.224535064231498 -47.0824706224941 14.65964787416627 -619.6278509127116 621.5869512324225
3014 5 -0.00530624431475525 0.001326266712592113 0.03823055940112724 1.048368344268229 -35.89952646552402 42.82875371207372 228.2367860608988 234.9789536456123
3015 5 -0.004403752547318712 -0.003006345419211639 0.03756205782692103 1.066568065056 -5.619621247660776 -34.71971474815946 242.9843881191285 245.516703311176
3016 5 -0.003018624430858883 0.001902939504383614 0.03774954537673275 1.061553440931611 24.31949534956187 3.127997186627695 241.1873508453884 242.4305270139745
3017 5 -0.002152961998436031 0.001485946547711348 0.04652130646284824 1.021013860388951 13.58558123543778 21.60382272237898 -97.18672269201458 100.48160150664
3018 5 -0.001289109223061231 0.0005072312041137211 0.04712516367691365 1.038827003058354 -18.92863411346198 46.92284368867791 -209.4467923090018 215.4715880522617
3019 5 -0.001371644527343563 0.000930187890054812 0.04787876377714681 1.072841041647015 -8.152711164537557 -15.95125093965003 -365.9033355047257 366.3415892843125
3020 5 -0.003668401308961988 -0.003166451409914498 0.04754196182291012 1.055753500219435 42.36257724188235 -8.863881940968259 -258.4173620655579 262.0165822434899
3021 5 -0.004811252814971008 0.003892070084944584 0.039598394409215 1.011819644902052 -19.3957158276076 12.00518906515576 48.4804039164906 53.57861439848478
3022 5 -0.008857359521932789 0.0003126683494335554 0.0478427665084985 1.050958660720628 -39.46696542917611 -29.58929493499043 -223.0993701676547 228.4874103843401
3023 5 -0.007855545465296267 -0.0001411318044085689 0.04320145180349035 1.000000001135387 -2.771229593340936e-06 -1.109481382682721e-05 -7.791137543165138e-06 1.383750091336879e-05
3024 5 -0.002610257082476786 0.002858250197890429 0.04261105709967508 1 0 0 0 0
3025 5 -0.001814095838928296 0.0004756773342695308 0.04850231878171922 1.109342411870259 0.9365239007055716 8.123129962836094 -459.4475144048105 459.5202724692006
3026 5 -0.008271546858942786 -6.615347497471467e-05 0.03800093983815753 1.046702303788879 -36.18816410081848 -9.550801473659991 178.0444436507563 181.9357714818181
3027 5 -0.002569089817765873 0.002809480147179462 0.05164806150023334 1.288541935574945 -72.6360245775424 50.72988858581 -511.4908901112603 519.1073533761272
3028 5 -0.005356281318652989 -0.0009943845571863069 0.03807862555091487 1.054833993653535 -30.98777966904904 -26.54762311228546 213.6857538828156 217.546822992653
3029 5 -0.005546802248280296 -0.001234467869096278 0.05056962436424407 1.221349703208387 -55.36729284463071 -13.18768065150103 -611.7855032767038 614.4273383057096
3030 5 -0.007630445135556933 0.0004709323172160493 0.03793324042949944 1.051075931291436 -18.95822234644312 21.97380681322244 179.1820781696645 181.5171603942773
3031 5 -0.00284840774611762 0.003141220363148923 0.04898409223233154 1.133599696686239 -37.40570585399481 5.896783899672202 -537.7948173967234 539.1263530097282
3032 5 -0.004912413799984735 -0.001756469578302257 0.03522390399317691 1.142728501906568 11.25698472606892 -5.338592014120954 199.3931522276079 199.7820047578816
3033 5 -0.005941737157690701 -0.003302274648380772 0.05072651566624318 1.225878282320663 -39.16514467414191 41.90737937660303 -565.6163659579507 568.5173791917354
3034 5 -0.006587237632476785 -0.002841634096989198 0.04827847590213449 1.077462218975819 -30.07022539511699 -18.24300914127592 -387.0173062450287 388.6121732151479
3035 5 -0.007300915323766238 0.003059513303778065 0.03609753670653165 1.115417804200765 -35.16507807466792 12.86826375437096 282.5327940774871 285.0034292026699
3036 5 -0.00851175418873629 -0.001401217669634617 0.03792916837570647 1.047426695648304 -35.17968113808017 7.385966525498034 184.7864007676951 188.2503024570532
3037 5 -0.006507729137219208 -0.002102876873187786 0.03751893522247082 1.066656596440394 -24.43896914022191 -14.64797044141409 233.1031995319506 234.8380886541228
3038 5 -0.002998587499222379 -0.003158681160503962 0.03660689184390336 1.103056308239377 -5.847353947646263 -40.90167627662608 269.7741873468145 272.9198615510808
3039 5 -0.003865082889930742 -0.0009852754245594905 0.04983032454676957 1.183364688254694 -42.10731524300576 -41.2555160020897 -587.4495649094241 590.3998940632055
3040 5 -0.007091272944903947 0.0002659499613404791 0.04051771870849535 1.003947548345961 15.40825555978824 1.298834229304288 22.73584442460002 27.49581661727059
3041 5 -0.0066228922766494 -0.002841792771654896 0.04677698285339178 1.018136800242045 4.341006269234517 -24.48669478440081 -80.48833092203566 84.24259000950207
3042 5 -0.008125490484863329 0.001251943924360572 0.0390268449091265 1.019534549984833 -21.85756084734995 -18.59650809754021 114.1866649593944 117.7377489769805
3043 5 -0.001886469851246551 0.0008486218471235284 0.04383408934123698 1.000010953705325 0.01453328594996775 -0.05478708829587163 -0.09796457275451491 0.1131808241683096
3044 5 -0.008126824595267155 0.002411280769788481 0.04299863248548959 1.000003446056839 0.03685130978221914 -0.01019366930993153 -0.03328302047869525 0.05069210371301005
3045 5 -0.001213447043286157 -0.0007111351273253238 0.04517128449322545 1.000919164945696 -3.729916152333576 -4.080829771156884 -8.377901679655771 10.03766320806682
3046 5 -0.006400887425242576 0.0001790994680257685 0.03992636429057403 1.007264184604765 -5.713302224307032 8.535814151255876 38.35001422513348 39.70170697336567
3047 5 -0.003617513274879284 -0.001089225784354177 0.03531040413297786 1.14117641208388 -8.135873933172061 -13.71616180753974 200.3886230395314 201.0222022142492
3048 5 -0.004762979148175701 0.0008823716789824735 0.05355053770740975 1.329337042923755 -6.583578012270859 3.586431196251775 -251.4397689140841 251.5515123781551
3049 5 -0.006681507975773673 -0.003372611045190321 0.04756123109702855 1.040866552254965 -58.6496081146088 33.20269897050501 -243.5035477653632 252.658214838231
3050 5 -0.003103661036968152 -0.003215322046686333 0.04193153816699188 1.00004941037802 0.1491984383577174 0.2376349428080662 0.4638850137311999 0.5421437503247363
3051 5 -0.004745750808532557 -0.001485110521781771 0.04984306857471368 1.179454855193295 -19.9518760092273 -24.86297435040792 -577.2680267481604 578.1475759315708
3052 5 -0.004903624372198498 0.003295695441129458 0.04519038047560412 1.001272237875033 -0.8903932148939104 1.830704449853432 -7.72627044489078 7.989964571100114
3053 5 -0.008703466207629351 -0.001248505015602078 0.03981650488000571 1.006046362587857 -11.1052241315038 1.367386412333624 24.90128584672597 27.29962976730498
3054 5 -0.007166725589518913 0.002399404561516339 0.05070794402736135 1.224358121750798 -39.38136034912814 -20.32493594789055 -620.0643904857479 621.646075281342
3055 5 -0.005088905046360189 -0.002555634592649817 0.03723787892343061 1.079783444416625 -18.85157141356125 -35.61085315389744 246.0212860819775 249.2989928028978
3056 5 -0.008100985931757494 -0.00223376159077534 0.04167696809354729 1.000067690530087 -0.3938914694801608 -0.3250870494732111 -7.168592283510278e-05 0.5107172256770962
3057 5 -0.008201097274010288 -0.000894797693280659 0.04092922671637323 1.000910670581574 0.5514373017370662 -3.691301700704514 10.01999389274218 10.69252397490703
3058 5 -0.001254234729943545 0.0007871415524052584 0.04011559117605512 1.006112186815014 13.70218641552809 -19.45017669138798 45.21956800976638 51.09665954719527
3059 5 -0.002377845361561875 0.0001235754258934173 0.04398217958532992 1.000010953705325 0.02678213464790362 -0.01584094727102972 -0.1043827029339342 0.1089218390339418
3060 5 -0.003246867075444011 -0.002731866355493877 0.04118212330583404 1.000962229609005 -2.960258233877644 -4.37737825165102 9.034144523894669 10.46615194079867
3061 5 -0.003744675278870539 -0.0003892947025288612 0.05053900596501651 1.228817190445133 -44.09976995525 -4.641711655287763 -621.2376536373737 622.8182379266573
3062 5 -0.006491075891356976 9.932824473693204e-05 0.04992595053622175 1.176143126414581 -78.87758924850202 -28.04143859340356 -578.9240314510854 584.9453227059947
3063 5 -0.008438518638322092 0.001874499340500365 0.03870140242569602 1.026933929481159 -28.40587815247324 -11.252604606682 109.3494512731287 113.5377360958982
3064 5 -0.007356370263223582 -0.002127155679918332 0.03715165498605995 1.076887162723124 -25.45494133629732 -15.25610829814257 242.7829983501847 244.5900389769477
3065 5 -0.001788155886934813 -0.001011263255756041 0.04456937473731839 1.00001315800387 -0.05159586456797024 0.1088746583727248 -0.0296708373120488 0.1240813566298013
3066 5 -0.00244989779903175 0.002881840362040414 0.0446455770118797 1.000336935114527 0.07041251117314354 -1.548725853726773 -3.004745649165715 3.381124976677396
3067 5 -0.008098974035860297 -0.002237081878711309 0.04024792687600098 1.00306732992463 1.932615829077943 -8.610842011599766 24.62290673524789 26.15662707965708
3068 5 -0.0059385688654952 0.002487631248064874 0.03876477072347435 1.026811135441919 4.30063940577072 21.54617992214562 118.1820603052616 120.2070411686954
3069 5 -0.005228505137935321 0.003198461619521724 0.03561057859008834 1.132818461379319 -12.78907611384805 -1.432831196873344 195.4088088235263 195.8321118685952
3070 5 -0.003046731416819726 -0.001911215610017249 0.04433107149268103 1.000002423814272 -0.004921860480131989 -0.005145162070636223 -0.02169522166044631 0.02283374796687783
3071 5 -0.001199842678017626 0.0005817482305573778 0.03875808338854785 1.030428963179628 10.15051185485467 22.65012990543944 128.8027872899233 131.1724791612252
3072 5 -0.007394110935496382 0.00145925336536219 0.03925452042535597 1.017175130125118 -10.19181953707757 -14.73156829284687 121.2453662173846 122.5615401299726
3073 5 -0.002066595783823372 -0.002374682007518144 0.05149258011587296 1.281953547981871 2.991978426032274 -5.946393430724817 -476.1406202060827 476.187149910587
3074 5 -0.005754782936352325 -0.001785827285034056 0.05118029538830363 1.252774594660893 -93.99253376585476 -102.9308492379003 -613.4982472208368 629.1338931194215
3075 5 -0.005664127889235765 0.001400021065521183 0.03899491356902651 1.02383053794391 9.448841924505473 1.317298059327418 118.5649475514781 118.9481512078946
3076 5 -0.003858721708682445 -0.003553810538852121 0.041920934580643 1.00004941037802 -0.2916201260526473 0.04668431836022305 0.459336211969731 0.5460874280977563
3077 5 -0.006765025301263016 0.003314134461333195 0.04754833142940376 1.04148177445084 35.17953537550139 14.07122932336403 -223.3797438421606 226.5703183625255
3078 5 -0.008024023112636504 -0.001832574995964748 0.05257144655568807 1.300325616804307 9.534800946090451 39.3567474401814 -294.8871578526634 297.6546688103069
3079 5 -0.00784861822873361 -0.002561682689544112 0.04303015290254848 1.000000002462384 2.61692742720542e-05 -1.416011571967099e-05 2.927458053833373e-07 2.975610010110601e-05
3080 5 -0.005395876203733363 -0.003227471742810292 0.0469830949468234 1.022892733721972 -21.25470833846187 0.3402329516600613 -148.0077748113629 149.5265186835618
3081 5 -0.006166818446207096 -0.0008035710620243464 0.03960271222680141 1.013664934002412 -6.280319714205671 22.09990456519499 48.54726050785843 53.70926084318456
3082 5 -0.002540325515073169 0.003061677024117478 0.03703305934885553 1.085272814430028 1.080261219447777 16.28250532390079 271.3881371821775 271.8782962046391
3083 5 -0.008652572375725339 0.001601855507571023 0.04110895257558161 1.00034243096616 -2.275873469339944 -1.061739381135463 3.346164922460392 4.183743568887045
3084 5 -0.006124186882291164 0.0005627308293312598 0.05064022119910652 1.223177653172934 -55.48601884763193 2.41892474824682 -609.0210507014467 611.5481908091884
3085 5 -0.005519568187711032 0.001616537086987564 0.03471244160394812 1.15476520674835 -4.422953454633172 1.199609868350685 210.1703379459275 210.2202952462095
3086 5 -0.008131473243464249 -0.0009823448502327648 0.04031296187938514 1.003687115365511 -9.044636094819834 13.04828883787885 42.36613003604798 45.24325649105907
3087 5 -0.003897090897174251 0.00365598914804712 0.04153367953487238 1.000026753506356 0.06580791506083249 0.1943159450023217 -0.001493093824908508 0.2051623686156139
3088 5 -0.004170997850639665 -0.003599512673315465 0.03688966835535656 1.089951729065419 -5.602965980320424 -36.49686057828422 275.7114495615555 278.1729991914771
3089 5 -0.007442625217394731 0.002860743591603798 0.04755487247167909 1.040012553411928 -48.5486236045329 -40.17127779687157 -223.5077627987807 232.2206288102847
3090 5 -0.003148659202210873 -0.002642879751174363 0.04464085625631484 1.000006988749338 0.002866351966525097 0.02807120858353342 -0.05254225630086764 0.0596397302318036
3091 5 -0.004856150349681142 -0.003148801846753641 0.03656548945186615 1.103167108426044 -32.88220406441116 -33.33253553642117 285.6120192438829 289.4244682226928
3092 5 -0.001776829794864954 -0.000288448935109001 0.05045758761142566 1.231080281344509 -37.27648519954432 -14.51337061030442 -618.9077123721189 620.1991056983179
3093 5 -0.005224523500626455 0.003698454573528254 0.03638819282449646 1.109351147973641 2.988290926207834 35.63457466198949 275.2265229984595 277.539892188172
3094 5 -0.005449363987312402 0.00274673720815661 0.04543959033171883 1.001295036072818 -5.607071261241171 -1.388102730073783 -5.74932144149953 8.149894131555403
3095 5 -0.006631253933513646 2.117777637059291e-05 0.04452323337826872 1.000000001135387 -1.972650144218425e-07 -1.065960691382102e-05 7.993207020507986e-06 1.332507003793203e-05
3096 5 -0.001251045149946929 -0.000258856672123019 0.05108403260685325 1.265826142579871 17.77389103612834 23.22100574544758 -583.22137865868 583.9540245900577
3097 5 -0.007299467447919542 -0.001315575903795075 0.0500492065853237 1.180569248872869 -24.78054282912688 45.55723428355638 -578.9314956816668 581.2496998628772
3098 5 -0.00403292898192332 0.003775604673978685 0.04718890027528373 1.0374326044254 26.62714022421068 2.70883682079021 -224.7426921615272 226.3307757982825
3099 5 -0.001506272956529547 0.0015986087548083 0.04975790101150647 1.188028490159465 16.21646555053109 -8.060052396011953 -598.4058185420794 598.6797657050004
3100 5 -0.004088638214058374 0.003171667805224038 0.04518724924844065 1.001264026419763 2.062624700544432 1.083393740253142 -9.041105269549954 9.336474021106664
3101 5 -0.007556823190176658 -0.002801913533335138 0.03893372281970664 1.019665233902576 -18.29553092001379 21.24595680166157 94.71237341697234 98.77525403834332
3102 5 -0.00432573922856771 0.001109098034634295 0.03827318428664203 1.048152627965024 31.68700286343173 17.15978855642606 212.2689690023622 215.3059211798277
3103 5 -0.003874941636472066 0.003706255599909631 0.04857017458030535 1.104763165790772 -41.94481954353304 30.39877041265801 -419.5236230474559 422.709738974636
3104 5 -0.006510214789677097 0.002949251566627886 0.04681778699619139 1.020249341210057 -34.40222135169747 13.15169967260417 -94.48078807593004 101.4056179590577
3105 5 -0.007839088141595698 -0.0003481486098812778 0.0405305046875226 1.003687115365511 -6.242909401086477 -15.03541797285401 22.58017300701287 27.83706026927463
3106 5 -0.00715282289328884 0.001689950073703799 0.05115533598224668 1.246434743356549 -81.32976171950865 -120.4167107017098 -631.7350463637601 648.2313500300595
3107 5 -0.002657984635148234 0.00225953602948132 0.05245282021237145 1.312131128320529 -60.68517232685907 -27.72517584608369 -261.8201411186998 270.1872717421247
3108 5 -0.007162520354501894 -0.00329713290174308 0.0463517310373211 1.010116285422871 8.739004221114463 -21.05962941436839 -72.29180515006077 75.80226433096533
3109 5 -0.008027943745351885 -0.002462093437033421 0.04562791774903222 1.001514325161514 3.025470530206163 -1.689186476276805 -11.54961944949829 12.05821430847087
3110 5 -0.004720130245603169 0.001441321335425031 0.05294566143591024 1.315438723436506 7.786391982241469 64.63886594146952 -331.112832167091 337.4529871197061
3111 5 -0.005240674724142766 -0.0007294221653162311 0.0512338630391373 1.258401063369593 -16.35723180358028 93.24183093250703 -588.0897384866938 595.6602543239478
3112 5 -0.006689978783873814 -0.002186479412882343 0.05100336125200693 1.238750780461474 32.01257452550497 -25.03068250565097 -596.3578872688885 597.7408047826934
3113 5 -0.008904275281124457 -0.0007710626115056382 0.04113603589066962 1.000844011191877 2.86705180562907 -4.102077613799072 8.105250553426449 9.52586549031699
3114 5 -0.003734323604375621 0.003610982959760346 0.04450654542255716 1.000325981409202 -1.565938571824669 1.123326074419258 -2.981363735853569 3.550007719098821
3115 5 -0.005818604579640935 0.002457598616446955 0.05042747025440877 1.211934744110407 -34.36888183337392 -12.26769844727196 -603.1262956027061 604.2292982892442
3116 5 -0.007187814705808812 0.002495860696898488 0.04682432803846672 1.018780120171145 -14.88271931172654 25.631018982525 -93.211844449426 97.81049235055605
3117 5 -0.007872724324236725 0.002638788589363492 0.04062982199946159 1.00149705588001 -4.306970795114611 6.203363195279787 3.306778732366259 8.244179640652661
3118 5 -0.00757227377543384 0.002345541421431317 0.04442759831231095 1.000026243093602 0.2557176279054116 0.1631442569581402 -0.4587843584833765 0.5499914921060121
3119 5 -0.005550461089355836 -0.003250078551300632 0.0450431251267263 1.000262263712405 -1.478119171066089 0.7437161002720788 -2.215927492554827 2.76555321300049
3120 5 -0.006607255646833654 -0.003047876492131639 0.05065869756544318 1.219763378857579 -8.998292056144798 34.40432426383552 -560.2984829019671 561.4258782156596
3121 5 -0.003256202370354691 -0.002776981201934146 0.05000330586705726 1.194456432237705 -32.64632291364956 18.64646062414526 -601.7275908664013 602.9009591163987
3122 5 -0.007825571013786493 4.267298890755385e-05 0.05254592154491167 1.301141696763812 -2.526328787122309 -77.1339128124749 -304.5169956703151 314.1442717844427
3123 5 -0.008901768859418326 6.660313042848777e-05 0.04637346119088134 1.009304662917215 -14.28679525026479 35.37013018826048 -78.46249173101066 87.24403267098786
3124 5 -0.003508050955026718 0.0001239685144103905 0.0442797381214504 1.000010953705325 -0.07478914345879238 -0.03956548231505157 -0.07423582749944471 0.1125602125737589
3125 5 -0.004709815834152085 0.003857703427399293 0.04578105792013597 1.004488265715951 -14.15737656217493 -16.37935874919734 -31.57087298817288 38.28099692267002
3126 5 -0.002788390472725779 -0.002534380451545195 0.04642555212930964 1.017444559272056 -20.34884125159001 -14.92429397219686 -140.4642372988378 142.7130402268664
3127 5 -0.008292319014433546 0.0008578882474668214 0.03833914739469181 1.03585295000108 -13.57118697312789 11.34442578430521 159.7217704472653 160.698217373573
3128 5 -0.008901300766410334 5.756946250134578e-05 0.04495219166940439 1.00027880766892 1.702955684887728 1.449141256769046 -2.716712330524851 3.518606873975461
3129 5 -0.008119845896895064 -0.002101544773322241 0.03792140912897947 1.048008910262819 -10.02627239915603 -25.99026539126579 185.6474362879172 187.7258390142571
3130 5 -0.00841718062435204 0.0004216410454299759 0.04444999073636812 1.000000001135387 -6.211629445239331e-06 -5.285826625283668e-06 9.909365496874615e-06 1.283432226602445e-05
3131 5 -0.007453329450775503 -0.002221813769425604 0.04438782732983697 1.000006425834675 -0.03134256112018906 0.01196750182339406 -0.05149738026820901 0.06146183703693089
3132 5 -0.005698238892054152 -0.00383434546320464 0.05006621326259418 1.19069876391722 -5.542629066372777 17.24682786393073 -569.2524602044887 569.5406370551608
3133 5 -0.003978705576785608 0.003159073009768898 0.0402247648315134 1.006843435611769 14.93484336537462 4.903153552305116 56.77548224728412 58.91133885354696
3134 5 -0.007438226211030416 -0.001816938010745516 0.05297582778015324 1.310326815635199 -25.07996215248532 50.78784583151514 -316.541519469157 321.5695000052377
3135 5 -0.0042512494679601 -0.001625142493217129 0.03472672443417054 1.154521594950896 -1.190539557475438 -2.494871957049541 209.2223977644057 209.2406592820984
3136 5 -0.002704836797028134 0.003139848719177146 0.03896276531932079 1.022816933461509 -11.62616520792324 16.96789944741256 111.2763171893745 113.1613719266858
3137 5 -0.003415021148421575 -0.0003543028734361675 0.04491571003368925 1.000013377519597 -0.05955748458148221 -0.07606437036796806 -0.02559660470422162 0.09994032510219832
3138 5 -0.007864379695648016 0.002055703665383323 0.04467113257077944 1.00034239800528 2.742734900548178 2.034836258289241 -3.050143042414835 4.578921915901734
3139 5 -0.005435716561839517 0.001453989389153684 0.04616420552307992 1.011027894526394 21.8302998019794 33.0431431063901 -95.25619171941004 103.1608130865528
3140 5 -0.007820021249941599 -0.001653548413444114 0.04930012111879876 1.132510999666272 -28.19696729536319 25.7942434462932 -523.7576863218928 525.150003276097
3141 5 -0.005876702916626254 0.003156870052764321 0.04989782992624247 1.179469351942088 -40.84567988366506 5.357179894517881 -583.5494277350324 585.0017124346431
3142 5 -0.007988674421628242 0.002546444430246804 0.03869062545643508 1.027108950120048 -3.623614162471548 34.63831465382412 109.0748027986097 114.5000263196973
3143 5 -0.004152367144849921 -0.003699981982725039 0.03808683585728793 1.046548971287259 -15.29847763915834 -9.883070700759934 172.0142796412414 172.97581017312
3144 5 -0.006612882709033333 0.002508471576730591 0.05294297419782591 1.312610329613228 7.68933289606001 -6.057570046475472 -295.2507750998649 295.4129993624611
3145 5 -0.005181179092844308 -0.003847067418339824 0.04464636970015046 1.000255837877731 -1.334623800022199 0.5369048602970677 -2.508492266260167 2.891715920778419
3146 5 -0.00345726157520832 -0.0003157038843407686 0.05291287234074429 1.317023360034447 21.57344646474676 -7.789697977651906 -280.49929722113 281.4355143340977
3147 5 -0.006324228144114731 -0.000721776367602558 0.04496517503598401 1.000006425834675 0.0009452644392706931 0.05107924170827188 -0.03830225229932325 0.0638517422593403
3148 5 -0.003976765000358124 -0.0009793670854319151 0.04043015178868837 1.005020468638633 13.52814817250183 -9.555352434421108 15.46019089029118 22.65685449234744
3149 5 -0.00407829307397671 -0.003183817046330922 0.05255776149302973 1.311080730802378 -54.23627541034396 43.5385259898556 -292.6601990284619 300.810852382581
3150 5 -0.006494718394573628 0.002837653226587595 0.05068399216912937 1.225810088119573 -25.36131202111354 -13.19244199946215 -630.2757462809059 630.9237299573493
3151 5 -0.007567973646626414 0.0007006415980454739 0.03706956663490077 1.080279952382244 -33.24038899042901 10.80815819308619 256.8168338669976 259.184540243493
3152 5 -0.008503167244547128 -0.0015323054698112 0.04373206674956769 1.000000002462384 4.937597833983609e-06 1.639357257890474e-05 2.377685894668284e-05 2.929962654438498e-05
3153 5 -0.005218946395842819 0.003172593835086212 0.05066012021091413 1.228809010290366 -34.27297004244318 -12.50828063464516 -628.3103164497686 629.368689495413
3154 5 -0.003806988133195303 -0.002494537798044471 0.04523449335264443 1.001144976265488 8.438255652726975 2.551447291028444 -10.70691299773674 13.86910334811804
3155 5 -0.007419070934808871 0.002376995334935187 0.03916223001253565 1.018036541334105 3.843368802858582 31.90156626937794 111.423574003741 115.9641938615599
3156 5 -0.008933420737819399 0.0003208024552760574 0.03840684680334989 1.031479322498523 -26.64584689058594 -14.37382136075522 157.3858014369009 160.2713274137425
3157 5 -0.008285944592618121 8.550732608594443e-05 0.05138464170004214 1.257044926387304 -48.79335836379548 24.74602909121201 -523.4156161667623 526.2671042573651
3158 5 -0.003800336654834174 0.0006819542916800809 0.05291287234074429 1.317004208296167 41.7702073740543 -35.10351704272941 -260.1191806747695 265.7799753325183
3159 5 -0.001240762409923039 0.001066731679786556 0.04431185972538158 1.000122725994295 -0.7323010589073129 -0.7411809717876153 -1.015665059780459 1.455056558170729
3160 5 -0.003050351011044242 0.003381737277360132 0.03954865160246381 1.011984770411496 14.54040864577046 2.555223218663333 61.77696653979005 63.51650371471601
3161 5 -0.006552816731558947 0.00353692466290496 0.05015435184096308 1.193344695951254 -18.80946900735383 -1.434934920984517 -606.484169658569 606.7774742102824
3162 5 -0.005343229244137321 0.003876896902359027 0.04873330388212382 1.108171510482436 -6.451636265489951 18.79826452403063 -448.3214967144207 448.7618107369163
3163 5 -0.008004741014414642 -0.002437703779966075 0.04949185503674025 1.145975325811393 -29.41072605225612 1.316538490872915 -546.0251293370094 546.8182202048654
3164 5 -0.008199026072139494 0.0008303718453470826 0.04942124282284185 1.138406434934381 -25.3551282757854 -32.11596263186246 -523.0836218350474 524.6816110916444
3165 5 -0.007513466100637862 0.001518373278363472 0.04515106552903914 1.00033895424485 2.307303500257925 -1.209724663682024 -0.5345159459901212 2.659471846201943
3166 5 -0.006191549848190432 -0.0006609676161134059 0.03868253481592162 1.032283062579102 -11.88389183406199 -22.59346217155705 179.1010555777764 180.9112476522536
3167 5 -0.004127032321017096 -0.003819498029941802 0.0406401187190621 1.00208504118226 5.662291339301737 -1.335299642209257 9.883366632803822 11.46845692951042
3168 5 -0.003313483994664 0.002825629106342108 0.0400250583218357 1.007478994222671 14.99307866098398 4.916686100595016 56.96731797374027 59.11210981742632
3169 5 -0.005038585989945167 -0.002828063493381498 0.04539936528296984 1.001400251228556 -7.722013105834854 -4.144555711322115 -10.93953496715934 14.01714142572015
3170 5 -0.006219881975242746 0.001016878345183053 0.04599857833641904 1.010089849515833 -18.52875224736922 6.350287306534343 -96.10272603977738 98.07841128911309
3171 5 -0.006321855696031834 -0.0008301950783735361 0.04988410997479822 1.174028855635899 -83.73559669073234 10.233464158931 -567.761759072102 573.9945897014123
3172 5 -0.007542922234423814 -0.002255814833850652 0.03611646618122459 1.113567967872254 -31.9536398929085 -2.62881907166881 268.8385594463643 270.7436367439014
3173 5 -0.00203877142259242 0.002370271932892378 0.040982522560029 1.000719324140921 -0.4253155654421696 -4.010584759725874 5.389036569484946 6.731077075208611
3174 5 -0.001158064758679919 -0.000725101774966175 0.04315482511410384 1 0 0 0 0
3175 5 -0.008310503159393773 -0.0001408362265221425 0.05179580067075839 1.276052620541361 -56.84627842560899 13.0200313981445 -524.3225216802119 527.5558049434645
3176 5 -0.007136158617611191 -0.003288978990664608 0.04879964726316123 1.105673640826009 -15.85387295117235 -14.26983828212883 -449.6768084241381 450.1824137021226
3177 5 -0.00472738011202055 0.0004835912793459742 0.05124474494129279 1.261672396730805 -92.08819654247142 -100.6594060592341 -582.8223685034285 598.5770336377674
3178 5 -0.001257211607400918 0.000575537803128399 0.05111233463333454 1.26782699349129 3.637511072226915 -40.32404919367251 -586.311230754304 587.7075120659945
3179 5 -0.002321209491761748 0.002615527606975802 0.05093318863139908 1.253802388191124 22.97615801494281 9.509725526947426 -609.8749490584925 610.3816774820688
3180 5 -0.003330676646673481 -0.002950739911033123 0.04733677320606922 1.045490281410939 29.94647216521043 -14.37809109499337 -241.9546144379548 244.2243971156384
3181 5 -0.006713016099493074 0.000833973105857976 0.0512667883455676 1.25398119567417 -135.5452448191593 37.70983110918454 -613.8243710601084 629.7419338607734
3182 5 -0.002288502146193647 0.002583229749223785 0.0432319005210143 1 0 0 0 0
3183 5 -0.007419737792148797 0.002877062821044374 0.05132765490274672 1.25738215023183 -40.65643520081273 39.38621587121865 -557.1367312935801 560.0049616569365
3184 5 -0.006459896617665479 -0.00302010189159311 0.03736375541756426 1.070033436551346 -20.84917006752264 -21.71475094566334 236.2569969115673 238.167140661362
3185 5 -0.005667510905647842 0.001272088603277183 0.04910276326830365 1.13419285095917 -32.33603293391036 12.75621750640241 -466.4744776730078 467.7678681047673
3186 5 -0.003833962329802243 0.0008499948522016978 0.04605144170243929 1.012823081147222 -20.33148677470812 48.63132342331232 -93.27007903146206 107.133947070516
3187 5 -0.001810379380719018 0.002048560043835428 0.0509879473435372 1.258920527772752 -50.21572320625921 64.53846288223095 -601.4724191367981 607.0056861600234
3188 5 -0.005626166788102046 0.003689821154615652 0.05191314472428794 1.287941790528365 -67.29176882988055 36.97666957021156 -480.6752489841284 486.7690943668389
3189 5 -0.008749909592330279 0.001129855006762763 0.03978473431530041 1.006581709943111 8.365189346716983 14.3464360607719 34.6878958246086 38.45837668429522
3190 5 -0.003085857316654943 -0.002653545063567023 0.04363620569601668 1 0 0 0 0
3191 5 -0.008732982727931361 -0.0008282493983431739 0.05182810342778414 1.275349506462271 -59.60828613225785 -9.586719401232365 -511.2541808635766 514.8066534292168
3192 5 -0.006761597568396909 0.002839947987219574 0.03880599883392928 1.023991345285782 -12.6010561062737 25.21574230146053 119.4317612195017 122.713348348088
3193 5 -0.002832671420716936 -0.003166329150756378 0.05063731884330257 1.235459799246029 -13.68861730365389 18.08160681917377 -641.9366037691673 642.3370812957493
3194 5 -0.006531702263315322 0.0002403304638504951 0.03849484961087992 1.037731737728857 -11.73704703608251 20.57051720278182 171.2097566333172 172.840056750618
3195 5 -0.004084550582162224 0.0009745342585912949 0.04442953440399414 1.000010953705325 -0.07605858096687665 -0.0365458275167442 -0.07411476926037051 0.1123098582943479
3196 5 -0.008396142030932665 0.001939982914903359 0.0488047428882675 1.102403983082975 -36.96782124133374 -20.94535974052067 -436.9425013448094 439.0035049785478
3197 5 -0.005143490126514614 0.0037305403528136 0.05140459951508609 1.267843536707449 -1.810459469196746 26.02149284944802 -520.1443698999573 520.7980044049968
3198 5 -0.002862247202055143 -0.002545568223758642 0.05257756654585527 1.314058328756592 -71.76557888674066 43.00308104270014 -270.7794575151684 283.4097350203816
3199 5 -0.005375331295768495 -0.001569074456233299 0.04605765471066409 1.009485206023374 17.09153518765785 -19.60458121519072 -81.46904917295953 85.51997516861223
3200 5 -0.008227737458844251 0.001215042009627956 0.04491927126616437 1.000316156047065 -0.6732340331600207 -3.124259441016051 -0.6627801804522446 3.263972837782684
3201 5 -0.002132682683250948 0.001551016403883666 0.04388125244522328 1.000010953705325 -0.03472328373256126 0.08104303905468957 -0.09470634263124783 0.1293946364691335
3202 5 -0.008066491999651589 0.001525089472263665 0.05095144980481456 1.231660003428956 8.19493415325482 -23.60648507716714 -563.898185006035 564.4515799752669
3203 5 -0.006278098906568632 0.0006482129462624013 0.04892421418501621 1.118355028199903 -79.29302290746932 -35.9318984714679 -456.0106041464313 464.2457925534292
3204 5 -0.004251458380766571 0.00115633478135104 0.05355053770740975 1.329895020175466 -21.56259143061274 -4.664903075216195 -240.6515941120469 241.6607051603013
3205 5 -0.005745848609120381 -0.002629871853159658 0.04642915040195418 1.011901222777506 14.86140149329687 -26.09049955366406 -80.25372768532959 85.68684980028003
3206 5 -0.002549943875786784 -0.002938335646040869 0.05186523273718817 1.29622881219149 -2.474842061509439 -15.95886257069713 -485.6120090326476 485.8804723947074
3207 5 -0.005736138761211193 0.003205854812520391 0.03927077591940765 1.014557431197344 -8.614570631778427 5.134631796697464 80.58051618353193 81.2021850645782
3208 5 -0.001890100948833127 -0.002318435107922585 0.04662314018929893 1.022451146878422 27.54900671087191 16.61786304271057 -136.2116460296766 139.9596858276549
3209 5 -0.001782996252318944 0.0005459455401424168 0.05048588963790694 1.233081132255928 -36.69579548907144 10.66833171027398 -631.0019507039964 632.1580945462179
3210 5 -0.004217919214513545 -0.001162286075251695 0.05291690516247131 1.315780574546805 -59.36812406766314 -79.32070921697537 -271.0756722656783 288.6145685170567
3211 5 -0.002446452507174349 -0.002889423282374844 0.04508961017649778 1.002093134321699 -16.64828106483534 6.100686155748151 -17.6376003486972 25.0093698450212
3212 5 -0.004157411788362675 -0.0005795972540086168 0.05355053770740975 1.32995055047163 -9.139666847987264 2.551627641416662 -250.0120721393126 250.1920872631776
3213 5 -0.00182121891778697 -0.002120339936552192 0.04810211614889769 1.081839393031202 -35.78578975981275 -37.91638174775662 -391.9442464482096 395.3967211263011
3214 5 -0.008864408366249544 0.0002886915656102076 0.04935389346740029 1.131040255408929 -11.00509166809048 -8.293989485501905 -509.7254205944353 509.9116655896221
3215 5 -0.003546088194500858 2.813816630897205e-05 0.04589278346650995 1.011887459950933 11.08736716480606 -26.05721455465416 -105.2717315747025 109.0139697916314
3216 5 -0.002386780825886487 -0.00290331176601968 0.04307093861143593 1 0 0 0 0
3217 5 -0.00520456469253648 0.001650260862394497 0.04533361939630415 1.000960843208346 -5.662500382395018 -2.826184474400637 -5.749937709123221 8.550614768703133
3218 5 -0.003667276273881954 -0.0004340483915396544 0.04883912076862165 1.124830034735923 -34.14490571370541 -40.79594200417924 -482.4610196203044 485.3852273434678
3219 5 -0.005648839162828493 0.0001382532100008382 0.05126261931257623 1.258114742555458 30.158833387784 -42.62538340410643 -586.9823533440182 589.3002305098319
3220 5 -0.004319215673334823 -0.000384084095971095 0.05121598866785386 1.261958717544941 -146.720942955034 32.18598125331087 -583.3023638966071 602.332649138516
3221 5 -0.005500966782487835 0.003606859269095878 0.03489813698614022 1.149721404117323 -14.93154906642673 2.998307573405431 200.8940056663104 201.4704507328145
3222 5 -0.002026877574186352 -0.002531451636891614 0.0393397588751753 1.01490339523519 4.955029867599973 23.56926500870377 99.10113451581408 101.9857707543596
3223 5 -0.007405835095918726 0.002167608333231835 0.05177504685763205 1.279458771837582 -72.88074171978782 -10.31499726185599 -528.0289019340581 533.1346199224223
3224 5 -0.004080666326313393 0.003826055489313053 0.03972229619889164 1.011479545061256 14.54806727260786 14.2194439653522 48.14404641969772 52.26555322307536
3225 5 -0.005156603035622733 -0.00141764820390558 0.04882811674218258 1.117386911915737 -2.262641307166724 -31.75566790574389 -444.0734027060903 445.2131275926062
3226 5 -0.001808162243955631 0.002033193036119799 0.04308266161774299 1 0 0 0 0
3227 5 -0.004884271494935351 -0.001313111581114387 0.05246432505857888 1.30648641515882 48.1165565216653 -32.27330309088618 -261.137634769894 267.4876322320592
3228 5 -0.00591086900540912 0.003306934197976904 0.04478202661501299 1.000356991062258 -3.004378786542506 -1.986795346167625 -3.169084011823365 4.797576587671574
3229 5 -0.006525733194467586 -0.003537366846669352 0.0395411947945979 1.014167343688743 -28.19684801034919 -2.459953292288825 50.60565686275975 57.98315371235303
3230 5 -0.00721215225947984 -0.003074493593042602 0.04096249175635437 1.000640394634582 3.372933282254628 -0.3639766988447519 5.43870087642075 6.410040966095516
3231 5 -0.006293835056662111 0.0031401038971521 0.04454743738247626 1.000022798197785 -0.2424351960010184 -0.2213675893825227 -0.5210009994497032 0.6158087976934651
3232 5 -0.006517631474118714 0.003686535715680998 0.04490308032737475 1.000356991062258 -0.9902206604466174 -2.478733491567862 -3.186815512326001 4.156976038925071
3233 5 -0.00786627743590255 0.002769890012037128 0.04492402892509177 1.000342396869893 2.458118676056364 0.004015487922364227 -3.029918468397905 3.901636768698369
3234 5 -0.003853622381672558 -0.001121566184622009 0.04467157211551934 1.000002423814272 -0.0121820219630458 0.007800121613401631 -0.02280825744645759 0.02700852021188635
3235 5 -0.001170901396610213 0.0003622232596058622 0.04086559117605512 1.001302917016183 3.216036597925423 2.492102804870831 4.215350501590272 5.858553374383317
3236 5 -0.002639744224875342 0.003070906771385072 0.04702637999834782 1.0320797065661 -18.37068120121839 27.27845441734937 -213.3379399183355 215.8579917718951
3237 5 -0.007459609847689492 -0.002120500822366104 0.05055778683847286 1.213866282245939 -16.54286996212084 3.513419090902429 -597.068164428681 597.3076289773356
3238 5 -0.007936814016610918 0.002607639555112907 0.04882250631365433 1.104814297426828 -13.05852946464186 28.81981294273757 -439.1816759247124 440.3199419488883
3239 5 -0.008113678358002314 -0.002239312165231842 0.04373948860526324 1.000000002462384 1.460042630622014e-05 -5.5748675984704e-06 2.398922355726256e-05 2.863100494121995e-05
3240 5 -0.004950528468710027 0.001475341932800578 0.03976030587721754 1.010904451408543 -16.34638131926101 -5.273961678705797 59.64050844419722 62.06455591966724
3241 5 -0.008111836395294718 0.001871819117430503 0.03522740265247628 1.138713669622279 -19.75430978233417 -2.650392470311407 160.3323650517911 161.5664712071286
3242 5 -0.006765855815295469 -0.0002431786833387512 0.04218200407321328 1.000067688067703 -0.2751247776407973 0.3846373723629742 0.4971766802375338 0.6861663084575097
3243 5 -0.005689271393473631 -0.003280601720406453 0.03719918797477906 1.076518725313598 -3.344800387044403 -29.32642697077429 240.4832013075932 242.2878393969655
3244 5 -0.003833188227246685 0.001500237190899758 0.03745250777518088 1.076003463743887 17.67280853589635 -2.13335796495721 253.2050046841846 253.8299702061816
3245 5 -0.007858669498198042 0.002667061089234027 0.03625660395796619 1.107998981891699 -21.94230436622589 15.84894301814533 271.6082856536455 272.9536857259941
3246 5 -0.005836910084322395 0.0007721926814166745 0.05250897745441932 1.305454807349227 3.345595853424826 80.96454054966517 -269.0204676605817 280.959893682979
3247 5 -0.007855531225429545 0.002781895931795402 0.0463583298825212 1.009029223764776 5.327429322369865 23.1379758288178 -66.52442324459822 70.63459716503127
3248 5 -0.00173478019994664 0.000515750019396771 0.05246095651611517 1.314008433415902 -74.51409118068723 -31.61135963830928 -258.0073603966817 270.4060388777024
3249 5 -0.004279394910858467 0.001318119556637463 0.04522416455216233 1.000948998715885 1.613537497919272 -4.0107612253859 -8.971715318880827 9.958985120346927
3250 5 -0.003514079447707379 0.002440646824007895 0.03488910729597333 1.152619609104389 1.001783538136937 -3.539979463867983 187.331535622261 187.3676579974685
3251 5 -0.003548350555899552 -0.0006442988887174492 0.03458367969880732 1.159008853490231 -0.2892828827508097 -1.043427626020832 200.6765284340356 200.6794495959496
3252 5 -0.006462196592824987 0.0008345958351028858 0.03912843209230175 1.020149336578785 -9.368557317810655 -15.46850925926551 122.9562598199911 124.2790669173303
3253 5 -0.003104781438158779 -0.002741081329244952 0.04568324727282736 1.003231121837849 -6.919194756280731 9.854979303071838 -32.87437325048728 35.01028834145287
3254 5 -0.00776457037934265 -0.002785008796999712 0.04491867572132853 1.000326703688049 0.7150644358149117 2.863712280968333 -3.118195565026142 4.293635843581154
3255 5 -0.003772155735377879 -0.002508985680921792 0.05296071804989549 1.318381552113818 -36.49348789208861 61.91355962910129 -286.8438191591233 295.7100608945663
3256 5 -0.005448655412214795 -0.00128078158125401 0.05184453406319686 1.289825954822099 -49.43758761353334 12.05401246109681 -456.7946285962253 459.6201768850248
3257 5 -0.00413815788886011 0.003751539854170043 0.04378122286344239 1 0 0 0 0
3258 5 -0.003047003412972349 -0.003350628418054197 0.0479414466775074 1.068833515072558 34.5884337113535 -10.99473658632874 -272.8530418268541 275.2562922321203
3259 5 -0.005573759073408335 -0.001570614789124262 0.03722026099167722 1.082822545145085 -29.37119341823208 -17.73795961774443 248.9926949193345 251.3457068211126
3260 5 -0.008107299578009111 -0.0005202756618127109 0.03476652625540663 1.148647769127068 -48.0283970019597 -38.94483974380768 184.1196846948969 194.2253478653004
3261 5 -0.007579576704728731 0.002203525862324624 0.03684843991102666 1.087401566203561 -20.64989564231203 10.58895982984243 261.6150433689052 262.6422951034934
3262 5 -0.006040953104023195 -0.001036928323186664 0.0488553165927107 1.114514498775722 -83.7115949971561 13.14076392203052 -443.12696048819 451.1560859890115
3263 5 -0.002852778301115499 -0.003287536540714626 0.04668651275324502 1.021616125465667 -22.9321620971494 -24.99469151637248 -144.5853140215608 148.511049060876
3264 5 -0.002613219652548189 -0.003139162487429664 0.04069677959147777 1.002116199686167 -4.579062397550105 -3.963286167323584 10.83836027378526 12.41553474922132
3265 5 -0.005520714662155549 -0.003352853491608274 0.04601378066829994 1.003816267982688 3.676822147019475 -0.6439736449369834 -36.88239517432365 37.07080788101547
3266 5 -0.00310474392634781 0.003405666573451942 0.03828483641197424 1.040231585737087 11.64970315484469 -6.716088538128679 173.4480411326109 173.9685155468882
3267 5 -0.008578651053854407 0.001752372396647807 0.04443933830790468 1.000319599807495 -1.794771767338342 -1.176235984137898 -2.992219683223985 3.682134628159146
3268 5 -0.006502859337830662 0.003691954858397598 0.04634284381431412 1.010516482756482 -35.10235647614613 5.013874713686874 -80.77336946188515 88.21367005203439
3269 5 -0.008605347167892307 0.001480443663606615 0.03801370491126133 1.043252329497406 -13.93578111129185 11.2631010238575 165.2192146143792 166.1880029293563
3270 5 -0.002146353682185055 0.001744725711445212 0.0373307322273097 1.0754520243052 13.58264442346099 9.065702587815929 258.4232629054534 258.9387147640267
3271 5 -0.007837644699249103 -0.002552703709990247 0.04095556802046148 1.000640394634582 -2.018147072832164 2.512960864541339 5.4336716177785 6.31764807219815
3272 5 -0.008524816416645056 0.0001852588395980315 0.04049046189542425 1.003619427297809 -11.57674705464926 -1.27235601076761 20.01456940539381 23.15648830606214
3273 5 -0.006949653102452216 0.00336609079046955 0.04954832309550255 1.152839263805941 -32.0133459059835 1.31927498090441 -561.7700916658911 562.6830641603451
3274 5 -0.006032589761566217 -0.003774868549527408 0.04565754051205641 1.002678280466538 12.09469510552757 6.147364069889628 -23.61511442916884 27.23500255564851
3275 5 -0.007310454278876695 -0.0009809000820834471 0.05338020900461798 1.319226243328685 -45.3801737079197 -15.1718125112434 -349.045607132943 352.3100621887517
3276 5 -0.005644855023770264 -0.004099256793920376 0.03478473349839726 1.145904744487669 14.67998743067792 -50.75951982769752 133.1016966771425 143.2064682283496
3277 5 -0.001938790554405729 -0.001523222663233612 0.03526269184385824 1.145120144369371 -13.51531014212783 6.693267863578875 192.1461363946844 192.737129724234
3278 5 -0.003187785102046089 -0.003385209204724138 0.04394599045965049 1.000004564935067 0.005989492995645663 0.03307704536946186 -0.04330104813031387 0.05481738525232744
3279 5 -0.002257508958028867 -0.001719228859933656 0.04912690929556222 1.14490344036231 -34.01351559349277 -15.60545331958619 -569.8851228410247 571.1125131284275
3280 5 -0.005754706128576472 -0.00379771456028088 0.03950331867838722 1.014717448695119 22.20651314143965 -18.99135636549109 55.14491062404688 62.40802841170461
3281 5 -0.005079490797507938 -0.001703236962586687 0.04526087793021411 1.001144413350825 -6.572011367468847 2.9398214421872 -9.506339830332143 11.92494781941803
3282 5 -0.00427237239827238 0.003857214809627803 0.0380269095276325 1.048802921790365 2.325644123047882 8.248534567685299 193.7076640621585 193.8971533043212
3283 5 -0.001253518051172241 -0.0009103623939993 0.04011222462237726 1.005491141196047 8.637801913629547 16.79274718650124 39.12564452374745 43.44449377501707
3284 5 -0.003617278393075767 0.0002400125534384894 0.05291287234074429 1.316808886818319 7.64238975180061 43.15863075286566 -264.5299385246828 268.1364613502853
3285 5 -0.007673705530104543 -0.00282429930313002 0.03671282292009915 1.090466681463244 -25.8225232312508 -13.417262345846 258.0171564467321 259.6529966238463
3286 5 -0.008533166438389379 0.0004086485340529777 0.04300382005993873 1.000000001135387 -7.526305915839207e-06 -4.941898264044602e-06 -8.825331893385809e-06 1.260770090934013e-05
3287 5 -0.005596897510023095 0.001316683714379464 0.05011941434339169 1.194248214777094 -40.10148970337626 13.33283982602649 -571.6990407063081 573.2588309295979
3288 5 -0.004867188648314184 -0.002803454469460422 0.05251083079430337 1.307826747294239 27.37079433670001 42.51596244886544 -262.2067603673763 267.0377363368893
3289 5 -0.001486975241927437 0.001769126236546694 0.04435902282936788 1.000122725994295 -1.129714428803735 0.3850064985097812 -0.9787133083167767 1.543490989419271
3290 5 -0.005640669120063749 -0.001355919485181609 0.04460549833557056 1.000006425834675 0.03091373723935608 0.03111488318738113 -0.05445208314502314 0.06992012918109375
3291 5 -0.001653946950395028 -0.002004137348565174 0.03632140196708228 1.114480565921606 11.71026643087925 -14.85311674528815 248.2495860664715 248.9690792028314
3292 5 -0.00154038994878039 -0.001683343830684126 0.04969495405399334 1.183420883846271 -16.92013626808663 -14.90260264941903 -570.0190248976701 570.4647818422692
3293 5 -0.00495397751663958 0.003872421689454029 0.04380436297262003 1 0 0 0 0
3294 5 -0.004915448512469444 -0.003302418875263255 0.05176808221386824 1.285899950646572 -55.14979447146863 -39.52999165813615 -502.7922032802213 507.3500958412415
3295 5 -0.006462260066297642 0.003450394533286395 0.05185711374053825 1.284131535709098 -0.9213355761688498 44.72100726411499 -460.8201777635979 462.9860187781429
3296 5 -0.002175794965889327 0.0006377711271070021 0.03546564880741771 1.139509933505351 -2.955209701177878 -7.834854710301473 187.1035444194947 187.2908287852005
3297 5 -0.004260557097620343 -0.001462352439939667 0.04532417688103815 1.001140411330422 5.643130403897959 5.636204891821734 -9.843623751702019 12.66920103649259
3298 5 -0.002793669239401365 0.003256962518650285 0.036377819832546 1.10946293937235 -4.657042862966032 29.72538432886698 267.43306303206 269.1202885782418
3299 5 -0.008940581885343432 0.0002877829846654744 0.05160682921720877 1.263545146217014 -62.16110997364591 27.80977453691514 -515.9646757186594 520.439173912198
3300 5 -0.004908946455553045 -0.001913729924686171 0.05291378735116913 1.314849993384066 39.30957080472074 -12.19051690840936 -276.2343971698786 279.2835355676231
3301 5 -0.006889461537451074 -0.002065465470024034 0.0525232476762608 1.302684010162767 -69.33107914472181 73.39659756130607 -299.3778369278637 315.9445336013183
3302 5 -0.005365129390295215 0.003855892430949753 0.04453281675889827 1.000334192864473 1.812057875996497 0.01795574902716547 -3.217906772512735 3.693074620349201
3303 5 -0.008654623739376793 -0.001265705370070521 0.04927461232478074 1.127259090919503 -17.78516508066772 16.05721904476233 -514.7636949964237 515.3210727951741
3304 5 -0.002111470515546823 -0.001800519592634308 0.04452643265060056 1.00001315800387 -0.09215138806015019 -0.05094495467233687 -0.02971608962159035 0.109408924272096
3305 5 -0.001170984401591014 -0.0004874097864360358 0.04086583220608686 1.001294506551939 3.766815996261549 -2.688780898827057 4.215154617989059 6.259870120469243
3306 5 -0.004305188078815145 -0.003221068406548883 0.03933202063654663 1.014848077785837 -0.6680420191811677 -2.589670384599962 102.1318912167662 102.1669020590995
3307 5 -0.006937632715489004 0.001948291662643702 0.05250629021633498 1.30328543819411 25.31370109065939 11.27630625433174 -282.4853442848003 283.8413435025823
3308 5 -0.008574654393454898 0.001529121138351418 0.04960590871591133 1.150884381199706 -32.0063076240975 -9.564891991526251 -542.5311253335439 543.5585643168723
3309 5 -0.008348995710172051 0.001194363089501219 0.04251769977117908 1.00000000229641 -9.566120504914738e-06 -1.392472943872189e-05 -6.1465261783453e-06 1.797744518882598e-05
3310 5 -0.001191653282533674 0.0008182827157544669 0.04987715510480557 1.196588374078341 -25.7901291268643 33.20396449889364 -612.5677613215656 614.0088730868135
3311 5 -0.001684940027483463 0.0004772228290746674 0.03737006511383416 1.075159252358264 10.07329314051122 13.58733204075274 254.9091641834935 255.4697023355364
3312 5 -0.008109720193726844 0.001909716321212571 0.05271443613859822 1.306616355171456 -25.49835577037492 4.591156015737969 -243.9419545649474 245.3139255271097
3313 5 -0.004364297062877001 -0.003815930246260147 0.044659789854509 1.000260402812797 1.393224005599344 0.2446973028335652 -2.453985112341603 2.832488805165262
3314 5 -0.007161298152507694 -0.002493089981336144 0.05171268099502567 1.274893170409849 -43.54800686827662 -30.06056176544512 -544.9591495610832 547.5221830813731
3315 5 -0.002417838461705046 0.0009576917576383628 0.05296095651611517 1.321290704721125 -73.71745107384814 -36.35418729967933 -263.9767003081425 276.477101823316
3316 5 -0.00284185935072954 0.002487196993338363 0.0458764837594611 1.003983658064236 -13.21551960390525 3.124660845799861 -34.76883113935875 37.32673415395085
3317 5 -0.005929965024412521 0.0002545312663935314 0.05311385372591883 1.319651369053068 -24.06537499550976 14.31100020823136 -254.2395403777279 255.7766425851134
3318 5 -0.006686927533811399 -0.003583913411593426 0.05125090514860162 1.25327261467838 -11.9790526262317 19.77636506690331 -591.5547857150644 592.0064753188745
3319 5 -0.006032642136863473 -0.003768300688109906 0.04945119562906747 1.150935116551043 -26.73018990351148 4.325241721179939 -562.6993939471251 563.3505291705036
3320 5 -0.006021409044668445 -0.003838311567842559 0.05131872324940162 1.259387518141464 -55.80844955365236 32.30802736999813 -598.5955301691248 602.0589675543241
3321 5 -0.006475533355659013 0.0008486950489416311 0.03698807330198533 1.089260344379499 -42.62005384541342 10.18006263664089 267.4271359883252 270.993313068773
3322 5 -0.005170742256768532 -0.003950453381258909 0.04656772521316916 1.014807778927154 -33.96174418281888 25.28951721429393 -113.0756970067394 120.7438321506785
3323 5 -0.009015976509553748 3.50330776662042e-05 0.04255797605085435 1.000001028678006 0.008495545630117011 0.005578317260959432 0.009961860524882215 0.01423132404713366
3324 5 -0.001240762409923 0.001066731679786461 0.04581185972538157 1.007448879249261 3.711977387301885 -25.40284077930762 -61.2523055057241 66.41481781612634
3325 5 -0.006747730597203513 0.003315311486115631 0.05130370304451475 1.258834116600606 -74.71382385028993 6.571005247962809 -570.6581337749493 575.5658426520886
3326 5 -0.002156386561027274 0.001650387959291558 0.05245582331961694 1.313857173094089 -76.21599735924525 -13.96005696190639 -269.4463354427522 280.3659913887066
3327 5 -0.0075262590175548 0.001855689391495835 0.0348405824545512 1.149113154182985 -52.94213337296082 -11.02269614500714 178.4308645802628 186.445549025032
3328 5 -0.008128408904670502 0.0005816313327494229 0.05316571254029369 1.316160262706132 -43.77704432294886 25.74902516735833 -261.8262585142218 266.7066395016794
3329 5 -0.001157429076589707 0.0006418133869871618 0.04506185972538157 1.00102873293612 -2.797990576431391 3.587973224160507 -8.382984270883972 9.538172173376809
3330 5 -0.001752961841769309 0.001047247309560736 0.0362439508338967 1.116781047968677 29.68962701846212 11.87382579788602 268.378071668146 270.2762495001854
3331 5 -0.008582715628834644 -0.0007541763139826895 0.03476652625540663 1.145097638834355 -37.11127264476517 -26.53495025316667 176.3220541876909 182.1285725393441
3332 5 -0.003050590190473272 -0.003348869970998182 0.04929230689304565 1.148528917465366 -43.40834399826385 -29.57042710893833 -582.31757369047 584.6814954458818
3333 5 -0.004957017562405956 0.00389955648309294 0.03832851286160437 1.037049944660699 -26.13848113624033 5.483940086071596 192.2279735838615 194.0744383558406
3334 5 -0.008028343394594989 0.001520091463311285 0.03687917635758524 1.084754357287161 -32.07574227856534 -0.3516346171771548 264.1628269548582 266.1033183453512
3335 5 -0.006986223751245269 0.0002541718548230429 0.04283465725659406 1.000000001135387 5.423760997176832e-06 -7.582672837277484e-06 -9.801252762842139e-06 1.352696072415393e-05
3336 5 -0.002523488862527558 0.002922972185076332 0.04115908327270783 1.000662312117258 -2.070628377451126 -0.7633648956709476 6.035863029325778 6.426653121978061
3337 5 -0.00426617520914466 -0.003332754405796656 0.04524925474829521 1.001398390328947 -2.403318538960096 -5.182535279154226 -11.55594594370334 12.89086880598748
3338 5 -0.004270266855104926 -0.003753000407276793 0.05135424643876656 1.26798321142695 -3.275009823361026 -53.68233906902704 -506.5608354949137 509.4078908640601
3339 5 -0.003719093249084242 0.003715627176484491 0.03927530693499958 1.016012074756437 1.408749426006062 13.02173754140925 60.71727481979955 62.11390895029618
3340 5 -0.001595493177811715 0.001775543439367912 0.03804586462052682 1.049093822066363 -9.472252274030243 18.50027810429779 192.3081588402341 193.4280533159551
3341 5 -0.004568325068775969 -0.003799891918641842 0.03871584802332233 1.029581974470785 6.718943708237386 10.49575629550982 131.9757541882482 132.5628333973219
3342 5 -0.003785327179090933 0.001574817002655953 0.03453486760678289 1.160398102420426 3.824958037699344 3.136292876805768 192.0652996038662 192.1289825844142
3343 5 -0.007727628240815259 -0.002774578960854641 0.05005016481741209 1.182563347235952 -24.29200004523851 -11.78838460442463 -579.3623268777297 579.9911836251971
3344 5 -0.008584932205150466 0.001740410381991567 0.04300518381924793 1.000003446056839 0.0131918479660649 -0.02693373706975385 -0.03305259539039117 0.04463098819590836
3345 5 -0.008464568532035277 -0.001387384643064645 0.03479832126253 1.144103385797682 -27.41377365346604 1.969928414166006 168.4332796758225 170.6609659712327
3346 5 -0.008776047017722008 -0.0008850779008026539 0.04856180447933793 1.084542511487252 12.49653474215018 -19.85869729951262 -370.6149902121571 371.3569740949437
3347 5 -0.007524060986786103 0.00189377019385782 0.0531111664878345 1.316036738533185 -49.80871568292724 0.8946108690840323 -257.565308001509 262.3387054410804
3348 5 -0.001853149211467991 -0.002282549305586681 0.04513173516877102 1.002099303576232 -1.771313863877021 15.46087179599937 -17.94844777761422 23.75548120166031
3349 5 -0.008208205780085532 0.0001577270857006302 0.03678827446107779 1.088904437080169 -33.75272847008396 12.34931483625359 266.3069436200675 268.7213063312285
3350 5 -0.003126183550912514 0.003350948274311605 0.04967576819990774 1.176553422727816 -48.4094861357673 22.73693542533303 -570.2025314517663 572.7053111805996
3351 5 -0.002319133865190135 0.000871323393951364 0.03690493272061704 1.093899046597327 14.46304535823741 10.12642261356164 277.3146984444026 277.876170423613
3352 5 -0.007047387595017537 0.003301574582407686 0.03809240155238688 1.042195968529246 12.81484054942696 7.478977908103297 187.1703280078356 187.7575216480498
3353 5 -0.008761287095130708 -0.0002373341165775962 0.03735447246819032 1.065503183744589 -28.66354907290652 13.83598184276875 233.478520820735 235.6379704624166
3354 5 -0.005230583526302651 0.003866785709257727 0.03902236232616261 1.018116878658867 -1.10680100733719 11.82713619943882 81.87941489636663 82.73659856992711
3355 5 -0.006925766499582587 0.003390883576554558 0.03990092285457564 1.005491616703922 14.4077090033611 1.127520284633963 35.57244768340155 38.39599477687919
3356 5 -0.00394423588676286 -0.003720043092057737 0.04395016266219387 1.000004564935067 -0.02743882215801438 0.009831792998645818 -0.04397135516069572 0.05275446132466338
3357 5 -0.005909197747558464 0.00225571735430035 0.05339512372850048 1.322763962465899 -4.918147897046064 -0.269940925799241 -308.1338379673421 308.1732031623205
3358 5 -0.005385490873711204 -0.0009630976208204608 0.05309795760351731 1.320396656048526 -9.130400524349673 -7.671097008949215 -249.1610575405218 249.4462718457964
3359 5 -0.002932014138397727 0.003235354136376754 0.04075426282858076 1.001021348073609 -2.43986093602537 -0.4057457663899089 5.666813123565221 6.183067361067398
3360 5 -0.003894829676011961 0.003733675791493872 0.0457779266929725 1.004480054260681 10.1399543861142 -14.70816824869104 -31.67092027118068 36.3620142319944
3361 5 -0.001296801078989945 -0.00113610416745109 0.0459195675628265 1.007063740068213 -11.6980411483046 26.84534771685852 -58.84956381619149 65.73270131450907
3362 5 -0.0086906216347274 0.001261643526307857 0.04565509057501264 1.001444062104684 5.261513718934959 0.6356921160772048 -11.00875439000036 12.21803193236684
3363 5 -0.003657521958792404 -0.003602165822448745 0.05169134561403562 1.284236395424391 -19.53645383703781 -57.46214386163818 -538.384567508172 541.7947153089109
3364 5 -0.006303526783181676 0.001238516076086485 0.05295843974700957 1.313527127284668 15.02441734798476 32.5186577360109 -295.5556553303242 297.718561086365
3365 5 -0.002170084337479838 0.002653951698731429 0.04534370413429262 1.003045613053675 -21.18516102159596 1.960737250146271 -24.63864425600798 32.55331517448222
3366 5 -0.005297210905098444 -0.003654318213088329 0.0344807542365103 1.154079778105141 -13.81062603952743 -66.33222989242498 149.5107448408879 164.14676645302
3367 5 -0.005730239657889468 -0.003565018989872155 0.05262296995491677 1.309297405907846 -70.08031418256581 -23.46174459523407 -253.3093292188132 263.8698924937519
3368 5 -0.003988963200396089 -0.003789683878441469 0.03488513546097516 1.147385645407558 -10.35384825139698 -73.17707821558294 137.419380997208 156.0326030784537
3369 5 -0.003626458380766575 -0.0003525486951321444 0.05355053770740975 1.330189268201305 -5.703339873634278 3.543908067729474 -252.4213580962531 252.5106520392032
3370 5 -0.003597235720519335 0.003568798039803544 0.04095396933825846 1.000385789462707 -3.235221484009097 -0.03082516168753588 5.935219600385976 6.759766264153884
3371 5 -0.006330723320120529 -0.0001081659284955887 0.05249406273053681 1.303114846760536 -70.74081006419702 -101.3445761825502 -300.9461034482584 325.3360455142488
3372 5 -0.005369115207391886 -0.003124554710202105 0.05314446333924182 1.321203108473497 -32.77109022922358 4.528016446239555 -243.112490341369 245.3530726274516
3373 5 -0.008403843036984269 0.001912937598621654 0.03741740766875343 1.062949715692679 -22.74841040106559 -8.896319028437375 224.9157498778861 226.2382134193136
3374 5 -0.007080806534072256 -0.003328840356007074 0.03661499293395425 1.094794607043891 -21.10253549533729 -23.80553381084161 261.4412472235081 263.3695999809671
3375 5 -0.008832066901329417 -0.0008672078536514988 0.03912030706366895 1.014625575127023 15.31362355999898 -22.98618458649853 84.55534874274309 88.95211492364217
3376 5 -0.001118768004062638 0.0006531467446840395 0.0362090832271138 1.11759855530489 1.537045379093052 37.84514162721579 262.7461761058954 265.4621824508184
3377 5 -0.001541601128182656 0.0002436705622303055 0.03543078120063482 1.140327440841564 -6.357437053477398 -3.943334074837186 188.2305514066861 188.3791585403752
3378 5 -0.007146660018237726 -0.003307029014969923 0.04492922002559561 1.000326703688049 2.498116090592339 0.6796533692098422 -3.087397795169796 4.02921057404226
3379 5 -0.008414605241088564 0.002341140281681398 0.05315112012008914 1.31310508077263 -60.37100030254069 35.3389831114422 -216.8264091306256 227.8315015562194
3380 5 -0.006559167464112904 0.003558171551675092 0.03931200402986258 1.011737641041206 -13.59567699117468 5.833369473412755 79.50447210007653 80.86922601443362
3381 5 -0.002224220350139815 -0.0008623576338671088 0.03492939729835445 1.151871100529386 -13.94810319397252 6.030353646907126 196.6745617383916 197.2607360393976
3382 5 -0.00208126582199666 0.001828428098097298 0.03523462408817285 1.145475973478988 -5.344622374321101 -8.307291665688556 183.4490618508908 183.7148180662487
3383 5 -0.008623565884185943 -0.0005705833374323017 0.05360239652178461 1.322446716776591 -89.41797770058858 3.52462155355464 -209.5179544327395 227.8283804156942
3384 5 -0.007930929216323374 -0.002427111390819905 0.0512671065814916 1.250008672194313 -80.58201708874564 -12.3057819494277 -515.0238693778019 521.4350197065411
3385 5 -0.008929996602105358 0.0003435085624724833 0.0397926836148768 1.007082262651844 -4.23845075729316 -9.931624528082267 35.00177569013945 36.62957728464309
3386 5 -0.001108319949200357 0.0003933644229551079 0.04912715510480557 1.149736545537379 -18.7261340149472 21.51798335714571 -550.5473582926534 551.2858472933287
3387 5 -0.008390497203185167 0.001929362985925118 0.05025365274499067 1.192348161320097 -30.05225541989233 8.672016081843408 -583.5631757276248 584.4008230521727
3388 5 -0.008244889502872841 -0.002015123864727026 0.05167329203826157 1.26779831311634 -72.04877099761313 -22.47643168398711 -552.4402121081256 557.5718817673487
3389 5 -0.001277009553897608 0.0009912244130111116 0.03803638541502684 1.050330300858604 3.438548997054323 -8.120931081366656 194.3917437882844 194.5916832598029
3390 5 -0.005949874790990649 -0.0009307676209600836 0.05247816660813529 1.303736195711806 -119.0802934932909 41.31622170118644 -304.0389423541839 329.1304071974521
3391 5 -0.001068430682799169 0.0003203928913166846 0.03686198172528631 1.094407107993628 10.56118330630894 14.72371164271526 274.4602065248447 275.0576871185892
3392 5 -0.007698142635551955 -0.0003707659871593765 0.03642338145030381 1.104506320821474 -27.98671426598288 -12.75082807276515 253.7694066881949 255.6261949856185
3393 5 -0.001318113533279956 0.0009406683121961299 0.05171095651611518 1.295732701729794 -7.55371351617582 43.02812547785278 -478.876642770659 480.8651756587491
3394 5 -0.005783841873064144 -0.003787684185829265 0.03786553329363319 1.05130400979314 6.849190384932058 -13.67319357305872 196.8758340124406 197.4688878013684
3395 5 -0.009026304524033626 -0.001028162060893127 0.05319801529731945 1.312567778332459 -95.91848106099975 -21.86703187471671 -219.5960441962725 240.6261513607997
3396 5 -0.008531009849852833 0.001039519198345765 0.05276898219105741 1.306821741799191 -29.71298598880264 -3.266335653286952 -243.6183584795136 245.4453810386814
3397 5 -0.003952066449528169 -0.003784841505457557 0.05319139403796817 1.323878944905487 -22.07482391658157 -53.55763433103242 -170.0190263061259 179.616779149855
3398 5 -0.008623565884185938 0.000585697536559197 0.05360239652178461 1.321995902287148 -89.34353504798042 6.743300530587035 -209.2161084477684 227.5941989395686
3399 5 -0.007589841354693852 0.002926280335253777 0.03991109160690753 1.005134910711913 -10.15178299444677 -13.56337219143172 35.8463333198635 39.64824555574178
3400 5 -0.005599386505944096 0.004100404321839418 0.05327321621272237 1.323224626277629 -27.8923440498169 63.6636340348731 -184.9190617755241 197.5502481979198
3401 5 -0.009016193358905619 2.523142503789719e-05 0.04113002807184869 1.000844011191877 -2.470516334312422 4.988816380215978 8.085478331113331 9.816654199701594
3402 5 -0.001900951739799595 0.002422923288881424 0.03698756343661451 1.087578833066199 14.22132757677085 9.481839315066917 270.7228719401177 271.2619118607475
3403 5 -0.00655446709725599 -0.003527184357015922 0.0380301007364184 1.044818721030889 -24.88892082543681 -2.810102896998715 196.7793060757514 198.366958835893
3404 5 -0.0086020497163264 -0.001362595151494654 0.05132755238857303 1.251608664587375 -48.25027360024384 -59.90011000947752 -522.0872924727227 527.72270468793
3405 5 -0.008880738116316983 0.0004732233527734161 0.04566086089526808 1.001406714861926 3.94501460570031 -3.538813701585109 -10.98764638859826 12.19896371888169
3406 5 -0.001541162088381406 -0.000420415895625516 0.03542939729835445 1.140757799108585 -8.99171666193063 12.99782323507373 191.1094152151925 191.7618391684631
3407 5 -0.006237668380030403 0.0004094954865275544 0.05188918645903729 1.288918285056694 -38.8574819343057 -16.4732043015191 -457.6844540065417 459.6262936359283
3408 5 -0.008479428966467395 0.00115317920870157 0.03519126443182074 1.138330505394524 -19.41980134564961 -1.999823397575574 160.1532297503787 161.3387274568743
3409 5 -0.001524622183942436 0.001813798022380857 0.0459092257510658 1.009251550246583 -11.95716315329219 18.2608666864908 -63.36300689754218 67.01718918243451
3410 5 -0.008461945674754019 0.002301103500456277 0.03476044274789767 1.145520055389503 -58.96799854417422 24.38539239566434 130.280797948799 145.068806187864
3411 5 -0.002367589420728547 0.001168796156485642 0.03488196910861039 1.152843010120237 -4.308121907854233 0.4078889155105886 188.2959667818763 188.3456858918244
3412 5 -0.003017397148303453 -0.0004172503298409768 0.03458367969880732 1.158981434417221 1.735122737050159 -0.4604286043684943 199.6426841883585 199.6507550582892
3413 5 -0.003957447564607448 0.003786398003849038 0.05319950022861025 1.323776343262132 -4.683006632353687 40.53574433915202 -163.267397082848 168.2893938145126
3414 5 -0.007828946034147822 0.002325194154326647 0.05354785046932543 1.322525464134359 -61.03670279951828 36.41299972815538 -221.1868162443766 232.3251887294251
3415 5 -0.003169169266548499 -0.003494237418414382 0.04594420789676274 1.00740268803146 -5.917773990377844 18.35356950883986 -42.02643921059066 46.23954103836326
3416 5 -0.006600147709463015 -0.003269259695267929 0.03520554004535808 1.13962786324558 -12.30974199016917 -4.030779872314548 166.7672204492469 167.2694913922181
3417 5 -0.007894159201462067 5.593814881631849e-05 0.03523348615998524 1.140240076674443 -26.84411075354156 -8.324839929391919 198.159959242786 200.1431454961698
3418 5 -0.003771636062307584 0.003737649509634492 0.03850373938507658 1.033703249686566 -8.222808703839092 7.413371298677943 174.0483613811791 174.4001283155076
3419 5 -0.003039081293925213 -0.003320101879321841 0.05138196836223428 1.27370770017073 -48.56560710597085 -70.8448413353579 -512.584567500154 519.7312272480109
3420 5 -0.004242594175131238 -0.001762904418823479 0.05336636745506156 1.324144152772052 -10.82540901063337 -0.40545813531313 -297.101267447565 297.2986999559476
3421 5 -0.008116924413363466 -0.001989521919556736 0.03520270248699475 1.137089045740005 -25.93094364478735 0.3181589135827764 164.590760023783 166.6212271849236
3422 5 -0.001241398092013363 -0.001150020067765844 0.04390482511410384 1.000010734189599 -0.01356449435995451 0.05996881886488289 -0.1001149930251561 0.117487303874578
3423 5 -0.005277044732828137 0.003871865271403577 0.05013047988274783 1.196343618122047 -39.40188153023416 7.493265127475873 -611.0331271532272 612.3480544339511
3424 5 -0.001049898281462219 -0.0003313326044884677 0.03484571759954713 1.152040647036259 36.75519561398696 27.96747571290907 151.7748494565449 158.6465537915383
3425 5 -0.00398158870839437 0.003793380234010962 0.0347586209136552 1.151659389336293 -1.538625360407448 66.39561348492985 120.755375144538 137.813662183174
3426 5 -0.001050337321263468 0.0003327538533673538 0.0348471015018275 1.151610288769238 36.70751228524389 -17.42490202791298 151.5779485852349 156.9297395848276
3427 5 -0.006797351786383545 -0.003507227041166975 0.04564765842963997 1.002742720442181 -6.760621615356509 7.804853869620386 -23.91854797551777 26.05222995847571
3428 5 -0.006887918036095689 -0.003334606905354041 0.03883031399564126 1.023328770842423 0.3144912729389285 -11.57820692523698 96.43750779543421 97.13056516956337
3429 5 -0.005698267711871579 0.001633681627726275 0.05339512372850048 1.322953066120236 -6.496732914112249 3.535816655164979 -309.2046984354454 309.2931539373786
3430 5 -0.001339065625982025 -0.001506199217794782 0.03601269184385824 1.124880622130164 17.03203062827986 -11.3202912358759 253.1829019728179 254.0075213696736
3431 5 -0.005404977885931726 -0.001544217543614682 0.03449717955900637 1.160508045220341 -0.8876248537185013 -2.616187428941781 204.4460708897396 204.4647358758882
3432 5 -0.005346265746012727 -0.003855454447778913 0.03862787043664538 1.030364164611052 -31.17268281681003 -1.003601174188501 132.5051930632402 136.126300023327
3433 5 -0.003787578451963505 0.003685713416799235 0.04995581184365226 1.190845310981864 -28.66995644929661 2.92005826138809 -596.9674517915521 597.6626403260902
3434 5 -0.007706736261332199 0.002835823152366393 0.0379721914954418 1.046074559052695 -19.99469330639743 -3.187151526167619 190.8062974742663 191.8775360773268
3435 5 -0.008879457199765449 -9.13702708814924e-05 0.04855169355346263 1.083590528255839 5.599715307224788 29.16572871003588 -369.7632215956743 370.9539548077647
3436 5 -0.008381405765793019 -0.0001129777478127296 0.03591765248919532 1.118987595679189 -38.65070133885278 -11.43825245025939 246.8362726453487 250.1056893126384
3437 5 -0.008641302525612717 -0.00102247564953303 0.03734640100299066 1.066577085097902 -27.80529151971204 -10.44945537011514 234.9101938059087 236.7807519794584
3438 5 -0.003647914143086585 0.003111158898331131 0.05359561877553515 1.330765754785134 -3.13460415384656 39.91761055750918 -164.7242901926786 169.5208929757747
3439 5 -0.008583848079704659 0.001604164311771747 0.03630053805247725 1.1042988976429 -39.49990024107233 -0.7000237103403514 275.3354734643851 278.1552715662725
3440 5 -0.008076909850485888 0.0006951077445253116 0.03480444423389566 1.148662930731964 -31.80867255990392 38.66699401418604 180.5161066064574 187.3312382398359
3441 5 -0.001687501682613541 0.002091274286341695 0.04520638885505212 1.002831403933442 2.157345731512749 -13.06989109830061 -21.79410696057568 25.50410343720648
3442 5 -0.004949940047012929 0.003893834785447629 0.04951056275142003 1.157835232785505 -29.2193591183943 10.26412800831545 -556.8616659578153 557.7221873696385
3443 5 -0.009026166829368271 0.001043585402155539 0.05320566617254833 1.312657381380206 -88.29291499470222 9.185880598734931 -206.1318794512122 224.4334444032907
3444 5 -0.006790085578321116 -0.003492259326686386 0.0494366651201661 1.147167823774151 -32.12049020327347 5.40206482916974 -556.3645462245452 557.3171596954119
3445 5 -0.003645929110929338 -0.003110010140048427 0.05359435059483392 1.331179766216927 3.113617891250582 -34.48553315058189 -154.4398060324355 158.2738143231182
3446 5 -0.00562342363688537 -0.004091088878057177 0.05307555005880921 1.316866888751522 -82.09693384652144 -69.07644146815592 -232.328692438216 255.9063942986866
3447 5 -0.002330892764124702 -0.002912692030715299 0.05321119909079371 1.327857785825065 -13.87762095557308 -30.78715502590804 -162.9119255624433 166.3752769146874
3448 5 -0.003647914143086601 -0.003111158898331137 0.03440438122446486 1.159596097300853 19.42284529060505 -52.3415074014445 120.9481651427068 133.21163225344
3449 5 -0.005280509064854414 0.003652688627025715 0.03440438122446475 1.159603053699873 11.75339713463597 49.21159696373257 142.7035779306644 151.407512277755
3450 5 -0.008806741461977151 0.001042502685852583 0.03598519936868429 1.114305767595697 -45.6069593075225 -13.21487337780461 277.304530677087 281.3404171990028
3451 5 -0.00180089713112982 -0.00229973912447971 0.04310125478488573 1 0 0 0 0
3452 5 -0.004229447245498275 0.003815304148804538 0.04938545820752766 1.152737132897818 -38.4084132076439 11.11232979394921 -547.3600710431832 548.8184922640428
3453 5 -0.008118610938090761 -0.001154318283941286 0.03674228501738909 1.090260586121427 -26.6894920387548 -14.2932537838914 241.9101848542474 243.7973823182555
3454 5 -0.006699633277429959 -0.002660761273455035 0.05314303867164282 1.318613957759406 -20.46010352842494 -24.17630580387549 -252.6555932230119 254.6329876225554
3455 5 -0.002968532724251715 0.0004187919732773124 0.03511854730559021 1.147050625660208 -0.5977531437613305 -7.294420554532645 191.5980641911189 191.7378003468053
3456 5 -0.008935470220940076 0.0005792956701517836 0.04373335886529079 1.000000001135387 -1.120954560582326e-05 5.336683736390189e-07 1.885201213527567e-08 1.122225779513265e-05
3457 5 -0.007121200822654749 -0.003303905945531987 0.04998386465289282 1.180816567677244 -46.27162304864853 19.71890357234505 -572.7930109316325 574.9971579319126
3458 5 -0.006694445329032788 -0.002641262852677473 0.03490156078347112 1.147682152204951 1.80701525343045 -38.01528630950383 183.966500140071 187.8619186293657
3459 5 -0.00105033732126347 -0.000332753853367361 0.0531528984981725 1.328712487813177 -8.290642328995057 53.48641439443157 -198.1196908079559 205.3799969832511
3460 5 -0.006416491489849933 -0.001348327702773457 0.05292762890072555 1.31184891357922 -107.8518035461719 48.42235054863195 -314.9113473455775 336.3716579140157
3461 5 -0.002602755848975495 0.002475278765619551 0.03524176227553578 1.145238172317808 -8.878526464948619 -2.095769935583037 184.1931532958678 184.418920409178
3462 5 -0.0011091179782666 -0.0004545105558227458 0.04912355500457241 1.150333014028672 -17.25494589252587 -5.185029532697207 -551.5442015912364 551.8384038809943
3463 5 -0.006980398280738218 -8.378427206736812e-05 0.05294352502312706 1.31110530424119 -40.25108869822971 -88.15142764932955 -318.3856640651161 332.8066336781656
3464 5 -0.008946679218024263 -7.148831212047262e-05 0.03910249361736097 1.015661475191009 1.881173658758723 17.72367619770948 84.59744308454486 86.45458280934834
3465 5 -0.001545748409851221 -0.001893856857906081 0.05326974699413229 1.330515973613159 8.255245530506821 -35.36676423319925 -134.2435293947315 139.0693434062655
3466 5 -0.001060901925879038 0.0003651305090677301 0.05309862188278064 1.327659474563098 -8.27082604206651 -39.71473660180853 -197.6461452751183 201.7663639184746
3467 5 -0.005265695269309797 0.003651032338495905 0.05360388145307511 1.329429767610457 19.28653898332196 40.99986297200776 -157.4307642164143 163.8212589117873
3468 5 -0.002332356533870611 -0.002913123275527662 0.03473767576996864 1.15386528470179 11.6131604040046 -48.36973201604982 125.2004272295008 134.7206125591891
3469 5 -0.005410165834328897 -0.001563715964392245 0.05354741989610757 1.328760234273772 -7.405198733930257 -1.245125176532112 -260.6330429786003 260.7411942852129
3470 5 -0.001613188618559769 -0.00191826200883418 0.0459229603250899 1.008243878698748 -19.04098428818828 -1.636514844195729 -59.22467234715299 62.23181724910445
3471 5 -0.006817080947669718 -0.0007555604586691677 0.05338020900461798 1.320403388992992 -10.32680697302462 -0.6423328457609851 -345.7983408209162 345.9531009374556
3472 5 -0.002883375315394831 0.003261590624981687 0.04642321292243384 1.013998957685493 1.528515323266117 -37.45204468671369 -105.0535494340301 111.540307777042
3473 5 -0.007876368297014101 0.002284973774521609 0.03437362254997259 1.155919539950209 -64.33574215008937 23.66075085286633 136.6388937666093 152.8695723114543
3474 5 -0.008234467592776497 0.002208134892420163 0.03588022566558629 1.121188323551376 -32.95055221740163 12.24527152233858 276.4420265411355 278.6680455385177
3475 5 -0.001544788107638616 -0.001891718095556841 0.03467901214505091 1.155385919989929 46.25799467251537 -19.33827917144346 96.36192831994329 108.6250079032127
3476 5 -0.005456516696794585 -0.003873768974510278 0.03652679850321459 1.099902389323016 -10.91460640460491 -20.40978788940701 285.3529540189487 286.2900564846747
3477 5 -0.008891468910326597 0.0004155153250472772 0.03628254549996929 1.103385711937883 -48.5679171649169 19.26133188469508 259.1547434508313 264.3691028406625
3478 5 -0.007634072095848114 0.002902166062562194 0.04954835865385355 1.150748075481233 -23.1667486790673 4.134133268901208 -558.5865357724805 559.0820219328688
3479 5 -0.005262299186387787 -0.003650624598387128 0.05359704344313426 1.328772591317173 -10.42380860116591 -34.35488861822027 -192.0877141197731 195.4139300906763
3480 5 -0.006396581723271802 0.0007208546610633422 0.05356331601850908 1.327723688988509 -7.59467912766949 2.179201027746779 -281.5090675972483 281.6199268653476
3481 5 -0.002091969976717643 -0.002514727988835747 0.04870353415519885 1.116199926195198 -34.1694069216856 -6.563680125281662 -497.7707158931905 498.9852862229367
3482 5 -0.004364520888294238 -0.003929421996544607 0.04658091610291941 1.016565752180905 17.67793236278658 13.70058772582498 -113.0374623709644 115.2288301421284
3483 5 -0.007558313452890604 -0.00191714926261264 0.03483342315055432 1.147778866781979 -59.78562890157961 9.632208186758662 183.12343523215 192.8763681453327
3484 5 -0.005618561303663944 0.004100696401385186 0.03489813698614022 1.14708258235359 -28.83148006271973 67.2883989970217 160.7895454786117 176.6699205224475
3485 5 -0.001544333344442062 0.001891906256680876 0.03469975648138996 1.153871507564636 49.14021515006413 20.31048486393679 97.68506396979845 111.218920437066
3486 5 -0.008436643965299553 -0.002355850517502544 0.03477366056090518 1.142842654820056 -64.98869168494438 -33.69605370794469 128.152890496434 147.5876601379683
3487 5 -0.00635135749117422 0.0007229942385063948 0.03446695990457861 1.161111854771942 -3.813202772369328 2.165205881115978 203.9661962664198 204.0133276315117
3488 5 -0.001556661632602184 0.001633364513849326 0.05170582331961694 1.295386119930132 25.612675501952 -34.73203847174241 -493.9324431735179 495.8140599681814
3489 5 -0.001074597140253892 -0.0005140015839398116 0.03683367969880733 1.096909637026451 11.80004667405434 8.557987584199054 276.9660735326301 277.3493936194623
3490 5 -0.006988635764570874 0.003083988902376432 0.05354785046932543 1.324368585225441 -85.07806538452083 36.89802519026182 -208.0394970610868 227.7721971838178
3491 5 -0.00790924291990013 0.002634751269926346 0.05017833925754606 1.18980154125777 -42.74624754481643 -17.14157000422986 -577.2229084960228 579.0573038948568
3492 5 -0.002356334428926916 0.002944954447814347 0.05309048557903691 1.324972231575936 5.101455782136719 19.41957736576118 -186.4211959774666 187.4993523877639
3493 5 -0.00881435604927161 0.001230420000818734 0.04182500379569996 1.000000001161023 -4.868537146212565e-06 -1.198018579789758e-05 1.181089626329684e-07 1.293218679973549e-05
3494 5 -0.001475374436118235 0.001795962542309441 0.03601292611465183 1.122860905088262 30.09893196147249 8.030359497628615 274.5966274143094 276.3579927669824
3495 5 -0.002340790079115106 0.002917216129404923 0.0347068946687529 1.154398897309044 25.65339581594539 37.12688956773907 118.8429883777314 127.1226121994598
3496 5 -0.005853578177241793 -0.003819793446366392 0.03596994654292261 1.119064043955119 -36.07784227345935 -34.48259554699868 251.3045534229985 256.2120970405168
3497 5 -0.00661881598968595 -0.003284283814883496 0.05262154528731778 1.306959115551587 -13.02024059156313 -39.70561426125821 -252.0146707300235 255.4553908847652
3498 5 -0.008463829906432779 -0.00229911484577768 0.05319123755107009 1.313830153514201 -91.6950742386114 -33.12852658806876 -219.9493958708425 240.5893236564529
3499 5 -0.003556915474113145 0.003626969884407313 0.04646441086791814 1.014506307587263 -34.91843879483046 -10.59861707640722 -112.3746468250224 118.1511290714107
3500 5 -0.007878033004826691 -0.002283477860558448 0.05359561877553526 1.323831352345094 -56.14801157598108 -50.19591245718338 -203.4045722724644 216.9000895635821
3501 5 -0.003657241491328889 0.003116484839963247 0.03435423968919044 1.161132006752023 22.89698768776964 49.16708610205884 105.127127854902 118.2936490770407
3502 5 -0.007036058027437155 0.003043768522571394 0.03437362254997259 1.159167693695728 -51.4895218984819 32.67036264935849 139.8096680334407 152.5295602058687
3503 5 -0.008617291062098912 -0.0004592465030994658 0.03433748432931705 1.155664731006566 -43.32432372782475 -42.24379169537606 197.3066068012948 206.3769174368017
3504 5 -0.001841221547789519 0.001264650970769597 0.05359862188278064 1.334555484424448 6.392056404297608 -3.349963716935502 -150.9168870275259 151.0893359309634
3505 5 -0.001830217903372703 -0.001230853066190337 0.03434571759954713 1.162136876149944 47.20165226871573 -19.29087530164041 98.14221143810688 110.5984968829246
3506 5 -0.001830656943173949 0.00123227431506922 0.0343471015018275 1.161238544205886 50.16500124259893 23.02674700954859 100.6662400508262 114.8061423160027
3507 5 -0.001830656943173954 -0.00123227431506923 0.0536528984981725 1.335166902708068 9.225914700762164 -2.626686914879761 -123.6277383078998 123.9993333261961
3508 5 -0.001186284854145928 -0.0008639867382748049 0.04984525297809111 1.195183991658215 -27.67902374693323 -26.9736009709247 -587.9722726829476 589.2411195333134
3509 5 -0.00864342018598894 0.001582881374957806 0.05162657986163823 1.265249029385193 -60.08254138633517 -11.66064170136174 -521.8809774035793 525.4575500647445
3510 5 -0.001564712720625373 -0.001939276404644111 0.043861883027386 1.000010734189599 -0.03665107880268407 -0.03090550299281508 -0.1001037382918734 0.1109919371515217
3511 5 -0.008749017049391837 0.001368354451359768 0.04372454748185434 1.000003444895817 -0.003686767196590374 -0.04032812891961882 0.0003679263281184788 0.04049797037262699
3512 5 -0.008246689096638603 0.002226734945216525 0.05198319277989528 1.284051336911515 -60.91802020704995 -8.746474800894902 -545.0189905955733 548.4826397591877
3513 5 -0.003942082512880748 -0.003836513019309131 0.04587686102337557 1.00557238033683 -21.97634152191921 6.2969308967747 -42.41204527547078 48.18083135288731
3514 5 -0.008950806719251917 7.557099563449169e-06 0.05360239652178461 1.320018201933905 -89.71617307914015 5.127328149476955 -207.3117753828544 225.950112676028
3515 5 -0.007566598476620331 0.003067172636526221 0.0456371983980951 1.002161946673129 0.8749665915223257 -10.6518400142377 -17.67116037161325 20.65180793791357
3516 5 -0.003200011615451865 0.0007063359481082969 0.05336233463333454 1.325695492259096 -10.15288255136817 -10.08406209912325 -277.9059624467657 278.274133357709
3517 5 -0.006932168528005093 0.003674834558689271 0.03486737831164807 1.146849872595934 -25.50534219551694 68.38355746686798 160.4051312287715 176.2289406903822
3518 5 -0.007955076347118012 0.002596371997634993 0.03738667122219485 1.06559692460908 -13.37134307171922 8.191661681170265 231.1730453040705 231.704279226341
3519 5 -0.006891526505153163 0.003523840693399019 0.04562825337216334 1.002179984625923 9.048415491056497 -5.085838721120845 -17.78726833375094 20.59433157868695
3520 5 -0.006880385262963582 0.00371641914747835 0.05321718522897269 1.318331695908352 -88.65983809465979 29.10407903853275 -202.1194532269942 222.6205014827511
3521 5 -0.001796144517153601 0.002298236204136279 0.03633073921067698 1.112105712477911 27.84179598582723 11.33351949237237 267.3248799775238 269.00967589066
3522 5 -0.006952002694104264 0.0005528760251903219 0.05356331601850908 1.327385518280097 -9.73220319219692 1.557875382826918 -280.1899098552881 280.3632078918293
3523 5 -0.00700436083091409 -0.002146178301113595 0.03533060270956069 1.138695896204962 -17.73293606361614 -3.593885244478705 196.4642152129466 197.2956180248963
3524 5 -0.007878033004826691 -0.002283477860558449 0.03440438122446475 1.153532475862029 -73.22105078224246 -32.18667229291248 135.9009385032295 157.6907392239812
3525 5 -0.001579769647111746 0.001957347172422792 0.05309348868628241 1.327121952797411 4.423081424917227 66.48051841300719 -164.6434953332232 177.6139170597133
3526 5 -0.005497990457190301 -0.003898969033227891 0.05188022137448164 1.288012133992253 7.277469508500381 0.07822259833586631 -540.2802507987226 540.3292672846369
3527 5 -0.00653139078331295 -0.001429040533863018 0.03492622148509594 1.149537479992595 -14.72062619537411 1.015784933638147 202.7842431662583 203.3203824783131
3528 5 -0.008324252339355229 -0.002196860405709615 0.03598856595865865 1.114435618587333 -39.98552996939421 0.05214564400526168 262.8907423654791 265.9142488614971
3529 5 -0.002893157178775621 -0.003321048068710497 0.05359435059483393 1.330961337374068 -14.93230788500088 -31.75905316880582 -163.3627148697688 167.089759969224
3530 5 -0.007037722735249751 -0.003042272608608241 0.05359561877553526 1.325089139409475 -57.98463457124946 -41.80074814714487 -211.0275379946504 222.8051664214858
3531 5 -0.002290804989515922 0.002868364542572153 0.03590667687338844 1.127130806903946 15.46573732719981 24.25424000826488 267.1979100999204 268.7418470413895
3532 5 -0.005946154164974392 -0.001778609143757361 0.05354741989610757 1.328420385907932 -8.324314885627672 -1.755464312032662 -260.0098512048794 260.1489930729109
3533 5 -0.005940966216577221 -0.001759110722979798 0.03449717955900637 1.160258170595412 -4.224938715688384 -4.459690503189357 203.0161023650666 203.1090267960504
3534 5 -0.008858250684918485 0.0009291800656915127 0.05196021974212577 1.279295701532523 -54.85819438529631 3.435085833920164 -551.0822588533675 553.8166459477643
3535 5 -0.002895142210932885 -0.003322196826993207 0.03440438122446486 1.157055841320197 9.612076459806689 -50.49830852701069 124.8346849763891 135.0043323420128
3536 5 -0.004669057721572202 -0.003934242431473282 0.0344807542365103 1.15235552406018 -3.124127924800907 -68.51727861433879 143.9055566163506 159.4151400246135
3537 5 -0.006943425115679977 -0.003670269451198698 0.03470836048635171 1.146899312863807 -48.7845174787363 -46.59379271391205 123.4608374428029 140.6893352290014
3538 5 -0.00289514221093287 0.003322196826993198 0.05359561877553515 1.330716046161242 -17.71519354715009 37.72370871045269 -171.935011207785 176.9139744630288
3539 5 -0.002605196320741922 -0.003133287788940811 0.03934486892342236 1.016015042680712 -7.973145099438187 -3.432382057594938 99.59600548007921 99.97357949455427
3540 5 -0.007055261290500824 -0.0001818559464914394 0.03489600183066818 1.150179904344481 -10.03592257090242 -9.4555623344173 202.2953681211731 202.7647488203759
3541 5 -0.00371330630160171 -0.003720417284753207 0.03991285301244871 1.00739332327189 -26.09524230254644 11.18237693920002 52.02197210223381 59.26459994165619
3542 5 -0.002954554304847097 -0.003378570234406858 0.0399589102985155 1.007424481775797 5.692401810233224 21.08527718443377 52.34079663841287 56.71464841694112
3543 5 -0.00899789002267681 0.0004401423625758883 0.04183812999239065 1.000001028678006 0.004587290686450311 0.01128811244161768 -0.0001112860245287462 0.01218511809199455
3544 5 -0.007037722735249751 -0.003042272608608241 0.03440438122446475 1.154953601823178 -42.38679136230462 -59.37494167882866 134.0585305989962 152.6227814178402
3545 5 -0.002706606969264377 -0.003130612586768433 0.04860890263624879 1.105164633351188 -51.41885820372306 -27.80987014397395 -478.6129025400726 482.1696779498191
3546 5 -0.00695690544750574 -0.003665795150036701 0.05307412539121022 1.313434297201656 -29.9491524864823 -81.2231636563246 -231.7201978645251 247.362899698753
3547 5 -0.008617291062098907 0.0006970343708920329 0.03433748432931705 1.154677125533024 -77.16508099961632 20.10272072022561 125.1133389641096 148.3641354666987
3548 5 -0.001891095789078991 0.002428254592017129 0.05349486680350177 1.331201935423931 5.741458384535227 19.24913571201445 -188.802798330138 189.8683497250968
3549 5 -0.007052085278129735 -0.003363835701990099 0.05181097860608264 1.27955894017291 -71.23842872322513 27.11896218593223 -558.891424112056 564.0655775554808
3550 5 -0.007618270818388265 0.002955232948758368 0.05354785046932543 1.321532419407496 -57.92112008988298 42.68307617217659 -216.280166905095 227.9337880624157
3551 5 -0.001158163286031112 0.0008227092325280048 0.05359862188278065 1.334669680202747 -8.402748642635329 9.672289673188828 -155.2954254298755 155.8230680346123
3552 5 -0.001147598681415542 0.0007903325768276286 0.0343471015018275 1.159188315518674 37.54715118243129 33.72836975379706 105.6241880345535 117.0634895521397
3553 5 -0.001147159641614294 -0.0007889113279487444 0.03434571759954713 1.159959664581429 37.63261600035976 -27.32559304997824 101.7657857380758 111.8891280216782
3554 5 -0.006906778462006682 0.0005550156026333746 0.03446695990457861 1.160814055739959 -6.522579317744602 1.379067581119304 202.7492926399576 202.8588709777138
3555 5 -0.006707242790327616 -0.003535364656676532 0.03589357353087706 1.120441550438245 -9.572283133137843 -42.73075385296939 255.5295121556005 259.2544647864395
3556 5 -0.002904469559175175 0.003327522768625313 0.03435423968919044 1.158360688576269 13.50900196261757 47.3855842547534 109.2588080526159 119.8556376073679
3557 5 -0.007665693081254544 0.00291501256895333 0.03437362254997259 1.155410380781054 -61.26867878170608 29.96412260109247 132.1767377770098 148.7359729597436
3558 5 -0.006321728036528135 -0.003948594353663944 0.05347850661567496 1.321348732325045 -49.71943869873748 -53.331999388481 -248.5928522228901 259.0651094215548
3559 5 -0.001124495421716112 -0.0008453341884282783 0.03617939729835445 1.120531442604734 9.233727842690445 -21.87342283300103 246.4623502108284 247.6033085961275
3560 5 -0.001147598681415545 -0.0007903325768276377 0.05365289849817251 1.335437562472278 -8.417199149672561 -18.16180871971594 -131.6746690844355 133.1875332604084
3561 5 -0.001867639156434037 -0.002397140933200791 0.0536168484959598 1.333497229044699 8.912511761868885 -13.06668209958229 -147.3335611195552 148.1801244403807
3562 5 -0.005941673396879071 -0.002430224924015408 0.03449717955900637 1.158400220985947 -23.49964721795175 -51.02432592288478 198.2450591253425 206.0505246847566
3563 5 -0.003160327179090935 0.0009498170026559524 0.03453486760678289 1.160383702275094 3.059445524829715 3.509351000971921 192.1604679399307 192.2168597971067
3564 5 -0.00868372697153246 -0.001529738373676594 0.03626835106340398 1.103747607942469 -29.55840065933336 -16.21245275822614 251.4510455747771 253.7009479576772
3565 5 -0.009019810178080413 0.001155105835068291 0.03472430452724213 1.144344700195584 -74.55644119644963 18.81685386794301 121.0327691329019 143.393403325765
3566 5 -0.004652355881328172 0.003932612845410662 0.03440438122446475 1.156738758828531 19.78685961455152 50.73274030290757 136.7688846110817 147.2109321681226
3567 5 -0.00766735778906714 -0.002913516654990172 0.05359561877553526 1.322663728522731 -60.2501769328923 -40.98273991063205 -208.4383560215677 220.8081000597604
3568 5 -0.005230659360698527 -0.0002023517408431513 0.05355053770740975 1.329289302170711 -6.630859855047327 1.460860274675399 -250.513091762827 250.6050908495875
3569 5 -0.005946861345276242 -0.002449723344792971 0.05354741989610757 1.327886506197484 -17.08473016340805 -22.92721896385757 -256.8537250100005 258.4402859959841
3570 5 -0.004668932555771804 3.032312010600092e-05 0.05355053770740975 1.329549037205829 -6.933747229115665 1.337877534486619 -250.6702879046278 250.7697350262259
3571 5 -0.006298655824840054 0.003956137848353375 0.03449375576167547 1.153760310306998 -27.44685831071466 67.68555526418744 164.8658894847862 180.3203425522466
3572 5 -0.00766735778906714 -0.002913516654990172 0.03440438122446475 1.15172095490324 -62.44542136007181 -54.16597176252489 121.5481023949384 146.9943003712252
3573 5 -0.007445376025311238 0.001016015971427583 0.05356331601850908 1.325940256915331 -56.91865122002478 21.11128052908385 -271.1085364435935 277.8223489118033
3574 5 -0.001866224091024877 0.00239519033197559 0.03435265497956246 1.158580579483674 49.88369545085804 18.73401455602266 100.1480884299582 113.4415531866254
3575 5 -0.004637542085783557 0.003930956556880852 0.05360388145307511 1.328291809996926 0.9275879237062721 36.53426678235171 -168.5620694363192 172.4783589942076
3576 5 -0.007400151793213655 0.001018155548870636 0.03446695990457861 1.158392704188027 -65.37998129126572 25.76800742872311 197.3817361507533 209.5186911146081
3577 5 -0.001867117894022683 -0.002396423419730444 0.03433329454550378 1.159779584797892 46.81016710729543 -21.62933348390568 96.36361552789515 109.2930290969141
3578 5 -0.004634146002861545 -0.00393054881677208 0.05359704344313426 1.328194444241024 -0.1169163100538373 -36.76087276389038 -185.3753432603978 188.9851669435906
3579 5 -0.008811474025104592 -0.00169697756928559 0.05359561877553485 1.319572095212644 -100.2600755543586 -30.40926528799502 -219.1905671894521 242.9430198839947
3580 5 -0.008811254501238402 0.001697470310001057 0.03438682019792508 1.149964460335447 -75.44627117505553 17.94734426574437 123.7489031656625 146.0412203287746
3581 5 -0.007430541520736883 -0.001081111333950571 0.03442904192608957 1.158343337132369 -73.42884578884838 -29.77191940928878 198.5854517909022 213.8091303995047
3582 5 -0.008944531897164886 0.0001188939338962851 0.03433748432931705 1.153271233355001 -75.16988201299272 23.41407827575359 125.8350311573751 148.4357951766619
3583 5 -0.008811336330439228 0.001697286711421141 0.05360326965076373 1.319668414370749 -93.94686379399285 21.78109819216315 -203.2810337119224 224.9969069168984
3584 5 -0.006294294822664823 0.003957502057337417 0.05366933475964727 1.327145059471845 -58.18327508651124 79.12036509228884 -168.9552316699418 195.4256789185429
3585 5 -0.006937168189529906 -0.0008557717105362917 0.03442904192608957 1.161062097977143 -7.907498781036923 -2.62691479682883 213.6793488462198 213.8417483600113
3586 5 -0.008784288083971366 -0.001753713241010453 0.03436927933644043 1.149856994877732 -43.51922644742163 -44.31547008714329 140.476301590029 153.5948412806864
3587 5 -0.006308247704702372 -0.00395306865482594 0.03430397926188696 1.153593552954864 -31.75718024274483 -75.13714862969182 104.5677606440252 132.621740929897
3588 5 -0.002005929055613043 -0.001136571857928709 0.03795809021252927 1.055211950964051 -11.42564870767585 -1.662454333189649 237.0651080307069 237.3461072956788
3589 5 -0.002835633204637404 -0.001044771446464508 0.03743842223040941 1.076342692178314 17.09408321218308 8.02421931766844 261.410998080552 262.0921702264176
3590 5 -0.002724839911102525 0.002092126046877011 0.04911726838046213 1.14396229014266 -38.91863110950143 7.03064260844547 -555.5775925514844 556.9834388276086
3591 5 -0.003115996126834592 0.001394112919137601 0.04861168615067488 1.112128040394416 -17.79079273215153 23.40621243980883 -453.6951036783864 454.6466872072837
3592 5 -0.001754999000557449 -0.002124638216185048 0.0371080421304622 1.08678637830523 0.8035984520136059 -12.68273233540237 250.4838859482217 250.8060497469814
3593 5 -0.002583903465828332 -0.002030872119481349 0.03708476656463274 1.089254995608127 20.18262061381312 -9.715847096749547 250.441330774678 251.4410388537245
3594 5 -0.00531680804987955 0.003231139188207249 0.03984680800246004 1.00826019744053 -21.68472855017421 6.7774408514825 52.84875142355367 57.52522649949891
3595 5 -0.004805638733637817 0.002588236491031126 0.04010619511471777 1.007587815149739 -16.54854901513768 0.3920280207741708 59.89908772837619 62.14425855352362
3596 5 -0.008127947030006983 -0.0009696577590165047 0.05041278667865391 1.200521990292279 -9.096210869602366 26.28201376739954 -617.0814941426889 617.7079048492318
3597 5 -0.008773664758086473 -0.0009165235168350787 0.04989336791253442 1.16642661548777 -17.9395703219994 24.66937405119146 -571.032082828235 571.8461732131884
3598 5 -0.001690306801184709 -0.0003552059609423308 0.03783815550364557 1.058999657479721 10.46762919191304 16.8956800311452 236.6343021444974 237.4675308669114
3599 5 -0.00115713078983512 -0.0009369541915030758 0.03758007211509772 1.069121292296679 18.10516355735309 11.96702095819035 239.3882086185499 240.3699668503756
3600 5 -0.004632059775656125 -0.0009596601877462028 0.04657483284517636 1.021352862620036 -1.466290646087498 -30.81845445960955 -100.3532761753793 104.9890812545275
3601 5 -0.003947738752741936 -0.0008444252184426346 0.04614470171587133 1.013014493761758 8.279417595398423 -30.07573379194157 -103.2316150665274 107.8418511900014
3602 5 -0.00387962410545254 7.515592517449781e-05 0.03602284573692598 1.123766636240225 -13.77592677304474 -3.943106971245527 186.8972862071677 187.4457784071088
3603 5 -0.003601580144553623 0.0008004086861502571 0.03583098890953833 1.129606732419521 -19.39323548355563 -11.4888230006826 191.124073117544 192.4486995578353
3604 5 -0.0047957015290953 0.001288370048283634 0.03471244160394812 1.155028159054905 -0.6878915208486368 0.6313806420848859 210.1833663797258 210.1854403591593
3605 5 -0.004235316337634433 0.001514491977287306 0.03524730921073101 1.143068026325688 -20.54112677069159 -10.35317941459387 198.7036950999222 200.0307092907567
3606 5 -0.001794588653091217 -0.002175004032704307 0.0399698241662916 1.006312025511674 -7.696228451438598 -8.058258763934644 39.17579885485014 40.72972725907871
3607 5 -0.002065963699436031 -0.001455452990882272 0.04008922845778051 1.005949068583355 -7.964094534458398 -6.340284226165863 39.10554677724618 40.40878363140553
3608 5 -0.008774925406717402 -0.001156934859064808 0.04185610095762264 1.00000103114039 0.01537203496163179 -0.00707652183914415 -3.057082461231394e-05 0.01692269348469184
3609 5 -0.008071747399603233 -0.001280669940839828 0.04164929178332625 1.000067690530087 -0.6881543127912733 0.3171622706971105 0.0002893646075945969 0.757725773547959
3610 5 -0.005746483096377192 -0.00355368848495779 0.03528191305740363 1.138250356762454 4.845648773214698 -8.35095625764288 165.8305898823835 166.1114184009928
3611 5 -0.005398838977705373 -0.003108749904125744 0.03497793379551667 1.146425390379926 -33.19028911121681 -31.32898790736697 184.7221901300232 190.2771355182186
3612 5 -0.005334847692596144 0.002930956459818253 0.05299900518157559 1.316588836448234 -32.34357965102273 -47.00557719583277 -277.7851906770008 283.5846321499336
3613 5 -0.005668538929230444 0.003380328443161766 0.05266833994122286 1.310383695115406 -30.15553776025605 -47.36090175613477 -272.825159427089 278.5425983385325
3614 5 -0.0056183038370897 0.003670189032393871 0.03710921287272359 1.082149701232808 -3.70727778586335 31.69782990493332 257.1606652347838 259.1333712072997
3615 5 -0.006274006495801619 0.003462193739377466 0.03709479712862045 1.081825538171613 -28.02318217350255 20.89836063213059 259.5235626290622 261.8673705827449
3616 5 -0.008803639880606673 -0.001212060754867921 0.03548248759174009 1.125292552209959 -53.23868760162615 42.65231341943816 197.0417388481349 208.516245280482
3617 5 -0.008921786977406039 -0.0005788524257859663 0.03545069258461671 1.126286805246632 -74.98697378601064 -66.88494166322695 207.7285174964072 230.7548019871575
3618 6 -0.003910807325978588 -0.0004352096529457259 0.02440696469187045 1.175595130603585 -0.1386496848312285 -0.01443537138841282 63.37634646636422 63.37649977349402
3619 6 -0.005213767692594899 -0.001176746106507706 0.02439363684120256 1.175599207008877 -0.09135673002211253 0.05993527141679582 63.37495570093375 63.37504988861306
3620 6 -0.005897110512608496 -0.0007828387912373483 0.02446245718515427 1.175575128501149 -0.03162433074931203 0.02527047353729734 63.37430955679545 63.37432248549616
3621 6 -0.004436282551345452 -0.001052234627508525 0.02438318896024728 1.175603113313371 -0.06968450137705159 0.06352210396967348 63.3750651817566 63.37513532750303
3622 6 -0.005915028005258324 0.0002895647635575742 0.02422439875291615 1.175657691788362 0.02195829764349226 -0.1210522247392463 63.38175189818115 63.38187130000613
3623 6 -0.005295935904871964 0.001117526693416222 0.03017575041688436 1.173586034841507 -1.800331160130277 1.672351381892796 62.71564097736945 62.76376004218483
3624 6 -0.003898196155963385 0.0003843757495967994 0.02438244682927417 1.175603761575312 -0.1379386387357062 -0.05682499487299707 63.37769627979581 63.37787186299444
3625 6 -0.005937063502689333 0.000647716419457554 0.0301050972846148 1.173599696473637 -4.899219382682528 -0.3717835824560519 62.73660990355299 62.92871201432951
3626 6 -0.006169526255437888 -0.0001097189629144594 0.03020490442207951 1.173561722502228 -4.379414681167868 1.495072677641743 62.78262988983968 62.95294378458922
3627 6 -0.005883524645750027 -0.0008009583158224592 0.03018766540809766 1.173572546220111 -3.028294952584162 -2.022796830548015 62.62555571279245 62.73135185593878
3628 6 -0.003905011840953538 0.0003999997663543838 0.01228344005152546 1.179680583401153 -0.1538765019659318 0.09911619510377503 60.48815552138293 60.48843245098188
3629 6 -0.005428144638632639 -0.001737002804186502 0.01168300245377399 1.179877989034308 -0.1378967393527954 0.1243828896309347 60.48261731408322 60.48290240866254
3630 6 -0.00612790004250922 -0.001383195685801267 0.01168412558893117 1.179877213255922 0.01306501418765956 0.05437272201378248 60.48833777676612 60.48836362544159
3631 6 -0.005159594233153451 -0.001173281806050923 0.0122862671854821 1.179679705771405 -0.1270192966087049 0.1355755692750748 60.48771496243494 60.48800026462663
3632 6 -0.003905798318268421 -0.0004114825851892954 0.01228147092286156 1.17968161540133 -0.1537767752241475 0.07623188309373086 60.48835335913328 60.48859686499571
3633 6 -0.005859349637030032 -0.0008194746876656876 0.01228739032063927 1.179678929993019 0.01460468835088379 0.06353916800598895 60.48727007871581 60.48730521438611
3634 6 -0.004461308650728544 0.001006304151179978 0.02425075094386937 1.175649281577206 -0.06189163389424015 -0.1460483314002279 63.38192191356924 63.38212039800529
3635 6 -0.005269322454643021 0.001134610824433195 0.02404765825518281 1.175719307588198 -0.0250580765203787 -0.1496981372994313 63.38572861598228 63.38591033990491
3636 6 -0.006176083303786218 -9.045221950704387e-05 0.01228632305460738 1.179679006192352 0.005646612597513825 0.08346124505231865 60.48720189308928 60.48725973722899
3637 6 -0.004400546476827129 -0.001022759492818851 0.01228158350475658 1.179681595075289 -0.09790959146065827 0.1419497357050365 60.48759386922759 60.48783967132721
3638 6 -0.003885473674138177 -0.0004332207378853742 0.03031302767190261 1.173552475008705 -0.0811714230772146 -0.5172623996737794 62.59043511399432 62.59262510031972
3639 6 -0.006778837744057489 7.264814669381646e-05 0.011667069320072 1.179882297741563 0.007461847536036465 0.08236246727418917 60.49974561688281 60.49980213986418
3640 6 -0.005524869449258195 -0.001718897933119914 0.02366607560987249 1.175850339188121 -0.113990344102894 0.0410184611708162 63.36258155415169 63.3626973661888
3641 6 -0.003428497883779661 -0.0008154563677735317 0.01165497464490576 1.179887532676857 -0.07637526622917223 -0.03736829437325087 60.36076844313115 60.36082832943906
3642 6 -0.006208212269271792 -0.001324990617849557 0.02373489595382421 1.175826260680393 -0.04094342705329274 -0.0021811855269044 63.361433747703 63.36144701382968
3643 6 -0.003428036275090879 -0.0008112603717666335 0.02963839782857515 1.173783095862282 -0.3079558251029855 -0.1927165081560491 62.99416347867082 62.9952109990929
3644 6 -0.003923246042338369 -0.001426733275403087 0.01165508722680078 1.179887512350815 0.03073074851856547 0.09206158317494838 60.36161631109054 60.36169433839074
3645 6 -0.003444388787808889 -0.0008515229766315789 0.02363369015074037 1.175862219610186 -0.09592006321069164 -0.07526705104087308 63.3219923150403 63.32210969743129
3646 6 -0.006355284720248116 0.00110855712798109 0.03076222219596402 1.173354983347268 -5.917416700710814 3.605695873120824 67.52893742675036 67.88353447725935
3647 6 -0.005198307307113177 -0.001179873347437242 0.03007254477212686 1.173620004125575 -3.394169521859734 -1.791094882029845 62.64644440973483 62.76388615120603
3648 6 -0.003407464765719103 -0.0004067475198091053 0.01513413803285786 1.178738763955447 0.01458237810732113 0.114362245507488 61.19854770744588 61.19865629954204
3649 6 -0.003969864013175754 -0.001468547951194378 0.0236099144191172 1.175870202319973 -0.001204946332802829 0.03611586880800965 63.32274971575833 63.32276002649006
3650 6 -0.003423431590765262 0.0007995135762071247 0.01165286870472057 1.179888021924695 -0.1923709822998255 0.04129218038908097 60.5690468454191 60.56936641076549
3651 6 -0.004403625558335716 -0.00104901979614177 0.03019467824192118 1.173588587096119 -0.7699445713266784 -1.342129807630849 62.584353246047 62.60347752552921
3652 6 -0.004475029434786127 0.001003177257917615 0.03052878634835969 1.173473011291443 -1.261349196982279 1.653043180353176 62.6934388912188 62.72791112064729
3653 6 -0.005714157122430746 0.001578367401939758 0.03083287532823357 1.173341321715138 -6.200302468450451 3.322809841260223 67.43072187025525 67.79665971038078
3654 6 -0.004033140197422892 -0.0004070676980012161 0.01451470937966274 1.178944397842593 -0.06428029079223846 0.04360997433164149 61.05097129815776 61.05102071410542
3655 6 -0.004422798563354481 0.001015735353361069 0.01238934488800361 1.179645036817222 -0.1559020833195567 0.1014972363688795 60.48633013526466 60.48661620871843
3656 6 -0.003946188159288418 -0.001427059430023029 0.02952004839859371 1.173819207949696 -1.209656058882159 -1.263925108693151 62.99132586549745 63.01561638795945
3657 6 -0.003885473674137537 0.0003791831025789615 0.03031302767190261 1.173552681814551 -0.09958097949614594 0.3978308901424109 62.62186466967387 62.6232075232144
3658 6 -0.00340927963595426 0.0004035244185167627 0.01512958517974847 1.178740183369249 0.0152349710926829 -0.07069342054125037 61.19862139940025 61.1986641263613
3659 6 -0.003555634129112323 -0.0008107989323708896 0.01588414973000039 1.178488868819625 -0.03110629438005449 -0.04605972460046503 61.47721234953326 61.47723747346969
3660 6 -0.004031120093420863 -0.0004091080456076052 0.01650766042144642 1.178280400505241 -0.04278716344074687 0.00315277797229497 61.53893238663886 61.5389473420587
3661 6 -0.004032180656547608 0.0004002430550626233 0.0165057207265319 1.178281047278381 -0.04276749211149036 -0.002339107101303204 61.53896409453392 61.53897899996505
3662 6 -0.004034955067658049 0.0004032042403246519 0.01451015652655336 1.178945817256394 -0.06421832931449889 -0.002525199712686615 61.05084346848995 61.05087729578106
3663 6 -0.006507583343274987 0.0005030472713686622 0.02495010917627011 1.17540693439305 -0.1336215122999317 -0.0679857205956584 63.5379075495235 63.53808442610266
3664 6 -0.005939780885618485 0.0007152654277798184 0.02744098227080018 1.174539092688803 -0.3239593066715057 0.3317344351620282 63.95114431320795 63.95282524124013
3665 6 -0.005890605574782706 -0.0007766720651619163 0.02742352266356318 1.174545182134623 -0.6907886943555674 0.09053017222163662 63.949004818583 63.95279979812834
3666 6 -0.005961905814934321 0.0006811852286111216 0.01228452506310012 1.179678968836383 0.04053098916722582 0.2040161572786072 60.48622068989885 60.4865783352031
3667 6 -0.005882480615664976 -0.0007802313135641505 0.01861622398033118 1.177572271775613 0.02663998453678875 0.07146177376996223 62.01366465759717 62.01371155429098
3668 6 -0.006179808674218858 -4.048574714097179e-05 0.02743168731876335 1.174541817868513 -0.5304303904757542 -0.3091879575055988 63.94966151250079 63.95260871266809
3669 6 -0.005199484661353159 -0.001160177600456771 0.02741402035121333 1.174550068097616 -0.2013611979863252 -0.1825191589522409 63.95228473115063 63.95286218700146
3670 6 -0.006564660255205589 0.000844285594811982 0.01166527132856473 1.179882260385595 0.04111298570179757 0.204059245372121 60.49720979532553 60.49756791370085
3671 6 -0.004003901008443252 -0.0003848148796598174 0.009509825152273211 1.180587098668901 -0.1314595282364504 0.2453788484764148 59.73217548280747 59.73282414465057
3672 6 -0.003373778121878647 -0.000379854392894462 0.008858925576216557 1.180799738811824 -0.3912981142652618 0.03717042046915235 60.22045438697454 60.22173712562654
3673 6 -0.006785180335663294 0.0001021576907657921 0.02953663840826137 1.173784101061301 -0.8340335513191461 -0.01919933874528469 67.44048801863569 67.44564778227783
3674 6 -0.006552717582914739 0.0008595930731378055 0.02943683127079667 1.17382207503271 -0.8499167570424576 -0.06717829987405249 67.43848161588282 67.44387054487339
3675 6 -0.003558509562474225 0.0008088241066252069 0.01587765718197648 1.178490935006567 -0.02566519167028916 0.07099287796599849 61.44040799184471 61.44045436758358
3676 6 -0.004074900217837376 -0.001426790279717994 0.01587878048789319 1.178490700064442 0.04302311888551787 0.06679963624426166 61.47730127871363 61.47735262431105
3677 6 -0.004418631696921852 -0.001021330014544304 0.02739880163462878 1.174556525829644 -0.2724624101268796 -0.1956881403735614 63.95217336406904 63.95305315308376
3678 6 -0.006202945256846832 -0.001321964122381329 0.029509988796063 1.173800028764583 -1.922443871556788 0.3894382921543906 65.97862322725796 66.00777359968404
3679 6 -0.006270496744911534 0.001243142166731914 0.02683814834888257 1.174748805949727 -0.260104494960618 -0.009620380166511681 64.35516215990874 64.35568850947182
3680 6 -0.003897076871970691 -0.0004063575897865422 0.01862679672425221 1.177568804644108 -0.06093297513752197 0.07487774313821138 62.01325153499915 62.01332667618269
3681 6 -0.003904257680386272 -0.0004061984092901681 0.0273960864059152 1.174558791695411 -0.2428779788112428 -0.1609750236084538 63.95250328419834 63.95316707549531
3682 6 -0.005182943580121866 -0.001162538328215577 0.01863147351886543 1.177567281902794 -0.01586756729979553 0.09509178080311768 62.01320315646681 62.01327809390254
3683 6 -0.003883779196791129 0.0003664145803487707 0.02138002112155881 1.176635234372875 -0.1408701427092687 0.1013064392102335 62.65779782894911 62.65803808104106
3684 6 -0.003901409159172151 -0.0004244179681025145 0.02138002112155881 1.17663536856073 -0.1378637836997161 -0.0278836736887663 62.65399699543759 62.65415487760104
3685 6 -0.003941218313166205 0.00141524916321381 0.01175877354119872 1.179852475340764 -0.2075383745924279 0.05963037558224341 60.56684503445778 60.56722996296466
3686 6 -0.003994013512214553 0.0003985775515158705 0.007450942123998591 1.181254292076788 -0.6541724336150621 -1.110682131921397 58.83842347459863 58.85254143490551
3687 6 -0.004550386182145916 -0.00102509939295471 0.01650229117933922 1.178282231750058 0.004145146734010175 0.06279326240568557 61.52622460918528 61.52625679200678
3688 6 -0.004403173402400753 -0.001019942926088047 0.01863309049147124 1.177566802559163 -0.04927551531679925 0.0886531943364407 62.01312055871915 62.01320350454016
3689 6 -0.006468351470812282 -0.001004642498292761 0.02685402934464757 1.174742974353751 -0.2297557651238017 0.07862719959877522 64.48765607858168 64.48811329584358
3690 6 -0.006757554570248432 -0.0002684561802718165 0.02686219399984774 1.17473961008764 -0.1987862381396091 -0.0004753865036232899 64.48675285840025 64.48705924768828
3691 6 -0.005167127408492092 -0.001804141039136796 0.03073579353964916 1.17338173809912 -2.216998241299045 -4.224412975892766 65.4501223477351 65.62377055249347
3692 6 -0.004424987121662463 -0.001041133924039592 0.02136390413532113 1.176640396818279 -0.1322849849732556 -0.02123343131024925 62.65446966109074 62.65461290829586
3693 6 -0.003423075257038314 0.0007904271888313752 0.0236220012333142 1.175866832307371 -0.1474273507284522 -0.07036061614821268 63.40840794447791 63.40861836921995
3694 6 -0.006172479053297032 -3.60036091114709e-05 0.0186018797438857 1.177576969164586 0.04456818347350482 0.02599157887905452 62.01413614451556 62.01415760643421
3695 6 -0.005200932661534765 0.001774295119377813 0.02477861620560946 1.17546705392332 0.007340253525508604 0.007546547472141133 63.52748450503657 63.52748537733382
3696 6 -0.003992505242601064 -0.000412055906791233 0.007454723616292716 1.181251686134367 -0.6254343668247115 0.5688754655746143 58.66632710247331 58.67241875989887
3697 6 -0.005073984760265561 -0.001775351538792227 0.01924550292715334 1.177360139128587 0.04997650599837266 -0.01105817427578325 62.14912774694664 62.1491488247479
3698 6 -0.003273405777897354 -0.0004039784584557028 0.01924873317969679 1.177358756927572 0.08814151135735974 0.1326758835008776 62.18735807965596 62.18756207428812
3699 6 -0.004549617052002169 -0.001022573771820145 0.01451919616590763 1.178943120532328 -0.003347342172661377 0.1311657727979778 61.06763272014368 61.06777367570407
3700 6 -0.004392918857620288 0.001645988446124596 0.024981708894296 1.175397027912328 -0.1156759231016082 0.02120951509321631 63.52505120107628 63.52516006168012
3701 6 -0.005246481156997143 0.001765675417940086 0.02951933256151239 1.173808531737885 -2.574069726579313 0.5116574153485942 64.02941542227201 64.08317772696559
3702 6 -0.006502444558421545 0.0005025450930823839 0.02342488416580808 1.17593359838181 -0.08991624143850052 -0.08392595840616096 63.2589893313509 63.25910890710473
3703 6 -0.00551772791820998 -0.001700879153996112 0.0293948681600922 1.173847486670047 -1.122075523304275 -0.03316238856066381 66.03344237196427 66.04298346316239
3704 6 -0.003522269852265157 -0.0007842859309697678 0.00811270706851068 1.18104209734045 -0.4668342297203456 -0.1907483444998736 59.80790589997269 59.81003199521762
3705 6 -0.006176265586610484 -3.408728210652719e-05 0.02138950634004382 1.176631488095139 0.01887840014513601 -0.05396182605882437 62.65326408506711 62.6532901672835
3706 6 -0.003275220648132582 -0.0004061103605934043 0.02075328603280618 1.176848784884834 0.089244643480783 0.06418303903279364 62.37948177819361 62.37957863744255
3707 6 -0.003257590685751559 0.0003847221878578809 0.02075328603280618 1.176848650696979 0.08923409684145568 -0.00776586150683279 62.37947466570004 62.37953897394046
3708 6 -0.00429421458254445 -0.001632756136664697 0.01924711989975916 1.177359659784956 -0.07447316653843759 -0.03336851774628821 62.14682150385651 62.14687508429296
3709 6 -0.003275120898925215 -0.000406051439234996 0.02676044559595998 1.174780443528318 -0.00633463171799031 -0.0624576048266484 63.66249674116727 63.66252769407678
3710 6 -0.006467445404066505 -0.001001445913558199 0.01921901389873277 1.177368839002797 -0.07635123963832156 0.07354706519164311 62.11869674306507 62.11878720435127
3711 6 -0.005090916129369412 -0.001776244075145193 0.02679586260346975 1.174765399988697 -0.2490063556671167 -0.1063312187198897 64.06998762245627 64.07055973249287
3712 6 -0.005053361126198221 0.001294848823035972 0.0053262861402406 1.181916772207171 -1.301112849115406 -3.172671153213956 52.95548816325086 53.06639674502849
3713 6 -0.005896130664190246 -0.0007820183094012878 0.02140224673628498 1.176627054789094 -0.00531978856452742 0.01476022810327216 62.65501857370891 62.65502053815235
3714 6 -0.003284618814939018 -0.0004169020454366157 0.02528022960311783 1.175293683281441 -0.0091824466146432 0.03859525674416399 63.51858972121327 63.51860211058638
3715 6 -0.005210161423315813 -0.001177533978181101 0.02134631639680863 1.176646132247791 0.01397140274536864 0.003616246436470561 62.65573547457402 62.65573713665115
3716 6 -0.004313510884839925 -0.00163801865843797 0.02072926199941183 1.176856718084713 -0.1392923528137599 -0.05418690829074035 62.62517687837191 62.62535522955498
3717 6 -0.004443207709023432 -0.001638244940975138 0.01513325557699554 1.178739317889999 -0.05790658913988539 -0.01559946090868116 61.26150470498381 61.2615340587795
3718 6 -0.004310063164938104 -0.001637396489232726 0.0267806438868852 1.174771857720725 -0.2498550213664003 -0.1064754014396806 64.07035094404111 64.07092659416908
3719 6 -0.005108147431032641 -0.00177465194374219 0.02528438481466156 1.175291439744906 0.008969799520139814 -0.06913662199081946 63.52616991924171 63.52620817377797
3720 6 -0.003986187751803473 0.001412355590414554 0.02349030534790941 1.175912352309265 -0.07631437620567079 -0.1498391009665885 63.4098267042955 63.41004966335368
3721 6 -0.004425574686911305 0.00165132598244148 0.02987236849298772 1.173695508187822 -1.972884050392627 0.4320162912797264 64.0678806139791 64.09970542771084
3722 6 -0.003904257680386174 0.0004062054311739012 0.0273960864059152 1.174559033366315 -0.2429059615504583 0.0519080866009943 63.95261754699321 63.95309991601342
3723 6 -0.004600837294151829 -0.001036833610854441 0.007272606662338034 1.181308646003357 -0.8317584297082411 0.3025675120257538 58.65572271174435 58.66240001927781
3724 6 -0.005051039941350378 0.001302640093133659 0.03268611782836578 1.172771487334385 -8.419575589288982 10.95492251690862 40.19008483773747 42.4987352720026
3725 6 -0.004557098229946007 0.001017177822996427 0.01658642400205987 1.178253888506111 -0.05875092310825358 0.0176457379267328 61.54188221216793 61.54191278518555
3726 6 -0.004330662289783193 -0.00165014046474301 0.02527393693370628 1.175295346049401 -0.120819987919158 -0.0911390421405027 63.52759069942828 63.52777096568531
3727 6 -0.004372445659714631 -0.001673287487841324 0.03085792700944348 1.173350321069664 -2.038348695853526 -4.229119507848793 65.48242927812605 65.65050541604637
3728 6 -0.005244750797906209 -0.001161395190513839 0.009594020174917868 1.18055889872541 -0.009139012726176723 0.07631247015429864 59.69969913641241 59.69974860996331
3729 6 -0.0058745725442332 0.0009451544497752219 0.005296958307519814 1.181921110827738 1.615176529795813 -2.048486678000569 52.9603654360466 53.02457354860997
3730 6 -0.005859346552462748 0.0009610259275350662 0.03265739904424129 1.17271895870206 -24.29423041241117 4.522165320067034 39.93066495522545 46.958679860914
3731 6 -0.004083427135872624 0.00142575887455901 0.01595836045750445 1.178463776234296 0.0002690872382332387 0.03231200759127369 61.43888195319893 61.43889045057174
3732 6 -0.005909548798107952 0.0007252661685539485 0.0213082411916005 1.176659026912783 0.07439233435638312 0.1007420215180379 62.65938225285296 62.659507398985
3733 6 -0.003982083549167799 -0.001387061581829213 0.008278061219965443 1.180986660825746 -0.474548420499813 -0.2011614138772618 59.80510924528411 59.80733026944272
3734 6 -0.004907701976111401 -0.001417155476230183 0.005386811693320123 1.181900829148385 -0.5682279834506084 2.570689814468376 54.33841341038881 54.40215529849631
3735 6 -0.005253911114252728 0.001124622580923064 0.01213681348488465 1.179727285140895 -0.1193828035301067 0.09502595282856913 60.49036584071089 60.49055828580632
3736 6 -0.003426053536161501 0.0008086234667844736 0.02963229480111034 1.173785672907585 -0.3211113370990107 0.08063213246963902 63.01690589356268 63.01777560680586
3737 6 -0.005098685186493275 -0.00177441871257948 0.02071167426089934 1.176862453514226 0.03268561942700592 -0.02335699829965371 62.6286779145101 62.62869079917392
3738 6 -0.005278095856604858 0.001145566932233851 0.0274501077499488 1.174537169319232 -0.6641226560984362 0.1130140830655334 63.94875052119651 63.95229881956978
3739 6 -0.00675744384169856 -0.0002572182091055192 0.01920466966228729 1.17737353639177 -0.03228052333856935 -0.04160680495262584 62.1210213565422 62.12104367715
3740 6 -0.00675871295804578 -0.0002393734059223046 0.0207436247142482 1.176851519362964 -0.02603028389937284 -0.1080253933585205 62.5937720557962 62.59387068423124
3741 6 -0.005328764012665589 -0.001165514089183501 0.01451194004618155 1.178945515583698 -0.05898524956242036 0.1182772435941531 61.05279959538808 61.05294265799674
3742 6 -0.005938452479161336 0.0007153598913404793 0.01858846576996288 1.17758077311168 0.1290397091014805 0.2784501025418729 62.01354817861095 62.01430757016506
3743 6 -0.005321731678663877 -0.001172306537960512 0.01650545804811285 1.178281458621508 0.0936598476451985 0.09325242445443717 61.5018139815763 61.50195599496119
3744 6 -0.005222354669686851 -0.001781185258338495 0.01512599945726946 1.178741712941369 0.05624075992565809 0.02920101518165176 61.26232310491105 61.26235587971527
3745 6 -0.00619124217963103 -0.001324700200315543 0.02816278731751594 1.174284167968587 -0.6225197859061228 -0.5587575824317363 64.83440584484379 64.83980199054963
3746 6 -0.003272007644923815 0.0004026833571059095 0.02525571174052153 1.175302314253168 -0.00921729394046053 -0.1058854212646014 63.51905616764619 63.51914509114189
3747 6 -0.00444218207428849 -0.001607712165199319 0.00785284168085988 1.181123252758835 -0.4321109246605501 -0.1798252055875472 59.85446166471181 59.85629155008044
3748 6 -0.005500121266201481 -0.001708205735610397 0.02815328500516609 1.17428905393158 -0.7640599800881633 -0.4817072709657644 64.83661395313254 64.84290507415298
3749 6 -0.006478578035625541 -0.0009873044332170651 0.02075636511048937 1.176847086056919 -0.07677587175915034 0.02439490455408575 62.59288651430081 62.59293835440219
3750 6 -0.0033746133380718 0.0004293831303456053 0.008863490730321466 1.18079719772706 -0.3776513690328636 0.4450648048299756 60.22032479612109 60.22315353572368
3751 6 -0.006463758438033861 -0.001016534720812596 0.02889433980692076 1.17402036226038 -1.369340934758462 0.2546550214712156 66.78266457325036 66.79718730065537
3752 6 -0.006751961704820886 -0.0002832107511768689 0.0171074114078243 1.178079670917799 -0.03193063229454735 0.04405700439368732 61.68304433491001 61.68306833327431
3753 6 -0.003942410291626073 -0.001426391977020319 0.02814111305728874 1.174298649972714 -0.456635851899183 -0.1761019774920551 63.68865587258787 63.69053630693212
3754 6 -0.005608811715897909 0.001673443671185947 0.02684727382803118 1.174746882580157 -0.3853049543060354 -0.08897044473853839 64.35303314322873 64.35424811449003
3755 6 -0.004004736224636406 0.0004244226435802499 0.009514390306378118 1.180584557584137 -0.1314965861460528 0.237906850751556 59.73164538460491 59.7322639063178
3756 6 -0.006277537659375332 -9.475303486481456e-05 0.009562385422695644 1.180568646843409 0.007165263912578478 -0.06180985477552953 59.68973830566109 59.68977073835566
3757 6 -0.006759991907162463 -0.0002836522605734749 0.02890375040513728 1.174015258274982 -1.099042880172121 -0.4138444402440957 66.77393452775972 66.78426083135696
3758 6 -0.00326846891676598 0.00037430482371723 0.006835119132932926 1.181457879633196 -1.854973797811098 -0.4823979753399973 60.59012901732692 60.62043689988963
3759 6 -0.003275120898925116 0.0004063524012290733 0.02676044559595998 1.174780685199222 -0.006330835093953685 -0.04668045203837655 63.66250983717682 63.66252726614543
3760 6 -0.005074441608244246 -0.001759210354607929 0.009108474750315978 1.180716102353629 0.0738138509416177 0.01372038092289848 59.56982026072183 59.56986757269272
3761 6 -0.003428036275090494 -0.0008112603717661837 0.02813839782857515 1.174300915838481 -0.2968769490859794 0.01320465109380584 63.68794315556222 63.68863645637135
3762 6 -0.006776678748195783 0.0001443685779445234 0.02818036257093263 1.174275699717079 -1.133737557666797 0.4537404472931459 65.32230583141971 65.33371932147062
3763 6 -0.00653665095959541 0.0009001197528653135 0.02818965752296947 1.174272974537369 -1.268576467235832 0.02593804725017686 65.31621649269246 65.32853967414081
3764 6 -0.003426731410209708 -0.000813381568234805 0.01014807723005663 1.180380148019571 -0.0316713077092339 -0.0499126047766678 60.12859648967533 60.12862554688943
3765 6 -0.004541945880331192 0.0008272809467156759 0.004974742193770714 1.182020426831555 -4.831971087883397 -1.493446866701888 53.99311356018293 54.22946284134311
3766 6 -0.006780422935901817 4.375442534529443e-05 0.01020788004389948 1.180359070467764 -0.1080550073598094 0.07046534162032202 59.91636434123834 59.91650321172793
3767 6 -0.005435458277994279 0.001150050760008352 0.009516201352882631 1.180585311594275 0.2362089369784026 -0.236358328931435 59.64019868920357 59.64113479478105
3768 6 -0.004886692673599592 -0.00140852191455487 0.03268245405641708 1.172731125148755 -12.37287197075301 -13.90287387082624 46.80203492546485 50.36673838792007
3769 6 -0.004138760434081809 -0.001171355079765572 0.005330727283467018 1.181923673830151 -3.98671227765989 1.191615581287565 54.28813842952205 54.44736721478239
3770 6 -0.00645107033872113 -0.001024512530216342 0.0171223553600187 1.178075108309815 -0.06914735400499965 0.1377682189357028 61.68096135306371 61.68115396842745
3771 6 -0.006477804679059559 -0.0009926485869142551 0.02540186958744125 1.175249821565225 -0.2944614212518299 0.03936189617409598 63.67966585069144 63.68035882234956
3772 6 -0.003278036275090242 -0.0004050584515340916 0.02888839782857515 1.174041998216296 -0.4044135993106026 -0.2589568816371021 63.17452022762629 63.17634537559621
3773 6 -0.003274888954388933 0.0004049602531197392 0.01313254047546881 1.179401594403979 0.001626642788981055 -0.002522066470991248 60.72935921293617 60.7293592870913
3774 6 -0.004422201142833593 0.001020586078067121 0.01862746970917839 1.177568346789887 -0.0916821719921915 -0.001850795753344846 62.0134544230869 62.01352222322468
3775 6 -0.00494601667283143 0.001758655612599288 0.03190187650482286 1.172979519108688 -7.097479613436358 2.656244980062905 65.2917562161407 65.73007899010317
3776 6 -0.003275675431703816 -0.00040652209842394 0.01313057134680492 1.179402626404155 0.001535268244905957 0.1760400546889728 60.7294123508174 60.72966751871375
3777 6 -0.003271840457466557 -0.0004064305438926243 0.01712807524169799 1.178072787685582 0.01917290686227172 0.043829386866777 61.63054528574725 61.63056385296223
3778 6 -0.006305607774802019 -5.460993124177185e-05 0.01649595235888795 1.178284295949586 0.04257776213955031 0.1458471459232079 61.51582728078231 61.51601490908562
3779 6 -0.003272901020593302 0.0004029205567776041 0.01712613554678347 1.178073434458722 0.01950081308027594 -0.04212593859022723 61.63057912052973 61.63059660272882
3780 6 -0.003929540582001904 -0.001426320718152552 0.01018738160609106 1.180367209195549 0.009552193945757603 -0.000174126537394499 60.12796505815128 60.12796581715525
3781 6 -0.003898891742205436 0.0004039143485388446 0.0186313495773616 1.177567187869361 -0.06058937577752953 -0.03809734040908415 62.01361368914856 62.01365499038706
3782 6 -0.005045948201168124 -0.001783827393104496 0.01313985439567034 1.179399439463966 -0.02425870757592355 0.04080356559744149 60.66083458251452 60.66085315640598
3783 6 -0.0061767748274436 -0.00133158143077016 0.01786611651344121 1.17782530532404 0.03333974434306813 0.01773048693676162 61.9525796697255 61.95259117779018
3784 6 -0.006427742500082421 -0.001062918478120467 0.0131437163512383 1.17939730064382 -0.1364026846823 0.09384848369567797 60.6787093683366 60.67893525629253
3785 6 -0.005932543274870741 -0.0008143879396297944 0.00957889598180719 1.18056346577545 -0.07189741631752403 0.09693294457223975 59.71224851357848 59.71237047531753
3786 6 -0.003423860561468612 -0.0008105921165180639 0.01388512419991431 1.17915337383425 -0.05572452503718835 0.01225407929065752 61.01699423403493 61.01702091008214
3787 6 -0.006744476166838607 -0.0003338960099618234 0.01314264908520641 1.179397376843152 -0.07554475055069455 -0.04515813124852167 60.68168635126754 60.68175017828476
3788 6 -0.006004716408702262 -0.000795911710281245 0.01651089631108235 1.178279733341601 0.06101842733285662 0.1088275093223329 61.51059450593166 61.51072104233871
3789 6 -0.006773014278956488 0.000105153391292328 0.013887415115423 1.179151328468238 -0.08623021337551549 0.1200813689011012 60.94427147837503 60.94445078278032
3790 6 -0.003940337416047889 -0.001426098190336993 0.0138896109861592 1.179152096523985 0.04162403230955031 0.1266102828148402 61.01609478564705 61.01624034316475
3791 6 -0.003420025587231354 -0.0008105005619867486 0.0178735223885886 1.177822611321086 -0.01977103091524058 -0.06645675043507346 61.81877599138915 61.81881487433169
3792 6 -0.004286900444841801 -0.001633305079872424 0.01313517071494482 1.179401328767849 -0.1550546167737587 0.0164105150213699 60.65509246551419 60.65529287077315
3793 6 -0.005599256575144087 0.001638558040240874 0.03157744951890736 1.173073546926183 -6.282858363250804 2.806259536838401 65.82234816523567 66.18104652985075
3794 6 -0.00593043929925745 0.001342669199116924 0.0190630063406569 1.177420407223158 0.1741139692480217 0.02504923889709008 61.7247557107807 61.72500636447283
3795 6 -0.004297203076621672 -0.001636007227541234 0.01712899976680982 1.178072616845453 -0.02278673759951861 0.002467826041696639 61.60446806162818 61.60447232532506
3796 6 -0.005418401354142846 -0.0009552705246220799 0.004996645209837474 1.182004497483593 -1.92996584959925 3.329549626729797 53.88649055617508 54.02374046063657
3797 6 -0.003278497883779635 -0.0004092544475417031 0.01090497464490576 1.180133029578984 -0.002635693973435934 0.01700523771664451 60.23942660826332 60.23942906616342
3798 6 -0.005478532133037631 -0.001719560820932421 0.01388703854715862 1.179152602271472 -0.172805549406898 0.06247783439443523 60.88669395210512 60.88697123075683
3799 6 -0.00453810909817706 0.0008356727986398074 0.03304457956916731 1.172757144170409 -14.66456299391483 13.73155508612424 38.28231186255042 43.23355657851121
3800 6 -0.004087733007186529 -0.0004767952672083171 0.004940560799984369 1.182037490715799 -4.467088422825639 0.1400336660090578 54.57234071644662 54.75504414825082
3801 6 -0.006160571028075347 -0.001352459024333627 0.01388977736756941 1.179151239229713 -0.04357038526562228 -0.00472573458471727 60.89274558446854 60.89276135572973
3802 6 -0.00547723779190049 -0.001713888445421587 0.01788136605197546 1.177820315451221 -0.06283874465458721 0.07005804927119261 61.95017284892589 61.95024433244708
3803 6 -0.005908142514216153 0.0002613837720920626 0.03301586078504283 1.172651717445505 -24.27059302170277 4.58206422897427 39.91133263686858 46.93582289759437
3804 6 -0.004414187962929706 0.001647895385843565 0.01910201027987241 1.177407980901364 -0.1236355617192471 0.1363011911780769 62.16654224861151 62.16681461129593
3805 6 -0.00630651249182826 -6.982234511739585e-05 0.01451338388047781 1.178944165581132 -0.02906612580541938 0.0528692249189764 61.06043112437284 61.06046093085846
3806 6 -0.005068548573139634 -0.001783214372547036 0.01713216663558346 1.178071843716902 0.154624583687558 0.03560481265506801 61.59970547017292 61.59990982523121
3807 6 -0.004593736228956166 0.001048384982436549 0.009268452558686996 1.180664358707835 0.1961493469886716 -0.2289897569377349 59.65174203120968 59.65250403992354
3808 6 -0.006010802907703305 -0.0007984122925847075 0.01451467886659233 1.178944152541938 -0.05912679455945738 0.1183299809732873 61.0526913457836 61.05283464775204
3809 6 -0.0064094539349396 -0.001092403351371069 0.0109536220911294 1.18011622768795 -0.1806135242439594 0.07940868960086694 60.20661355537352 60.20693683282028
3810 6 -0.003926122117661416 -0.001424085898288253 0.01787981615580764 1.17782060923614 0.09845298057218178 0.07349464606508167 61.81867993167945 61.81880201805767
3811 6 -0.006241622240667123 0.0012243674461804 0.005964358463447543 1.181726308041786 0.237818332558792 -0.5429812042477573 58.2948920469104 58.29790583638837
3812 6 -0.00674365796973168 -0.0003655819870346287 0.01093763308830212 1.180121235974259 -0.09877362260261922 -0.09821208778924342 60.2106891264054 60.210850242455
3813 6 -0.003266960647152491 -0.0004363286345898735 0.006838900625227051 1.181455273690775 -1.872727372714422 -0.1380845493488845 60.58999537751937 60.61908705187749
3814 6 -0.004410722427577759 0.0009836745499008518 0.02118409572144189 1.176701435493774 -0.1064019587528491 0.05791268679129155 62.66009577026559 62.66021287224433
3815 6 -0.006742698178944158 -0.0003490290018795843 0.03101256990390324 1.173259845973986 -7.534579298210696 -0.8124236591227101 68.26774237705341 68.68707714455945
3816 6 -0.005406269330053348 -0.0009502452757051724 0.03301586078504283 1.172657034619519 -7.558095825020468 -16.6199725210935 45.21516170268177 48.7622717569819
3817 6 -0.003942513536701863 0.0009907845353341815 0.005330030096899071 1.181927093814531 -1.33180135712979 -2.371213614130565 55.41751166700384 55.48420449300141
3818 6 -0.005909252856230415 0.001356181683739387 0.01967753263644158 1.177213818310623 0.1224758438208975 0.05861562021306697 61.8498599425581 61.85000898170755
3819 6 -0.0035246133380718 0.000835585050577403 0.008113490730321464 1.181042162198107 -0.3100951750287825 0.176618952837271 60.7127743150841 60.71382312378635
3820 6 -0.00621212552231505 0.001253741030130405 0.03195016476554573 1.172886118096372 -19.30472445273294 -6.149949405179096 76.0393474084775 78.69229071636776
3821 6 -0.006077726802279944 0.0006779550442876558 0.009533621773223316 1.180579101741419 -0.09291259441483309 -0.4540999530859419 59.68668183795191 59.68848153825402
3822 6 -0.004608732640780641 0.001023492988741228 0.007241431001552306 1.181322048081713 -0.8247181404607761 -0.907369093471573 58.78587085765508 58.79865722255818
3823 6 -0.006456696569256297 -0.001040268354787584 0.03099533088992139 1.17327066969187 -6.817795177519798 -2.823089341590417 68.25508400450978 68.65281244767689
3824 6 -0.005924884103292894 0.0002449117125057732 0.004945414361049928 1.182014616901681 1.608411635345423 -2.069735323471658 52.95824863097811 53.02307884646493
3825 6 -0.003938118052114411 -0.001425372720595018 0.01999082613254012 1.177107883565715 0.05136340560683182 -0.01445904743554864 62.33668713685926 62.33670997463824
3826 6 -0.003424888954388887 0.0008111621733514834 0.01388254047546882 1.179153761247876 -0.03522275463672522 0.1018857732154705 60.9093670514536 60.90946245011467
3827 6 -0.006586802957981834 0.000827182917478874 0.0314537320505348 1.173061255840991 -14.15814857252975 0.6616584637958458 83.85433063349214 85.043751851124
3828 6 -0.003982935680963163 0.001429900343710678 0.02940326380768576 1.173861848534765 -0.6809388682106646 0.5129452861479494 63.01567079991067 63.02143728106759
3829 6 -0.006580612078806431 0.0008164625044977649 0.01017911639442716 1.180369525365774 -0.2649163825331451 -0.4979678640178552 59.93046880965756 59.9331230992401
3830 6 -0.003275220648132099 0.0004062934798696839 0.01925328603280618 1.177357140152825 0.08810777450803217 -0.09687196807234121 62.18727268506527 62.1874105520144
3831 6 -0.003423405777897378 -0.0008101803786875286 0.01999873317969679 1.177104978623385 0.08896361479434058 0.02971564088302973 62.3368552031926 62.33692576770104
3832 6 -0.004117662213910155 -0.001162579431227711 0.03273869223019295 1.172766005062908 -2.326070086622738 -9.820957729830537 46.90785453719129 47.98133626798337
3833 6 -0.005504702417700477 -0.001088462506707188 0.007331862234788735 1.181287424520774 -0.1393069259969628 0.3665893891488404 58.78759949583029 58.7889075309451
3834 6 -0.004075512065437187 -0.0004716279314288615 0.0330720989588187 1.172744812626251 -7.698907854813721 -21.16122306078612 43.64989314029774 49.11602299397489
3835 6 -0.003284890871794835 -0.0004344704501978672 0.02286390614358254 1.176127597868014 -0.02052909715983716 -0.02250853882336656 63.20718238559277 63.20718972714843
3836 6 -0.003256336892677119 -0.0004330737678302021 0.03117738686194739 1.17325903287877 -0.4613850095016007 -0.7164375794220217 62.02281323024313 62.02866692043142
3837 6 -0.003749438457076005 0.001283211756028314 0.006080030096899073 1.18169924483036 -0.2568049651871273 -1.61007867502175 59.05667975844227 59.07918183439163
3838 6 -0.004548031649783865 0.001018101100400682 0.01451018011548834 1.178945579532259 -0.07935146563246685 0.01877280981639756 61.04688007347914 61.04693453220424
3839 6 -0.005021906054098486 -0.001793217720640349 0.0109676231490829 1.180112436416297 0.01254200208935269 -0.01431630975081007 60.19544841323085 60.19545142225015
3840 6 -0.003434890871794859 -0.000840672370429693 0.02211390614358254 1.176384759153601 -0.08496673745691345 -0.1934471169285533 62.87795061023711 62.87830559165013
3841 6 -0.006101224516605146 -0.001402701843756125 0.01024037960583831 1.180348881113495 -0.05177618692853835 -0.05004488517840668 59.91511326361187 59.91515653535009
3842 6 -0.006767664631175412 0.000153948052721993 0.01783682832480133 1.177834565320997 -0.03830346526745782 0.1365050643072444 61.8246692073504 61.82483176998005
3843 6 -0.003274218068080119 0.0003942331448952741 0.01090089957605667 1.180134550826999 -0.001681869231011926 -0.1041580392909904 60.23950425752541 60.23959432896486
3844 6 -0.006153976100392642 0.0004851731378034571 0.007200975312888313 1.181330433529416 0.218270888954898 -0.6805743837166147 58.97271979438003 58.97705065209008
3845 6 -0.004276055214130537 -0.001633470505089006 0.0109443916028352 1.180120070428921 -0.02643079165025057 -0.02260814156716306 60.19654947024733 60.19655951828765
3846 6 -0.003938676754547731 0.0009991763872583147 0.03268929166603896 1.172836032235344 1.936729831984731 10.03484340579735 31.56012594628999 33.17364246456305
3847 6 -0.003556779599590429 -0.0002497467083318447 0.00544056079998437 1.181896483426752 -2.638369573820657 2.266446934303756 55.95568805149438 56.06368522519928
3848 6 -0.005597672807523714 0.001680096486691557 0.02544311897905185 1.175236541287351 -0.1690455486847462 0.07638763045657269 63.7172639632138 63.71753399516871
3849 6 -0.00395846883428517 -0.00145738832636677 0.02209778915734486 1.17638978741115 0.03570942475015765 -0.05023999361099564 62.88330310980761 62.88333331829597
3850 6 -0.006199839598110657 -0.001314580433766373 0.02612204369169725 1.174999501135053 -0.1753713689499921 -0.1783431271551973 64.01712152470257 64.01761015296172
3851 6 -0.005413432039640613 -0.00174970909464017 0.01025550379894899 1.180344314063456 -0.1644798714394211 0.002690336882716973 59.9126482423592 59.9128740779366
3852 6 -0.005625392675018757 -0.001716937742087154 0.01587469123694074 1.178492321987262 -0.01404850325267447 0.02312449284570593 61.36361662953683 61.36362259481901
3853 6 -0.005503062531488873 -0.001704368176864057 0.01997162142142182 1.177114098338858 -0.1117001642508019 -0.04481786501179121 62.39592093030057 62.39603700803472
3854 6 -0.003434618814939269 -0.0008231039656687077 0.02603022960311782 1.175033724785356 -0.006260921558796321 -0.05975763564884543 63.68067576384047 63.68070410975005
3855 6 -0.00522118280482097 0.001137197085184604 0.02139264392623724 1.1766299815606 -0.02302906342612406 0.0447600150465822 62.65603227614267 62.65605249603378
3856 6 -0.004462628715240257 0.001027643747504319 0.02717859525684853 1.174633905469328 -0.2567251203385805 0.06811084232717235 63.95661312261259 63.95716464157707
3857 6 -0.005520361366382102 0.001064482700787634 0.007158831157480033 1.181346330763644 -0.08951526948341386 -0.9596984677989836 58.94095493031613 58.94883546118722
3858 6 -0.003408558548658464 0.0007725249409420213 0.02212673508875267 1.176380606691203 -0.1331951243247137 0.1312821449003961 62.68634326256957 62.68662223772641
3859 6 -0.005513525170097334 -0.00170267647532395 0.02607337926286928 1.175017040807007 -0.288841297047349 -0.113829797062796 64.01997496292796 64.02072774322002
3860 6 -0.006545622972514002 0.0008739641152799266 0.01387211493766007 1.179156226718332 -0.115697255225509 0.01916096352436445 60.94659093742738 60.94670376559749
3861 6 -0.005521163430771515 -0.001719626883434635 0.02212591472863239 1.176379566013305 -0.1539822826839255 -0.08459971857674602 62.8904365024986 62.89068191020489
3862 6 -0.006287501365813535 0.001229534296719329 0.02881323821970942 1.174050507066681 -0.9248753367815526 0.4626840439394591 66.29798685885429 66.30605200469954
3863 6 -0.006258617938648636 0.001253894699558027 0.02543787145197916 1.175238037556916 -0.1279624878172151 0.1024291465731958 63.71792480591106 63.71813562636694
3864 6 -0.003544558657841087 -0.000244579372552389 0.0325720989588187 1.172878313651546 3.050063889072268 -8.813768943717776 35.6791628388755 36.87801612890343
3865 6 -0.006759565470852292 -0.0002559096811793845 0.02547408321143473 1.175224658444227 -0.2092347579555034 -0.1784180104634283 63.67589645482645 63.67649017884209
3866 6 -0.006233780835878824 0.001277171439487395 0.02077366265339452 1.176841776064936 0.1026472816004252 -0.1448222702722737 62.97906153163068 62.97931169327997
3867 6 -0.006079121185385773 0.0006989883788702028 0.01449808370271488 1.178949063831225 -0.03045617630887923 0.04908834907828987 61.06029481289168 61.0603221403387
3868 6 -0.003556690681930045 0.000413359827514628 0.005440407036061278 1.18189314215282 -2.583952248261977 -0.6731941694940738 55.2492844192549 55.31377250243253
3869 6 -0.006432061944610976 -0.0001638500464212465 0.005341761704827939 1.181902914795335 2.12091703694601 -1.232398970173157 52.5778940437941 52.63508372159895
3870 6 -0.005772507645035331 -0.001624333691821998 0.008034736333616932 1.181062574607388 -0.2650411135948889 0.05369894108651332 59.40840200232159 59.40901748756342
3871 6 -0.006144704228726339 -0.0004180789284027991 0.007346612221705413 1.181282323422481 0.2788878376102228 0.00472367871231695 58.91002096828834 58.91068129994152
3872 6 -0.006089204817032364 -0.0009690050887996023 0.005392992553615484 1.181888320310827 0.7455183841009846 2.501697227832681 52.69506353921167 52.75968165258708
3873 6 -0.003363615602304189 0.0007057870482087607 0.006190407036061279 1.18166529316865 -2.232948000242717 0.77649314944408 58.32858304469325 58.37647298685146
3874 6 -0.006506953155366741 -0.001043450468619466 0.009054795529264316 1.180732766495708 -0.2086135980696469 0.08665901720619816 59.5578129142236 59.55824131507093
3875 6 -0.006635465777750865 0.0006886307445636198 0.006445447549939655 1.181572311368101 0.03544676207084779 -0.7750169405544873 58.54896455372249 58.55410453626749
3876 6 -0.005513152669522738 -0.001765766688699953 0.03144261689272604 1.173098914467352 -8.612229432976481 -6.816594027842843 77.07623518040378 77.85488089729226
3877 6 -0.006775593922635023 6.55989231421502e-07 0.006174394737789936 1.181655412047707 0.02958191061279793 -0.7957067117912443 58.54461263177521 58.55002726271986
3878 6 -0.006851947539871332 -0.0003238155638544864 0.009038284970152769 1.180737947563667 -0.07100636332348226 -0.169603000622593 59.53267272838167 59.53295666491
3879 6 -0.003276188511039463 0.0003878943127225618 0.02287673508875267 1.176123579593472 -0.01666778378891519 -0.1545773928686473 63.20696644255796 63.20715765525333
3880 6 -0.006415872190015943 -0.0001460518728012592 0.03245916707682178 1.172761713437944 -15.50841807376753 19.95726536900972 46.95437724042832 53.3246379659186
3881 6 -0.006480776415373035 -0.001004626899573928 0.02299447741894977 1.176081496041569 -0.1035245985459912 0.0107662659394778 63.2943747568233 63.29446033510498
3882 6 -0.003256336892676479 0.0003793300726341336 0.03117738686194739 1.173259239684616 -0.5197980724648557 0.6015939499270416 62.02282416245609 62.02791970075793
3883 6 -0.004447273791478475 0.001635356046526596 0.01521031204421142 1.178712786872843 -0.1310159865249532 0.1558342354293346 61.22431874724855 61.22465725148935
3884 6 -0.006741753663929322 0.0001270321699902137 0.03160427262100932 1.173004092439118 -10.78966071296883 9.345095635934324 81.97098142159041 83.20450339954239
3885 6 -0.00395518706441658 -0.001439317410412302 0.02604771266532945 1.17502740484353 -0.01656025255406798 -0.07152286648490651 63.68080281677213 63.68084513533883
3886 6 -0.006308377405057142 -0.001340542914407886 0.01588012949991023 1.178490596707355 0.07849305369950728 -0.00504097141525902 61.3618602590433 61.36191066957767
3887 6 -0.005179964488002816 -0.00177104890875339 0.008387053420326867 1.180949304433092 0.08330945289957405 0.02019919012217791 59.61270584011908 59.61276747520443
3888 6 -0.006207132671645948 -0.001324111214654822 0.02218184506810874 1.176360488554608 0.02994958435797033 -0.1933473260549365 62.88988557593288 62.89018991798344
3889 6 -0.003276053536161504 0.0004024215465526797 0.02888229480111035 1.174044368455752 -0.404507794632004 0.1407709041098694 63.17464776522322 63.17609962053201
3890 6 -0.00558703197058027 0.00167261350693931 0.02299576086401822 1.176081581429714 -0.2486634044642955 0.0273787370917825 62.99420937212778 62.99470610696931
3891 6 -0.004973501225596771 0.001751785624388305 0.006116775017794318 1.181683781659618 -1.785078339523011 -1.003463915429614 59.12784295754491 59.1632931581728
3892 6 -0.00433394405965201 -0.001668211380697744 0.02282401342572168 1.17614060883535 -0.07681065899797425 -0.1217287181290101 63.08867745956984 63.08884165489005
3893 6 -0.003544558657840548 0.0004183850764315369 0.03257209895881903 1.172881331049272 2.770522758313163 8.910917855379198 31.45419506138105 32.80924626289142
3894 6 -0.005178264977294549 0.001730828594677953 0.0100582854347531 1.180409542155145 0.3791604610260423 -0.0332691588371597 59.96794437639799 59.96915225532957
3895 6 -0.004985080620066066 -0.001814884621416918 0.006204694739365442 1.181652567398477 -0.3344678310643686 0.7369346500051334 59.75729789684598 59.76277765750843
3896 6 -0.004260356085229903 0.001615019294370202 0.01116471148547096 1.180047164963831 -0.2464442325464091 0.1263460606035633 60.49543912297218 60.49607303592538
3897 6 -0.006196986139746705 -0.001312769566281456 0.0199603819315355 1.177117808340249 -0.02307316029829577 -0.09470852078053979 62.39784201713555 62.39791815814083
3898 6 -0.006236759786414942 -0.001306165361316168 0.006206029618360314 1.181646792452093 -0.8388913818950192 1.198240414481063 59.02128762018916 59.0394098140099
3899 6 -0.006079383859144106 0.0007020988714905314 0.01648098954653157 1.178288754686364 0.02681561819155244 0.100101982663864 61.52037549346295 61.52046277736367
3900 6 -0.005087420185967462 -0.001778955287722233 0.02876971685860011 1.174072706128837 -0.7877031328706702 -0.4772367579972926 64.78386247325886 64.79040876628913
3901 6 -0.006077624627424575 -0.000962653725848997 0.03245916707682178 1.172782101246507 -1.747416677139456 -18.54770258262685 47.93959010577704 51.43223731908854
3902 6 -0.004687076433155475 2.280768001964984e-05 0.004585119132932919 1.182127482458892 -4.571635865808482 0.1974884839173832 54.54175015364201 54.73336611257464
3903 6 -0.005111464354485004 -0.001794049883624099 0.02286972673552171 1.176124652007994 -0.005364395952043203 -0.1095437286089685 63.08810451786015 63.0881998495889
3904 6 -0.004310562175823361 -0.001635989115044623 0.0287727636273073 1.174075844437943 -1.015258937415622 -0.5191956797816485 64.78169309282458 64.79172844458483
3905 6 -0.005248803238082199 -0.0002098671809295024 0.004585119132932919 1.182117333908451 -2.600057394361991 1.014125074337462 54.56379375867866 54.63512000041728
3906 6 -0.006620916503763385 -0.0006831347792554345 0.006627136574417757 1.181510741095171 -0.06868482582523511 -0.09777503336920439 58.06887868719227 58.06900162350221
3907 6 -0.00709499989643821 0.0007160276008934721 0.02415059458916203 1.175682840986497 -0.4391264578793892 0.03430791264064041 63.4037412793004 63.40527121061261
3908 6 -0.004336542928256436 0.001629162817106151 0.009810536640557466 1.180488589268704 0.3078563224709037 -0.01461002006201586 59.99414367175397 59.99493531853359
3909 6 -0.004953696148843465 -0.001805888017433123 0.03198134363389461 1.17291980227753 -16.14616494504558 -5.381523933689485 69.90447626162714 71.94647485244766
3910 6 -0.005369156092958419 0.001132305626936401 0.01425210554438108 1.179030791951019 -0.08019937605750833 0.0189719027021502 61.05106777642257 61.05112340091994
3911 6 -0.006117504491650092 -0.001380809035965524 0.03158703360702746 1.173035303965565 -4.375403265041941 -9.074798263803707 76.13367903263459 76.7973515188167
3912 6 -0.006329669623784395 0.001178763540236007 0.01090707144732253 1.1801316535163 0.03969494652242671 -0.007943314148229828 60.82439348516462 60.82440695660875
3913 6 -0.004321127994619857 0.001636527054239684 0.01720295895412823 1.178047434606976 -0.07597783471870756 0.07192663736786976 61.63843222681113 61.63852101934082
3914 6 -0.004269010900103886 0.001576644968762141 0.006515231071324434 1.181559587299832 -0.8765632795049175 -1.177154553738501 59.66087778828258 59.67892755818216
3915 6 -0.004240010750032251 0.001584115538799565 0.03151033824562441 1.17313427034758 -1.287544642527948 1.548136292192169 62.35206057721054 62.38456504144143
3916 6 -0.006236456927903295 0.001263815915878038 0.0228383877582749 1.176135267344308 -0.0357784322773362 0.1503204232534497 63.00302844235564 63.00321792761174
3917 6 -0.004578332470957649 0.001678260906427262 0.008408041860184061 1.180944754855683 0.1517608105465361 -0.3328002420175228 60.15989846620732 60.16101038720242
3918 6 -0.006533638057039715 0.0009053115531739433 0.01782341435087851 1.177838369268092 -0.009368595660094615 0.2251470602393575 61.82336767643094 61.82377835286748
3919 6 -0.006763582390566111 0.0001789519687769571 0.02209715131608957 1.176389696274856 -0.07248464852481334 0.1128276395173063 62.86423518977619 62.86437822881894
3920 6 -0.004139332466637888 0.00146050048780276 0.007903979607875177 1.181109918203032 -0.2138867832450707 0.03114384754629537 60.71575813581315 60.71614285757823
3921 6 -0.005649307096426416 0.001621552548846954 0.006394552112884253 1.181591559434584 0.04037152192827504 -0.6923949014961015 58.0952917668769 58.09943171871783
3922 6 -0.006255639199935334 0.001876175302902838 0.01915187685839741 1.177390551898592 0.04649907580475351 0.1826927660471714 61.80024834744206 61.80053587644958
3923 6 -0.005236671213992699 -0.000204841932012595 0.03342738686194738 1.172616043866463 -5.420431674797068 -9.230805720803883 47.51513191579374 48.70602236655802
3924 6 -0.003946210421221 0.001425794206537143 0.01787225567860027 1.177822800240004 0.03693370617999859 0.01128844867569086 61.848598915501 61.84861097339404
3925 6 -0.005643334967480088 -0.001690159942325381 0.006627565320627624 1.181514707874951 -0.03439070425388622 0.6645047298596929 59.55299011316776 59.55670726858229
3926 6 -0.003422901020592844 0.0008091224770088667 0.01787613554678347 1.177821641319479 -0.02613145679289269 0.08460836769339382 61.84830950976296 61.84837290215768
3927 6 -0.003423286810703346 0.0007993435474422395 0.01014856731531246 1.180379128182821 -0.1420420701617746 0.2058326368165054 59.67606785529189 59.67659187397917
3928 6 -0.00675709121187296 -0.0002494947434369099 0.02292252406317176 1.176106270455772 -0.07779918327737816 -0.06306974850287166 63.29539068676223 63.2954699223883
3929 6 -0.006368708360545173 -0.001233579003513817 0.008343652411085393 1.180962275315733 -0.1764408486331998 0.01821266409375557 59.36403797378174 59.36430297431951
3930 6 -0.004674944409065977 2.783292893655726e-05 0.03342738686194738 1.172668941959042 -19.07655050744319 -14.88767046994604 47.3376394999316 53.1639880436957
3931 6 -0.006767119499798999 0.000179389165465984 0.01993329729884885 1.177126939035267 -0.08106915676728232 0.06720653668416646 62.29211715521065 62.29220616261108
3932 6 -0.005096586977297781 0.001729993321583417 0.01141414921101589 1.179964383626622 -0.1196567056572805 0.09254847041520972 60.50599009730459 60.50617919354771
3933 6 -0.006496865602063579 0.0009383054194374329 0.02201588616764626 1.1764172350925 -0.08723496448917561 0.07521709074409084 62.8663873294901 62.86649285121003
3934 6 -0.004269395205224393 -0.001641891451672672 0.006546950154755015 1.181543712413032 -0.870756156115822 0.6174115493604075 59.47088154471302 59.48046036313089
3935 6 -0.005143505059937369 0.001751312544933112 0.01743251720666218 1.177969714744828 -0.2525610334082291 0.1004168963575115 61.63506749886074 61.63566675406205
3936 6 -0.003756298756872218 -0.001348738058964406 0.006084508775761145 1.181697507353427 -2.015224984232783 -0.2793091491194922 60.68654855978922 60.72064164217562
3937 6 -0.005383895206531567 0.001128990417952448 0.01632345820833777 1.178341455672018 -0.1139141500328568 0.03364278454602024 61.56145195604348 61.56156654282588
3938 6 -0.003935501779445095 0.001389784910494102 0.02193080968863576 1.176446807812102 -0.08751762258076286 0.07891912723473102 62.69374109603883 62.6938518531128
3939 6 -0.006302907371544223 0.001206552162143941 0.01312555091593621 1.179402237737277 0.04056770352693538 0.2218846440839223 60.49617419250671 60.49659470138766
3940 6 -0.004239519003615917 -0.001634665229846113 0.03164286971079917 1.173079911619334 -2.787291243295583 -3.480065270828982 61.93971792571322 62.09998795073233
3941 6 -0.003937965536514702 0.001426059033427513 0.0138825640644038 1.17915352352374 0.02781824269977742 0.02790602035817958 60.90959120689674 60.90960395201952
3942 6 -0.006523773452603016 0.0009141919620723831 0.02616908136788889 1.174982894789743 -0.3221012700191552 -0.04404341466262351 64.25282813827722 64.25365057969479
3943 6 -0.003362196250351082 -0.0007679529459448156 0.006194342292278498 1.181666028500161 -1.857307649870515 -0.0517615601961529 60.74762664275624 60.77603486320154
3944 6 -0.003426053536161657 0.0008086234667846569 0.02813229480111035 1.174303527748841 -0.2974814365788366 -0.1243382400353382 63.68513507186709 63.68595123200249
3945 6 -0.00374560167492187 0.001291603607952443 0.03193929166603897 1.173005126638212 -5.376889695425707 4.222616464543508 58.35469447106563 58.75382370037568
3946 6 -0.003736708806314692 -0.001341732792583781 0.03198869223019295 1.172982175792316 -5.148597076588305 -5.340131106379696 59.83762632083562 60.29565967631782
3947 6 -0.005569591046558178 0.0016210339146955 0.01080366090798916 1.180165460452816 0.09664493467348029 0.03165784652403229 60.8243727029599 60.82445772196591
3948 6 -0.006508904166134576 0.0009365805602152077 0.02004460038643848 1.177089656919595 -0.170651971242272 -0.1952611004308834 62.29478623930189 62.29532600117722
3949 6 -0.003422007644923968 0.0008088852773378868 0.02600571174052153 1.175042597427987 -0.00700270002675159 -0.02202540140912496 63.6362238154643 63.63622801241429
3950 6 -0.003407590685751101 0.0007909241080891434 0.02000328603280618 1.177103227660783 0.08906500974322949 0.01589393890769181 62.35646479507724 62.35653042731742
3951 6 -0.004914233059345424 -0.002010258379715615 0.004801692560387203 1.18209899092277 -0.1832246940968195 10.66374685005677 61.54946618010873 62.46667795894841
3952 6 -0.006587378294762954 -0.001037688634060434 0.01513417654064973 1.178738624619702 -0.07358991572396301 0.1186895212832069 61.05887020841639 61.05902991209734
3953 6 -0.00677080348933954 0.0001583447899894426 0.0262024219708909 1.174970973747946 -0.2690939865428981 0.118691342442827 64.25390262094515 64.25457572212478
3954 6 -0.006319951398027854 0.001429839513374321 0.03323001218229391 1.17234683786513 -78.28785630601186 47.77384415434682 114.0418555211685 146.3450492534191
3955 6 -0.006730768079020963 -0.0006202048476432594 0.007888292212286275 1.181109027269998 -0.07672752245159911 -0.1593409307010857 59.54543612554591 59.54569875336393
3956 6 -0.003351483578215867 -0.0007645559923225958 0.0318220989588187 1.173047201248568 -0.06491111738218316 1.732106063049617 57.79557863801042 57.82156444588177
3957 6 -0.006291711215027277 0.001224861552007385 0.0170790346215451 1.178087933601672 0.02955211321819575 0.2708083961060042 61.73312996991002 61.73373102604928
3958 6 -0.005805051470124393 0.001655224061851103 0.008979370150186353 1.180758939701322 -0.1637746626611453 -0.01642445580373358 59.08984804097599 59.09007728382586
3959 6 -0.005594912670862631 0.001649989514455883 0.01297783933772074 1.179450554041789 -0.1285912425894793 0.1086903862906327 60.50324709687015 60.5034813756421
3960 6 -0.005059892209432239 0.00195174591955054 0.004741167007307681 1.182111495724132 -1.922602829636656 -9.373905458259646 59.97272907384403 60.7313324219518
3961 6 -0.00554541484259184 0.001689102356118051 0.02085806538803126 1.176812730712753 0.1258629174547888 -0.1305563454142794 62.97684888975697 62.97710998860301
3962 6 -0.00590160852831084 0.001596592612379597 0.00768778039790749 1.18117736199795 -0.6442244926686271 -0.2899625127881831 59.97979354499593 59.98395399734926
3963 6 -0.006883087878887908 -0.0003090986865931222 0.01513288155453522 1.178738637658896 -0.03461323587830296 0.04661943195072415 61.06045425992838 61.06048186737752
3964 6 -0.006904978355281853 0.0001293488120988989 0.01586389056160132 1.178495172354533 -0.05002051447171835 0.2343042037332902 61.36025166251133 61.36071939440149
3965 6 -0.005622392537713308 0.001665806367562942 0.02882508637815558 1.174050625403986 -1.751574226520382 -0.07137249290665479 66.28093336282762 66.30411174091205
3966 6 -0.00653522326232138 0.00101728304939542 0.007729924553315771 1.181161464763723 -0.2639303037513742 -0.07118025536120214 59.90030515950625 59.9009289079557
3967 6 -0.005273300694584046 0.001746266409359318 0.01544541825271733 1.17863406019676 -0.05967422612304776 0.1283393879693935 61.2217807211908 61.22194432297407
3968 6 -0.005069703048673893 0.001954511940731319 0.03325873096641839 1.172602016743944 -8.325558913603118 12.52138845881175 41.94807150442036 44.56165170974146
3969 6 -0.00398442457101574 0.001430061783115075 0.02791480365204368 1.174378399851854 -0.3470536040433368 -0.06521416958912335 63.68993566381205 63.69091461073952
3970 6 -0.003979806362855281 0.001430261964773395 0.0258634047797008 1.175091791085254 -0.0661289370042238 0.04767101798118457 63.63801655343784 63.63806876719228
3971 6 -0.005159074651453571 0.001759033927129361 0.02225766200802631 1.176334503825723 0.009277076769487816 0.09759127557357501 62.75432116963028 62.75439773898184
3972 6 -0.003891638105452188 0.001404394109910482 0.01030647438824859 1.180327288903585 -0.03734985898973873 0.08054630158248374 59.67093502783738 59.67100107937737
3973 6 -0.003351483578214688 0.0007108122971256659 0.03182209895881903 1.17305042545214 0.310921921807879 -2.625560061895846 56.27007862903441 56.33215766325481
3974 6 -0.006323045365708808 0.001418993284531384 0.004711839174586896 1.182112852839376 5.876261990093857 -6.130038982190012 59.706046239644 60.30688012548732
3975 6 -0.004366244236591252 0.001627082683857822 0.02254911380323095 1.176235300716266 -0.1347596179421645 0.1153126263047091 62.7396491525423 62.73989984802745
3976 6 -0.005719507564360154 0.001649738088192978 0.0148566404060821 1.178829722765562 -0.103427194237759 0.1189791702452981 61.18830532106191 61.18850840877683
3977 6 -0.005596222562414737 0.001651753098469302 0.0169215032833513 1.178140634587326 -0.175765828498392 0.1335788329460595 61.73856241315782 61.73895711602571
3978 6 -0.005209857102481558 0.001766693328162959 0.02821063116056425 1.174271169505103 -0.544383861902382 0.2458227032845036 64.19204889116131 64.19482785579999
3979 6 -0.004905355780923112 -0.00200665006695721 0.0332550671944697 1.172445543519164 -18.91137913864048 -54.93700891411611 87.02711184473416 104.6395403534962
3980 6 -0.005424932437376867 -0.001548373428107513 0.004411526076904555 1.182202659257977 0.1675067991254465 10.58179096736555 61.76829954473242 62.66837469770988
3981 6 -0.006447319994410059 0.001183128346130407 0.008996790570527038 1.180752729848466 -0.1697980349952433 -0.0198939676937243 59.08973799402291 59.08998530499829
3982 6 -0.005424932437376868 -0.001548373428107513 0.03358847392309545 1.172371452989928 -18.6581587310031 -54.99309772000944 86.86825085216719 104.4914383583117
3983 6 -0.005201143292464468 0.001770695253659945 0.02618345437411019 1.174979475150607 -0.1113844849746146 0.1066378727195788 63.8518156490357 63.85200184659703
3984 6 -0.00636874735978126 0.0007301973579313171 0.03358847392309545 1.172279596608575 -80.00646098213939 45.42912354439724 115.7565197088356 147.8661926202225
3985 6 -0.004391306715817249 0.001645136739809302 0.02843577265861909 1.174195416185946 -0.7429741612564866 0.2687680624578794 64.18852094512454 64.193383366188
3986 6 -0.00542897980702914 0.001773363318957692 0.008274442494288646 1.180987915968671 -0.483255776916005 -0.1964089342810312 60.19760869518534 60.19986881409329
3987 6 -0.004548476963565209 0.001484178043230243 0.004389623060837794 1.182215150348516 -5.953440066774751 -8.761079906647881 62.52721636965841 63.41807909971278
3988 6 -0.004391290651710513 0.001649167404994999 0.02640064748607259 1.174904750959501 -0.2390725516769372 0.1204266004478969 63.84758099998097 63.84814216404571
3989 6 -0.002938310682824448 -0.0002178496118172777 0.004855441667051451 1.182104139033552 -14.41053358208333 2.139183715020326 64.01362388183551 65.65046555487677
3990 6 -0.00430575225891569 0.001635592700202455 0.01323846890088195 1.179365810095912 -0.1653711490103958 0.1360343713964592 60.54579726730577 60.54617592962264
3991 6 -0.005127663179405055 0.001750718715658068 0.01347842520111079 1.179286271142638 -0.09238870569145727 0.1228445475179959 60.54081391220853 60.54100904022378
3992 6 -0.004556772205500575 0.001487544646237467 0.03361719270721994 1.172587673579968 -14.69914130172338 13.49159422946383 37.99134684448205 42.91189001801561
3993 6 -0.006704863065325346 0.0007219580402528196 0.00833400707003761 1.180965808881587 -0.0341235552718632 0.0596621335259254 59.47607954383318 59.47611925715709
3994 6 -0.00521824234189908 0.001775879369060444 0.02025212129848534 1.177018648960367 0.4167948506636392 0.1628808722355318 62.29068697257556 62.29229431993554
3995 6 -0.006429472656787508 0.00121642084012678 0.01510261856441591 1.178747994645767 -0.02941959245579349 0.1496374642001144 61.18500370107974 61.18519375456985
3996 6 -0.004036956196156079 0.00175814114559881 0.004389623060837794 1.182253425765801 -10.70535679157299 -11.3817921605917 65.12620227362302 66.97441361749011
3997 6 -0.003652322352178956 -0.000886839908935343 0.004355441667051449 1.182242809406786 -12.96721121885705 4.825310662063688 66.3792000936039 67.80582862001305
3998 6 -0.006678754439623938 0.0008860576148312022 0.01584892774924494 1.178499631091311 -0.1140156370501942 0.0754628664717607 61.36355762445732 61.36370994765393
3999 6 -0.005960920768022362 -0.00176326660747263 0.004411526076904555 1.182218340436628 1.726001474927898 11.44355800810314 62.57529772601686 63.63648314038046
4000 6 -0.006909679753691233 -1.22777905796034e-05 0.008346737820191014 1.180961481494798 -0.07364027169918655 -0.1652888446279646 59.53186668208799 59.53214168787876
4001 6 -0.003703349779074236 -0.001581399721492598 0.004745608150534098 1.182128992521137 -9.948526325751979 9.709838443017444 64.11111920788689 65.60098890056126
4002 6 -0.006373356924768503 0.0007187505472619352 0.004360295228117009 1.182206358913318 6.322648033650479 -5.524440632748652 60.24449835236357 60.82676141461195
4003 6 -0.006537677638507978 -0.001379049730526625 0.004807873420682565 1.182079266378558 6.818856626428888 8.885922599071691 59.21693269463198 60.26691915046811
4004 6 -0.007059535297339461 -0.000119180025203595 0.0330317802148744 1.172322533377748 -148.0114049778436 -3.072326104485848 122.7374425367136 192.3052131161831
4005 6 -0.006538229472989688 -0.001377723616492927 0.0330317802148744 1.172375774958816 -100.3211491428536 -88.06845111659682 115.6595377309759 176.6281792794177
4006 6 -0.003507102881694289 0.00146462337009034 0.004744910963966151 1.182136159054477 -8.529678326021074 -12.44102334630898 66.62015690209232 68.30651345156036
4007 6 -0.003652233434519113 -0.0008866978220727947 0.03364471209687132 1.172574107625834 -6.108790486708847 -22.03407507141006 45.85012269188542 51.23525677035283
4008 6 -0.002938221765164605 -0.0002177075249547294 0.03314471209687132 1.172694442915774 37.07831668843199 -8.42508975158351 58.93425945608006 70.13580143839845
4009 6 -0.002938221765164064 0.0004452569240291951 0.004855287903128358 1.18210079775962 -15.28469352243026 -0.4968782040839589 64.01344294952715 65.81481309155775
4010 6 -0.003121368944582856 -0.0006597913500588706 0.004355441667051449 1.182275200124505 -13.58039202069049 4.648981654369359 66.58720360487152 68.11678032449062
4011 6 -0.006924168330613722 0.0005622187220582969 0.03358847392309545 1.171981797576592 -136.9379606732584 28.95276438805818 142.5892869626631 199.8048357662595
4012 6 -0.006928777895600965 0.0005507719113889149 0.004360295228117009 1.182226655368382 10.06454720982343 -4.442780731602544 62.34359297489648 63.30684794070406
4013 6 -0.005960920768022362 -0.00176326660747263 0.03358847392309545 1.172121578364999 -88.8559019834295 -93.79303438328319 123.1637683361751 178.4987911636367
4014 6 -0.007063593027844994 -0.0001319529499066748 0.004756642571895019 1.182094001073059 11.3944233075189 -0.5780271898980821 59.73540954706422 60.81518027350311
4015 6 -0.004045251438091445 0.001761507748606034 0.03361719270721994 1.172431366726461 80.43194550277013 65.95056344714754 89.30289189398675 137.0904124181772
4016 6 -0.003694383582992082 -0.001577649321871644 0.03331130536824557 1.172595300062491 -0.03872310240812715 -12.20733316052126 50.40821321844932 51.86529130591354
4017 6 -0.002938221765164065 0.0004452569240291966 0.03314471209687164 1.1726974603135 42.64343241598438 8.355594643671967 58.93441109240913 73.22255868839235
4018 6 -0.003515398123629655 0.001467989973097566 0.03326190480409158 1.172538344353623 52.68068441279586 79.49189153820633 109.525120974154 145.2238529130997
4019 6 -0.006924052327761503 -0.0008002989086733695 0.03344330629177895 1.172036985173776 -165.900547175409 -55.11307864152882 143.5571212852089 226.2058577096172
4020 6 -0.004233114175875648 -0.001874775410137656 0.004390166483482649 1.182246356215954 -8.191094572359869 12.55754509846149 66.0816601251626 67.76113763869924
4021 6 -0.0057425266902083 0.001815662368146136 0.03364153825919846 1.17229814535841 -94.56239201462596 25.64756328528886 95.891733824337 137.0951060462706
4022 6 -0.005741011092902011 0.001816262949972581 0.004351543946469886 1.182235028474026 2.944737017670781 -10.11594175532868 63.06453039017189 63.93855446468395
4023 6 -0.003121280026923013 -0.0006596492631963223 0.03364471209687132 1.172546688552824 36.64271957484331 -9.723436777039655 60.25457984489296 71.18882294912785
4024 6 -0.003121280026922471 0.0008871986622707867 0.004355287903128357 1.182275605399533 -17.75658976214519 -7.943867196376857 70.30947937138576 72.95083546807474
4025 6 -0.006923500493279793 -0.0008016250227070674 0.004396347343778011 1.18221239925848 13.5006739195247 5.533595365678908 63.19803840473774 64.86047280246348
4026 6 -0.004224236897453337 -0.00187116709737925 0.03366659327137425 1.172375228793904 -25.47386929266843 -53.38255393259796 82.52405290622872 101.5324302337767
4027 6 -0.003121280026922472 0.0008871986622707882 0.03364471209687164 1.172422723069246 64.33685261399731 73.79788144222017 114.1676194470696 150.3981490572477
4028 6 -0.005235794954767642 0.001761778644414175 0.01882964053463437 1.177499051714241 -0.2800913019409341 0.1289735775808975 62.13099263263675 62.1317578283272
4029 6 -0.005243808134671527 0.001134469336637731 0.01835509996394036 1.177659417602763 -0.2525592917606372 0.02432537514662932 62.01774814190109 62.01826716792406
4030 6 -0.004506710180235447 -0.0009977540295775644 0.009549129528307635 1.180574159844879 -0.3157909101177642 0.002798589611930525 59.75114053680419 59.7519750902005
4031 6 -0.004336400990573483 -0.001595569193671654 0.009063584103705745 1.180731363473098 -0.4077160848015041 -0.195164624216399 59.50954823941964 59.51126492771066
4032 6 -0.004417821793088181 0.00164848362586737 0.0199099647479387 1.177134167060026 -0.04542088924143702 0.191995568871866 62.38812884675174 62.38844080720837
4033 6 -0.003934533916537732 0.001408184077641224 0.02030736063268926 1.176999702745586 -0.06362460838459558 0.2029479672506025 62.36443437327087 62.36479704662088
4034 7 -0.00272508586074531 0.008037695418603576 0.003484917943321196 1.182868399951307 -8.338592124325364 -5.326969606865604 -1.781713317981737 10.0540154244861
4035 7 -0.00512592315996989 0.009507127659329243 0.002496207653318465 1.182820332222599 -4.764255844657389 -3.854124085171741 -0.3577243094725026 6.138434075465874
4036 7 -0.004124857290496367 0.0046092299814836 0.001492836561657155 1.182691058299108 -4.138984301929514 -9.223935585898408 1.593185110093155 10.23476514334572
4037 7 -0.003619933916601713 -0.0103984999065622 0.002990698658345314 1.182873134221432 -5.372101772183255 2.678492471233605 -0.5092251045411501 6.024376281097034
4038 7 0.0009805089471604804 -0.009123052630958833 0.002168033156667885 1.182959304206267 -0.8236358239460472 2.030935885214654 -2.393849591086735 3.245549630661352
4039 7 0.006347018257046353 0.005942918574292846 0.002474283220561127 1.182961153981102 -0.8477181446422095 -1.319352764178528 -0.1180448143131672 1.572657733674871
4040 7 -0.01061706161697337 0.002033860209846353 0.002492566308135963 1.182594802130754 1.416827173129568 -1.018983332051481 0.2099188789681465 1.757780476983489
4041 7 0.006692266172102999 0.005391039171282331 0.002982891823462889 1.182960156255794 -1.076607910287404 -0.9173755753245141 -0.3540268852571131 1.458080098684653
4042 7 -0.005862017716136124 0.008954073134970167 0.002506859786058171 1.182791201852499 -4.347306208197381 -3.534381873053399 -0.3098240100042801 5.611320469334742
4043 7 -0.004268390581737557 -0.009907940997715227 0.002504850669819376 1.182845947604415 -5.337147616439621 2.651923995835562 -0.5011757807617736 5.980720919970916
4044 7 -0.003268378543150364 0.004178075259851066 0.001465762248507492 1.182700825840403 -9.015051964470732 -8.539912253482525 1.74495478801162 12.53978191323491
4045 7 -0.0041646599424788 0.00449492306217467 0.002492836561657155 1.18267559543161 -4.139957452664616 -9.224503781485691 1.679814775786589 10.24951195937973
4046 7 -0.0002712526750480641 0.00979004628349809 0.003503163597645245 1.18304771872876 -9.48012825335185 7.203951280647997 -9.582778065258358 15.28395829626431
4047 7 -0.005126997758123079 0.009518139654232453 0.001496207653318466 1.182819776163427 -4.750503308935618 -3.851539206691559 0.0721331704145193 6.116113074752996
4048 7 -0.003308181195132797 0.004063768340542136 0.002465762248507492 1.182685362972904 -9.043548195234825 -8.531441559002541 1.294013467992959 12.49982919441533
4049 7 -0.01020288933680947 0.001569403690060147 0.00299988260744966 1.182586622951199 2.274167827441645 -1.683778224163733 1.364126104668477 3.141303621902317
4050 7 -0.006022741954379844 -0.00790632729471589 0.003076135308689473 1.182760788979751 -3.747907321091197 4.951376615328558 -0.275884030593175 6.216031826868956
4051 7 -0.00242714920474823 -0.01047885814081896 0.002577553932684781 1.182905626756596 -6.470074144938313 2.158761863593269 -1.186421338327426 6.923128470333522
4052 7 0.00116967404704136 0.007377846433668228 0.00350984695714963 1.18297760222958 0.1388574468951088 -13.29462980818001 -3.855647721672918 13.84313846209551
4053 7 -0.00159363939396824 -0.007644869235228215 0.003523877556210437 1.182915140055891 -12.74283367989764 8.233726462966194 -2.325318407203229 15.3486536007352
4054 7 -0.002247815825066403 0.00850140442930798 0.002971695103880042 1.182892905026721 -6.72911936109642 -3.763511190103304 -2.112555583676182 7.994245114332991
4055 7 -0.01034511073828424 0.00317651587262296 0.002499669127452817 1.182609364697501 0.739871001700562 -4.383455342799605 0.3519860752344087 4.459370363474503
4056 7 -0.005863092314289313 0.008965085129873379 0.001506859786058171 1.182790645793327 -4.345446553123089 -3.539313653674117 0.03241364589916489 5.604524737172086
4057 7 0.007221361354352125 0.005862995557997382 0.003509392708264721 1.182966012596153 -0.8327753834987244 -0.7604384690774201 -0.01380089606801254 1.127817347510907
4058 7 -0.004608366303528648 0.008951325331537216 0.002985446217131314 1.182823719299218 -5.094249743552586 -3.763145455440176 -0.6881217244177696 6.370726463763872
4059 7 -0.0009133248915411146 -0.007121119706145584 0.003523877556210437 1.182919927900074 -6.176870511911974 12.67932546546485 -2.398070335019062 14.30628410565831
4060 7 -0.002407227996840805 0.001293550863467778 0.002458747039403487 1.1826033687013 -9.687691897164497 -2.797432879623482 15.47234812786344 18.46809577623488
4061 7 -0.005127898311947349 0.008504922465241815 0.003496703183449469 1.182801182196682 -5.481913115438513 -4.312003318201195 -0.5187806389387634 6.99384567836127
4062 7 -0.00782979359145965 0.004312277471058799 0.002515958514675534 1.182622849975796 0.2716337749439314 -7.332537373088798 0.9920137774361628 7.40432174949586
4063 7 -0.003239589947104754 0.003482282564218051 0.0009625905740926785 1.182674603464877 -8.98757512390541 -8.613306508707948 1.645638932100654 12.55681819234632
4064 7 -0.008154321884612846 0.003446982295368913 0.00252808262617852 1.182598050289526 2.100853432679542 -4.04933339481973 1.261622042321126 4.733114858702905
4065 7 -0.006297456019971103 -0.007376097268908015 0.003561983297215411 1.182741169611462 -3.816446822303057 5.211972289266005 0.00959546390182342 6.459877209705407
4066 7 0.006876113439295479 0.006414874961007897 0.003000784105362959 1.182967010321461 -0.789901942861609 -0.9629430570762905 0.01108990605594272 1.245522940986759
4067 7 -0.003140616083096164 0.0005361374025626463 0.001461361444167694 1.182602582539513 -9.386782984001183 -2.502403228138684 2.605643952434578 10.05798673253211
4068 7 -0.00564875644153562 0.008270992956286935 0.00299609834987102 1.182782585633815 -4.303161261295201 -4.253266708901407 0.3351933191881004 6.059688861566165
4069 7 -0.007148241157242056 -0.008337476715889068 0.002508053775127873 1.182750866011877 -3.750685795835557 3.972462012416027 -0.09617255956023298 5.464187729240583
4070 7 -0.005319465006176223 0.006894067706140971 0.00249125265367617 1.182748300844079 -4.15816808843817 -6.801872729659238 0.1180701444237263 7.973065598701154
4071 7 0.0009907736756431713 -0.008878599327015797 0.001677067658897123 1.182953427339751 -1.189260781926506 1.362423145584949 -0.9873000431114805 2.060412436912077
4072 7 0.0007767309283781207 -0.008428719041470776 0.001166936530402236 1.182945293604124 -1.254217259368376 1.804992230276525 -1.249717702211981 2.528409029464604
4073 7 -0.004096068694450757 0.003913437285850586 0.0009896648872423411 1.182664835923583 -1.102204586206457 -7.446537986384412 4.607453417645575 8.825780981210356
4074 7 0.007159655231939874 0.001654966475972941 0.002454085866850191 1.18295193128076 -1.552044267307887 -0.4531936629600135 0.03894465212014215 1.617325752518382
4075 7 0.003021643925059742 0.006736187923079799 0.002484483319020966 1.182944553854385 -0.8480216849248482 -2.708901176463215 -0.8091602197894818 2.951614240248263
4076 7 -0.002359896653616473 0.001155292038164753 0.001458747039403488 1.182653176130752 -10.10774843312878 -3.073957803039126 2.605755865038847 10.88144101626558
4077 7 -0.00718569229724635 0.00406585080002944 0.003006658418951685 1.18260838389242 0.7944163576306722 -7.067173379403075 1.482791063328495 7.264620173230085
4078 7 0.007064089596644829 0.004839745411192108 0.00248178044072624 1.182959839131867 -1.370543356751597 -0.4374101855254289 -0.1880324325388827 1.450886955907942
4079 7 -0.003377113365036994 0.003390741675583547 0.002962590574092678 1.182640282509741 -7.207255723521335 -12.15565974508559 5.322479717704233 15.10077445854676
4080 7 -0.00328682903334742 -0.01089142125292573 0.002498000263070507 1.182885437065328 -4.360906817639249 1.915887223598417 -1.199132866406891 4.911827740971515
4081 7 -0.01111092833928077 0.00175190191917421 0.002994880977093298 1.182594602630363 -0.3277938486707229 -2.162332168469904 1.265168787059007 2.526614587501323
4082 7 -0.003244319019595247 0.007974067189697535 0.002981621126770665 1.182845567379923 -6.053586807071276 -5.817821058766784 -0.07911353918223557 8.396381009378958
4083 7 0.005866757370042415 0.009135484273750541 0.002461082376743345 1.182975724507993 -0.321471990761471 -0.5025998310582087 -0.3297056016219683 0.681657256078733
4084 7 0.005038968648614329 -0.009756707712250215 0.002584311588419139 1.182972119625415 -0.4075516286243336 0.5626525449527461 -0.5496110619060969 0.8858603364558637
4085 7 0.000728867020070494 -0.009567615545685901 0.001480573822408441 1.182957288632019 -0.8655821692242056 2.042060980293428 -1.212438522873502 2.52769711608482
4086 7 -0.006528102051716134 -0.007471241336288045 0.002577392118831847 1.182741400008152 -2.680835351500847 5.041471620716088 0.6979167485751826 5.752425755477781
4087 7 -0.0009036993031144407 0.008978353088032423 0.00317150147797149 1.18300488187746 -17.1432036061556 -8.709562268770375 -6.343801401869012 20.24820290845709
4088 7 -0.003164849626805851 -0.009756931868991743 0.003498222009680793 1.182879313882049 -5.484544603564785 2.277682507034926 -0.9463926993942308 6.013628376680024
4089 7 -0.004576225368665299 0.003691516295109366 0.002989664887242342 1.182609952341714 -4.936989063935827 -9.693644878493563 3.954400162895296 11.57488197331069
4090 7 -0.002615807697151566 0.008957358653830173 0.002460438137561886 1.182884800525775 -6.105618489325084 -3.891831202529438 -1.652472866153405 7.426681211654591
4091 7 -0.005463401285387075 0.006122350154539933 0.00349515430380515 1.182715622490998 -3.379111214137884 -7.682088772122428 0.8469580082533098 8.435058883494904
4092 7 0.007316174854987333 0.001949979804491956 0.001454085866850191 1.182954084951013 -1.552417523427143 -0.4522291671765512 0.002883641511535966 1.616947649763971
4093 7 0.003888321900293934 0.006604273059534677 0.002466027758969575 1.182948502250906 -1.520916508496505 -2.411520870607488 -0.604845588921904 2.914525368157049
4094 7 -0.002243665437301275 0.008997928014445048 0.003486777160558845 1.18291202276278 -8.165067613600845 -5.158310044133132 -3.571774444761817 10.29728431822351
4095 7 -0.007823725602812213 0.004170374744659295 0.001515958514675534 1.182626035301462 0.293144071784125 -7.262202263973681 2.213176541754096 7.597609201232797
4096 7 -0.004315295499381699 -0.009264258046105025 0.003514152011474062 1.182837748732477 -6.22077525877265 3.042299290579985 0.2945267472519449 6.93111649003739
4097 7 -0.0007836070210205921 -0.008005886971027616 0.003479477196142793 1.18296302841723 -7.826777577305109 8.979076985564939 -6.792034090393858 13.71181964009082
4098 7 0.002371622381657105 0.008150435256651777 0.00350984695714963 1.182980230969396 3.640253190165276 -1.352641821684016 -4.257675255478214 5.762714791431951
4099 7 -0.003300776158902105 0.008527412436052878 0.00247036416045251 1.182854336042013 -5.685719853348282 -3.605715168172907 -1.641153481674189 6.929789093122698
4100 7 -0.008148253895965409 0.00330507956896941 0.00152808262617852 1.182601235615192 2.105884063066767 -4.044763664656844 1.092113689849862 4.689090860877441
4101 7 -0.003347964244187945 0.0003462291891617447 0.002461361444167694 1.182523263209064 -9.83771597260081 -2.942019897517262 21.23866475222659 23.59061290200881
4102 7 -0.007128480664757898 -0.00826778259477865 0.001508053775127873 1.182750182912184 -3.760296308068701 3.970174111516752 0.2471784077763177 5.473865906788708
4103 7 -0.003813306291941695 -0.009266372960144773 0.003012374021154854 1.182852127265033 -5.315800666601917 2.102538539029621 -0.9470035240615583 5.794412887405868
4104 7 0.005288585761637783 -0.009211331893785072 0.003076956543475807 1.182971620062613 -0.2296345699546769 0.9812079774591541 0.008657900070589577 1.007757952080451
4105 7 0.008422021440796035 0.002865820133709642 0.002465157123935096 1.182963168025136 -0.9649844882808409 -0.2602755803900602 0.1616029459187087 1.012449481455556
4106 7 -0.000594162974193549 0.009616178464996093 0.00298994075820409 1.183015289698882 -8.708013642466065 8.806526728763989 -8.330068064469391 14.92563059239048
4107 7 -0.004533523296369928 0.004274974828984691 0.00349515430380515 1.182635455363412 -6.468970601454532 -12.12447761633722 3.269861235805551 14.12595237897145
4108 7 -0.002043154407330471 0.0007019349807927705 0.002964236455966296 1.182566834738916 -7.461641451644756 -3.679705028364834 18.16519330616079 19.97975400496377
4109 7 0.001060154240278744 -0.009831472215100702 0.003490965497770762 1.183019855909537 6.285901061023288 -3.281921126311722 -7.882483620464479 10.60269335853847
4110 7 -0.004233592112382997 0.003821896397216081 0.002989664887242342 1.182630514968447 -9.282850319560355 -12.24309045142354 5.598812463400675 16.35271460209071
4111 7 0.0005903315950290477 -0.009607929806874436 0.003490965497770762 1.183047780799402 10.99535774467628 -5.549881947628645 -8.385993449632426 14.90046870750397
4112 7 0.004123923597932793 -0.01006709163089918 0.002583800456280979 1.182972997169795 0.3091863406018953 0.6407876899051623 -0.485081006021378 0.8611089589311551
4113 7 0.006558100398770638 0.005590664036571647 0.001474283220561127 1.18296023011369 -0.861536019692605 -1.333357582877021 0.3630280204518442 1.628458197399188
4114 7 0.004762441628239365 -0.009871949830683114 0.001073669327786093 1.182970200025527 -0.3120654838197423 0.5410053506403077 -0.05363031952097576 0.6268555390080031
4115 7 -0.004486428430173187 0.003603860607489853 0.0009896648872423411 1.182642717452693 -4.892505060360134 -9.666298254082371 2.496174583332435 11.11777024645681
4116 7 -0.00585926054791776 0.00662343806220695 0.002994549470226701 1.182727040496494 -3.675530344714981 -6.590147404449304 -0.2611379801663005 7.550348281501713
4117 7 -0.0007928039833271158 0.008711967265503367 0.003684724317412645 1.183027577448137 -14.735959806072 -3.710353175699325 -12.66537379376092 19.78198487084341
4118 7 -0.007483568538455101 -0.004826932683484893 0.002489100706455436 1.182649783769641 -0.9364558910683524 5.359200962294434 0.7934762517646496 5.497962272723294
4119 7 0.001838368674267205 -0.005556686001526091 0.003500184171939087 1.18290689189507 -3.347491338118652 3.877765152925976 -0.601486800904585 5.157959597717769
4120 7 0.007633104176259155 0.002267013265485336 0.002973785488389346 1.182956762252295 -1.342972178765528 -0.3883053371738472 0.2089603188865637 1.413513255220869
4121 7 -0.009611553948137683 0.003136534055409901 0.003006985426766513 1.182602328990092 1.752136709825204 -4.14285731818021 1.436996904945354 4.722098041500085
4122 7 0.005919449975457946 0.009021620704853153 0.001461082376743346 1.182974616849776 -0.3206541690361051 -0.5061439004701848 0.009769051695523091 0.5992463420617911
4123 7 -0.002519586451693217 -0.01024799169921144 0.001577553932684781 1.182896729094948 -6.764898142406745 2.205984563328536 0.1575610454196926 7.11723543616591
4124 7 -0.004403923705895383 0.004301626060674107 0.00049515430380515 1.182683683341889 -4.195513403526787 -7.904335691294234 1.683112067486171 9.105697209525385
4125 7 -0.001983813585930762 0.001238810857508635 0.003472879509169025 1.182562906719276 -21.46606309919183 -9.480524451628733 2.3829266247338 23.58708435045079
4126 7 -0.006802816117307391 -0.006941011310480167 0.003063240107357785 1.182721780639863 -2.610741028860113 4.728417827230487 0.345285178207502 5.41231241919149
4127 7 0.000278939756913497 0.007799824795679339 0.003486741492695512 1.182994181418047 0.3980311722074716 -13.38178552789461 -9.101494645884356 16.18850881081022
4128 7 -0.008699333449542955 0.006715465939404253 0.002990746270084598 1.182690660633333 -2.1309814089857 -4.193772738244085 -0.2980888233328505 4.713562187144446
4129 7 0.004038227374322268 -0.009995179137711042 0.001583800456280979 1.182971104939055 0.292873975804432 0.6195021119958767 -0.1899684979230569 0.7110879429957937
4130 7 0.007051238385921395 0.004835412725113094 0.00148178044072624 1.182959337995138 -1.381856145952961 -0.4365581900181053 0.04640688358670064 1.449918294326989
4131 7 0.006259469623365082 0.002085199176357001 0.002476016223574797 1.182943867118355 -2.143263913093902 -0.2104529216680986 0.04795069121709873 2.154105360050298
4132 7 2.787524885489029e-05 -0.006974894142004757 0.003484699105247369 1.182936853797221 -1.670676251934603 13.00061316126584 -0.6539874584440314 13.12382571140972
4133 7 -0.001400301945077693 -0.009270608674931119 0.003572030318278796 1.182973742737176 -16.76016004846628 7.310289999461659 -10.00156176607631 20.84165402474271
4134 7 -0.001617193612550793 -0.005680333977527072 0.003523877556210437 1.182815443314884 -6.923514428376929 7.844384996258286 -1.090654579452588 10.51945604207492
4135 7 -0.001143584355003013 -0.007744801401570417 0.00300335475235323 1.182926887537181 -0.7033334666491062 10.05819504437395 -4.418563288076472 11.00843617625657
4136 7 -0.006508341559231976 -0.007401547215177626 0.001577392118831847 1.182740716908459 -2.558590811962718 5.138865595670705 -0.3967199962962483 5.754277826877093
4137 7 0.004237953870067611 0.007125695387391008 0.002977741826050862 1.182959408130313 -1.352901736222391 -2.223408880824798 -0.3615219525379445 2.627658326603935
4138 7 -0.00249906489130773 0.002226197140706945 0.002435470083261703 1.182617546045341 -10.11023546287873 -4.416106537163895 15.14452924276962 18.7370121430162
4139 7 0.002095046934100704 -0.00836084584326223 0.001690977890164327 1.182955020327324 -0.6077429508340697 1.75059795593784 -1.146392263076924 2.179027287223562
4140 7 0.0052870974626036 -0.009477747992429968 0.001584311588419139 1.182970184961039 -0.3571863338353188 0.5371112615100135 -0.07327312555501962 0.6491837453665916
4141 7 0.008669642215988793 0.002587283704410224 0.001465157123935096 1.182964667529311 -0.9665213517441121 -0.2575822259991532 0.05541106208009917 1.001789654732364
4142 7 0.00641598924641254 0.002380212504876016 0.001476016223574797 1.182946020788608 -2.14449654847013 -0.2077632756567135 -0.0489591785214245 2.155093507547504
4143 7 0.0002873626770059925 -0.009228018800128936 0.002970442693913554 1.18302125718078 10.99511123885373 6.224469077016964 -16.79623088710294 21.01784618980686
4144 7 -0.004035217017423065 0.0008377786872405165 0.001440788097670912 1.182564846224037 -7.555715094650004 -2.484417604575237 3.440516043238843 8.665928228945193
4145 7 0.005835568842092971 -0.009881624984192393 0.002999722008576424 1.182973848588215 0.2112705107475261 0.3747952546808372 -0.1734559090550019 0.4638897110616825
4146 7 0.0002082938031676981 -0.009912594779431256 0.003490965497770762 1.18304728720125 2.672247805673653 -12.18733466289847 -5.001769211393391 13.44208799868745
4147 7 0.001481979615951943 0.008129341367800632 0.00350984695714963 1.183009689722355 6.132204706517238 -6.936489218394856 -2.083405896905437 9.489962980475772
4148 7 -0.0006712338973812139 -0.008864411331525757 0.003479477196142793 1.183022220983439 -18.57028725241596 7.310589566296398 -10.37169642541411 22.49160677197235
4149 7 1.717441627730609e-05 -0.008315424020697683 0.003479477196142793 1.183023983990632 -3.278943488758573 19.20304608562163 -10.45038273090554 22.10698868212017
4150 7 -0.0105780794880615 0.004115454772921617 0.003032943171534019 1.182626410106398 -0.4536100406635212 -3.201566270841075 0.4580237124937809 3.265819097375814
4151 7 -0.005450268436720133 0.006567588192705883 0.00149125265367617 1.182735781930346 -4.154861321616548 -6.804582063370145 0.7923437762377252 8.012054562891253
4152 7 0.0004626568072142237 -0.007239679451754316 0.003172158439506812 1.182947206357346 2.242501678792494 8.91897344886852 -2.3017603086854 9.480242701516048
4153 7 -0.001566317275430305 0.008434049738514731 0.003684724317412645 1.182948182406689 -19.1258060065683 -3.114477094048938 -13.6746988755498 23.71695200288609
4154 7 -0.01039920960153668 0.001926514350505893 0.001492566308135963 1.182595847448931 1.414149504208559 -1.01015674218404 1.018368725553883 2.014276625793842
4155 7 0.001296326134642869 -0.006758415627113754 0.003172158439506812 1.18292844883411 -1.997099515394096 5.530016102948262 -1.981327426920211 6.204445418078935
4156 7 0.001487445430105884 -0.00596571491411504 0.002984883277186456 1.182908004067777 -3.341847939734459 4.402035455421411 -0.5313307868816234 5.552312690058341
4157 7 -0.009234258353685881 0.005676478351855267 0.002487545015949793 1.182663646289009 -1.634801580396478 -3.962045419871355 0.1698424717330241 4.289431964910364
4158 7 -0.0009315693756448545 -0.007575725097487836 0.00300335475235323 1.182927652180932 -10.65511770597516 2.633504392496105 -4.521043181256444 11.87041322617991
4159 7 0.003805279780612914 0.006650291272278614 0.001466027758969574 1.182946733575726 -1.525461142911902 -2.407967152101646 -0.00361156877390199 2.850500052194984
4160 7 -0.002707488549427951 0.004786231480533131 0.00247210287450695 1.182742483700076 -6.35235405875787 -7.219330304188052 2.586918995446347 9.958076220725902
4161 7 0.004084123964164769 -0.006590424229150946 0.002548965516290006 1.182945564613607 -1.739303800518414 1.997499525433803 -0.5589420307067824 2.706953686027282
4162 7 -0.002673118541440178 -0.007807883778995587 0.003498222009680793 1.182858513659286 -7.803673506099909 7.718430822975615 -2.903627879583692 11.35352585860275
4163 7 -0.0007067823927512304 -0.009710862315962181 0.003572030318278796 1.183034764336872 -10.64453097851007 -9.147744259163513 -5.869206096582242 15.21298277747259
4164 7 -0.009997073134705431 0.00360747647100158 0.003509300095723848 1.182613148734933 1.756739669390699 -4.424057414562871 1.175139459761464 4.902996127190815
4165 7 -0.007234061107710734 0.004157618197017659 0.001006658418951685 1.182629749668402 0.6517959501659538 -7.114965741302768 1.848201325661307 7.379933847992203
4166 7 -0.003379266280292407 -0.01066055481131821 0.001498000263070507 1.182876539403681 -4.382660667424429 1.926352238806424 -0.3938172882426192 4.803502839622606
4167 7 -0.009693730296273875 -0.003704183009725966 0.001478103632098557 1.182621537049978 2.062965993997006 3.806826853740578 -0.8434941983461396 4.411263067352936
4168 7 0.002938601805378723 0.006782206135823737 0.001484483319020966 1.182942785179205 -0.7945275381654612 -2.730227304883468 0.07457686017457855 2.844464247148839
4169 7 0.001137244095995156 -0.006307629967255682 0.003484699105247369 1.182914154012592 -3.321174736155729 6.323123104739619 -1.013601000150605 7.213839089782734
4170 7 -0.002983890654677611 -0.000245386693513263 0.002966850860730502 1.18248672924668 -11.94198947626142 9.597562362288411 13.00613437785989 20.09686163071494
4171 7 0.000632260364526864 -0.008902610050062008 0.002657902028172998 1.1829784247872 2.568085341117716 3.136271718519185 -10.79053604409283 11.52679186636566
4172 7 0.005624574784880554 0.007704568989902771 0.002461122667735913 1.182969325779848 -0.3967078956708517 -1.168638938325941 -0.09036643652849861 1.237440994758958
4173 7 -0.007376907242234063 -0.004588328178468475 0.001489100706455436 1.182647805383499 -0.9356897648392769 5.359487174089964 0.8339239850098551 5.504093687250839
4174 7 0.005585951729069517 -0.01042700080265754 0.002507077053519756 1.182974348151017 0.03515965656153201 0.3550992145553002 -0.3501902291614938 0.4999648489919022
4175 7 0.001545607865953939 -0.008784750290841838 0.001197590462754331 1.18295303362806 -0.9906789534083253 1.537784570358362 -1.173391888629809 2.173263605239985
4176 7 -0.0005835559688140821 0.008673688115475602 0.002658242970667001 1.182984196494486 -9.082529011315957 -8.460308860396724 -12.44376390505767 17.57601830277607
4177 7 -0.003876642158709126 -0.008840010377414749 0.003012374021154854 1.182842971241977 -5.482018775465062 5.297997022538217 -0.2140133137847085 7.626736130472352
4178 7 0.001167755881055439 -0.01029126087507182 0.003490965497770762 1.183006008245533 6.406968300573118 -4.88494652207426 -7.53335385191118 11.03011176671294
4179 7 0.0004316098956595245 -0.008294680243187573 0.003166936530402236 1.183014056508838 -5.470413922813671 20.95054624177889 -9.539814012583349 23.66133698062117
4180 7 -0.002451733548083398 0.00208793831540392 0.001435470083261704 1.182667353474793 -10.54737446224547 -4.884697426105499 3.45713703947102 12.12679568151093
4181 7 0.007767808575933009 0.001554677843856478 0.003474896871125994 1.182955788086022 -1.383900663656001 -0.3473754266159088 0.153374591435026 1.435052089361903
4182 7 -0.0005172688356399883 -0.006891328638749675 0.003008576661457806 1.182911532325227 -6.461167917820631 12.65897404244137 -2.194184677265652 14.38091655866991
4183 7 0.001046377723802135 0.00697414982405366 0.003057357034359263 1.182944853101345 0.3562481392778484 -9.326646262276121 -3.021744692012624 9.810412031208196
4184 7 0.006860092541382547 0.006179589666205947 0.001000784105362959 1.182965612659505 -0.7813341715793696 -0.921185540039032 -0.04926552792652412 1.208922238647508
4185 7 0.009420900423196097 0.002043387114962943 0.001480467148876435 1.182967678482606 -0.8932912989023053 -0.2839657052712733 0.05650039746299517 0.9390410860970119
4186 7 -0.00150327447556771 -0.005162224465282272 0.002502924438695703 1.182800371869441 -6.678687738753449 6.386138812312599 0.4761086742932987 9.2528005658632
4187 7 -0.002314104609164236 -0.00999251840341818 0.003572030318278796 1.182913369443586 -8.875582015327399 1.729070734983133 -3.26930503864893 9.615300159283306
4188 7 0.007500727421487539 0.005880226853258558 0.0005093927082647207 1.182966874870795 -0.8794415194990857 -0.930310054956384 0.04033175490714912 1.280828183257107
4189 7 -0.0005885163671238496 0.006750317993289772 0.003232234394622278 1.182900115600152 -6.55370365476052 -8.797786748822805 -2.002882253329224 11.15184382032338
4190 7 -0.004984953452494494 -0.005294617481006241 0.002536395667840662 1.182700863124838 -4.280272450198343 6.940323520167006 1.493616952325692 8.289735485091486
4191 7 0.005274856880977447 0.01009079004969961 0.002500995720189455 1.182978184582272 -0.1024036770846322 -0.7356266809064765 -0.3767543595497153 0.8328126885330511
4192 7 -0.0006205966951460104 0.007491540404699919 0.002203893830638985 1.182915666509879 -4.954074055209897 -6.142657893077056 -5.45698706923458 9.594467343718415
4193 7 -0.0008706833296093586 0.006178384499937381 0.001533279229967478 1.182859600438953 -5.64867537586931 -6.414856974820757 -0.1657683516003763 8.549000096838876
4194 7 -0.002052150759293385 -0.005417373074287289 0.003009357385403422 1.182789036958924 -6.30714997575772 6.650661181850398 0.02851989927073379 9.165819568217932
4195 7 -0.0003422385895835292 -0.009938881116091119 0.003062995816049558 1.183018731046654 -7.213839622408216 -9.930620275138786 -8.225206969138206 14.77534198697221
4196 7 0.01102234675225969 -0.00190058396455043 0.001290508043985622 1.182972159873162 -0.3173455819130425 0.0515567433796703 0.03477239939777015 0.3233812547250115
4197 7 0.002909484211997091 0.007711106780006706 0.002996197386102254 1.182963274125052 -0.4535040423363607 -3.61626240666394 -1.39878639402952 3.903795984216952
4198 7 0.001744765746727236 -0.005088321987629429 0.003044049193301889 1.182895252962295 -2.907084580746324 3.506523260516556 -0.1876856510842063 4.558735794031016
4199 7 -0.002802781151534228 0.005311847689100092 0.003004022883851462 1.182755845313081 -7.224993542989155 -9.519027754589668 0.9711138610577881 11.98980747218328
4200 7 -0.009315707437128987 0.006574085524126432 0.002483429970770864 1.182681522177292 -1.568752296297581 -3.711315886553401 0.2327463464959026 4.035965837160887
4201 7 -0.004622714703347105 -0.004136635790673669 0.002457788590286897 1.182648743373144 -3.360766788114159 10.27764265691027 4.579031305045694 11.74275179333283
4202 7 -0.002667685897445518 0.004900538399842061 0.00147210287450695 1.182757946567575 -6.323210206433949 -7.120202748799489 0.9361274491309268 9.568521782374676
4203 7 -0.0002740196398931904 0.00931151349243927 0.002476682250899601 1.182994604315909 -3.925060907759473 -1.046670044566102 -14.49829729936709 15.05663461377238
4204 7 -0.001681362982982757 0.008203911975906721 0.002656419421292686 1.182906369099954 -8.356160301732034 -3.431797986757263 -2.401181796719585 9.347102568767024
4205 7 0.005670732831763043 0.008365210685696237 0.002969731270637676 1.182973237727838 -0.3667825404807801 -0.9079991038787032 -0.04969757538431501 0.9805415104140889
4206 7 -0.002450645018116898 0.004624277062862341 0.002968931200092136 1.182741571713353 -8.583837079997972 -6.536888479448201 0.2824188990302848 10.7931890765992
4207 7 -0.005314983375653909 -0.001127090198914089 0.002945295475614325 1.182415886072335 -1.742550921600042 3.980888154735966 20.0888993022058 20.55353569070419
4208 7 -0.001957174496500381 -0.00854892557656365 0.003498222009680793 1.182925084733 -14.3566942541444 3.766629223281448 -0.6632400706785824 14.85739051798849
4209 7 0.001454181551406052 0.006683696990732453 0.003057357034359263 1.182935264419104 -1.294505885689352 -6.424730138538829 -2.970057054955475 7.195425056994501
4210 7 -0.005479292462501092 -0.0009186740817370853 0.001416079075914814 1.182537658608903 -1.115454047339772 2.932370404145178 3.368048951141012 4.602910780811997
4211 7 -0.002842470557220427 0.006962362258899958 0.00298808961773601 1.182825207581795 -6.2817439265488 -6.324435937541995 -0.1732210520324904 8.915649287610671
4212 7 -0.01161620544150324 0.001220535592106054 0.001500066027638222 1.182598083423799 0.7316238309028225 -1.47040341407097 0.4442978247642241 1.701399479001539
4213 7 0.000313269014194496 0.009425038676655707 0.002989905090340756 1.183030521162702 14.5725629015342 -2.577149028500882 -12.60378461235377 19.43853577790466
4214 7 -0.0009665149502390715 0.004351522671573082 0.002443353437833536 1.182793742577137 -6.782847931281843 -6.971257462299692 0.3272037214535992 9.732035703792738
4215 7 0.001393842502565915 -0.005497350900218378 0.002528748298549258 1.182896365135002 -3.054348769619923 3.422847033420567 -0.3515338730255458 4.600924285897243
4216 7 -0.0001455992470554604 0.007756114399453959 0.003171465810108156 1.182969377987647 -3.982809953056862 -17.93855199001 -11.22806093440642 21.53424656140085
4217 7 -0.01110059930396505 0.003827010586444001 0.002525626872220322 1.18262357004072 -0.3683869331504942 -2.420425015782058 1.268558707168474 2.757427675039284
4218 7 -0.004650434725473717 0.006142533661136471 0.001495029161669433 1.182741380604086 -5.671953907902521 -6.191060269184261 1.003905174386865 8.456247039272403
4219 7 -0.01050236379804797 -0.004100323536271492 0.001456010233791723 1.182630696233535 -0.593750275817557 3.097699000574333 0.4620363892157296 3.18775094904733
4220 7 0.003659804580559658 0.009930558971285494 0.002508706616753896 1.182979889172378 0.4525288949041207 -0.8682647064734439 -0.7808619082981764 1.252362296247228
4221 7 0.001902895665505472 -0.0069296944469908 0.003687459334259444 1.182942585099632 -0.2881018953719335 4.506328865283987 -1.489727553013921 4.754922788691465
4222 7 -0.003072234516661144 0.008360836322790138 0.00147036416045251 1.182852392904144 -5.659133649945628 -3.594984469532617 -0.4361578549437941 6.718626398197537
4223 7 0.003814001721279834 0.009792281311549259 0.001508706616753895 1.182976524689666 0.4524927481219996 -0.898146656303149 -0.08409157080543631 1.009201910230085
4224 7 -0.008066566327262728 0.0072577199804626 0.001490141436506148 1.182713128123877 -3.081725080982208 -5.055961753658029 0.2967188979278603 5.928559760481048
4225 7 0.001523787039358112 0.007634120132517583 0.00350984695714963 1.182986243963073 6.296800893889685 -9.380848634333143 -1.200090148991811 11.36178854596701
4226 7 -0.001677212595217629 0.008700435561043789 0.00317150147797149 1.182925486836012 -10.0417740849076 -4.808404392279507 -3.928040225906894 11.80624748124303
4227 7 0.002253096999616201 -0.006587779393850158 0.003187643506198531 1.182936435154817 -1.481435380219079 3.879393175666825 0.08666511296217401 4.153535005146812
4228 7 -0.001905185049375841 -0.007983175034549631 0.00302209956589123 1.182902484651455 -12.734211484884 8.257128826351465 -2.306707751859437 15.35126116152039
4229 7 -0.009605647882395577 -0.00338071188715083 0.0009873937382996619 1.182615195043262 0.9138304276338937 2.234149347220299 1.234023928107822 2.710963742158329
4230 7 -0.0006074644698225921 0.006772665812830976 0.001032428020530829 1.182884097008089 -4.929981256238326 -4.906067143776657 -0.8425443832108209 7.00600392833077
4231 7 -0.001869113563425848 0.002043564565048158 0.002940959499824512 1.182632917514931 -21.76000773060279 -13.46767760449266 2.449631979383053 25.70752756156964
4232 7 0.007727445436053901 -0.0004116891777048255 0.002462790639236426 1.182954508024411 -1.578621589284369 0.09050822044680838 0.1040684207824236 1.58463500413417
4233 7 -0.002387266054910605 0.008790782540567433 0.001460438137561887 1.182882857387906 -6.102240172493876 -3.89642240967605 -0.5283599346976772 7.259380616692965
4234 7 -0.008340362398788189 -0.00503820004556679 0.002490878058822065 1.182651410294433 -1.020335666840288 5.340313730187458 0.8098156992765478 5.496893402336438
4235 7 0.00403885299933723 -0.006806962883974994 0.001548965516290006 1.182946127084059 -1.692821764956814 2.088551178079452 0.01652175647108071 2.688487403691053
4236 7 -0.005101599642625926 -0.005177679354744938 0.001536395667840662 1.182698742139528 -4.332749450133021 6.766065058096922 0.3888762275742433 8.043853485015777
4237 7 0.001646527468753597 -0.006416500573973112 0.002672342611445899 1.182922298889296 -3.558576403211098 5.127900316592033 -0.5169759668134989 6.263073672300068
4238 7 0.007071939623411638 -0.0009781777887168525 0.00247385658152717 1.182948841355682 -1.696400039060806 -0.01375912252790936 0.1335368307448447 1.701703408688959
4239 7 0.006208043356453038 -0.005889218022509176 0.002471720901079763 1.18295639713047 -0.8928259369124326 1.145508000453711 -0.07806844503975352 1.454448835414277
4240 7 0.006631173573823151 -0.0005103173416374925 0.002966263191877585 1.182945124423086 -1.393336504073445 -0.04561501777817653 -0.1663314246414826 1.403970614455223
4241 7 0.004740341793315768 -0.005572199690233951 0.001484733830674436 1.182942137831688 -1.99632170577141 1.206885034050742 0.02511387872162629 2.332917174966608
4242 7 -0.00547209398541287 -0.0007262929250593911 0.002416079075914814 1.182466373926192 -1.287233006483521 2.990203790872921 20.78602951937898 21.03942277498187
4243 7 0.004443418305763971 0.006621549099147772 0.003491391397098238 1.182955853291841 -1.355066589541285 -2.22267181969765 -0.3632853695039081 2.628393376164364
4244 7 0.004071856952019848 0.005938713752273117 0.0009796773300169499 1.182941331717281 -1.925958161776496 -1.684728664908749 0.2036947129285427 2.566927550857982
4245 7 0.0005492693325786697 -0.008539002581458833 0.003166936530402236 1.183017395888511 10.99507535268591 -6.705224772454199 -20.16416917951848 23.92583206412304
4246 7 -0.0109817148698547 0.001564658998285327 0.0009948809770932981 1.182599388287755 0.7834047962811536 -1.436108023247193 0.4406174265562294 1.694188019629554
4247 7 0.008037244574499369 0.002283490164704932 0.0009737854883893455 1.182960415426723 -1.284795011185838 -0.3598527252064853 -0.08787401976167895 1.337129031902168
4248 7 0.004643318032245069 0.005398932656463828 0.003473499115198168 1.18294740798049 -1.577124567942833 -1.285262680078629 -0.1759342679372154 2.042100616092745
4249 7 -0.004242565178514845 0.0006478704738396149 0.002440788097670912 1.182485526893587 -8.306967737728916 -2.910054479577745 21.20453960872563 22.95880288882227
4250 7 -0.0008043753484111611 0.01095208225380526 0.001498002406180887 1.182948604818838 -4.574994564789916 -0.6622804733094551 -0.8977080028401611 4.709041341031902
4251 7 0.004622451938011168 0.005520318957388051 0.001453176445215118 1.18294399991662 -2.150747199342612 -1.276039930302188 -0.03689062726235513 2.501070238435041
4252 7 -0.007222406879439526 -0.004151869835929759 0.002987843896313062 1.182618648055999 0.6314323419939261 9.162754159248037 4.136618455577429 10.0730523096208
4253 7 0.001134251968399727 0.006308034471720022 0.003547510077209633 1.182923863437668 -3.456685114187315 -7.738642813040618 -1.175158575740223 8.556650176593944
4254 7 0.003299944611760866 -0.007107314864251738 0.001559885882191843 1.18294504938089 -0.6365571772313962 2.759561822461321 -0.1084765641043284 2.834105442080575
4255 7 0.001401137302102682 -0.00925864129943307 0.002688555960525092 1.182986164811137 -1.136674256297436 4.306576081419377 -9.956173101126719 10.9070623327082
4256 7 -0.004618018713117975 0.009545959431061738 0.003488743033681845 1.182836258336028 -4.736803092073929 -3.257092768767238 -0.2217217506145522 5.752835594046865
4257 7 -0.001754682932263326 -0.009055055086311214 0.003070252327959589 1.182934799678315 -10.74440882501072 -1.560529519830355 -2.62397081849033 11.16972677541931
4258 7 -0.0005066783453150693 0.003206281450222106 0.001415381737565913 1.182782378806379 -8.341684968326744 -3.234586044172342 0.3049371670474967 8.952052371596682
4259 7 -0.009399989911679897 -0.004147072238947581 0.0009896212486796905 1.182628705957712 -0.06295984634596849 4.855077189374828 0.802444968183152 4.921347009102503
4260 7 -0.00516719368518518 0.003584049998169189 0.002510762086654348 1.182603734102372 -2.947167418508995 -8.527246408228345 4.089604515257845 9.905785793695598
4261 7 0.004720099719230569 -0.005366541778146283 0.002484733830674436 1.182941049318009 -1.99938611512756 1.215189212431561 -0.2005432970390663 2.348286028864928
4262 7 0.001979125804289671 0.01064644242281101 0.001495678492671656 1.18297880005292 -0.3485470124920203 -0.2487189594531852 -0.578900426109614 0.7200498899787988
4263 7 0.006232918567684364 0.002697245965869397 0.002995715845113951 1.182944995490684 -1.93270119309917 -0.5755412280910617 -0.2754329056870788 2.035299705835667
4264 7 -0.004071817811219192 -0.004242407373868078 0.002968856048854631 1.182656695945675 -6.642367245915747 8.417574591575663 2.101934367302873 10.92678968035916
4265 7 0.003403599975496865 0.007701572630874445 0.003486350428952624 1.182966962318631 0.1747555026213045 -3.844415099971596 -1.145324212229582 4.015200430576954
4266 7 -0.008023748908385675 0.007204390027694717 0.002490141436506149 1.182711965744204 -3.082632585123674 -5.043211762999563 -0.1398888187603975 5.912374939306336
4267 7 0.0003620721037981776 -0.007990015270630754 0.003166936530402236 1.182981151597052 -3.763463236894414 17.07901100660191 -9.724370609837086 20.01048865611603
4268 7 0.007671456541989415 -0.0004834722616805752 0.001462790639236425 1.182954474725806 -1.578983381838796 0.08763584937432897 0.04751736062736878 1.582127195196275
4269 7 -0.0008869691744344892 0.006404585494514746 0.002733085604058926 1.18287407735145 -4.693419302148985 -7.940962859261153 -0.1664506797658024 9.225767269270573
4270 7 0.001429907976660851 0.005871800826647015 0.003035796010128345 1.18291311859665 -3.490411349236398 -4.572589748297962 -0.2700584628850576 5.758860995587036
4271 7 -0.001459546471456507 0.006649272833565542 0.00267049347017049 1.182865008534121 -8.45521539116246 -7.009584173815388 -0.2015438669974148 10.98478755056637
4272 7 -0.005035181491101332 -0.001633190037502602 0.002945295475614325 1.182444643058212 -5.419155303289064 11.90424298461396 18.7386725628894 22.85204793135794
4273 7 0.007712723069703444 0.005130042843750856 0.001008281325528072 1.182964949896049 -1.24278221617547 -0.4942710474771891 -0.02142905143103451 1.337636239588867
4274 7 0.005834080543058787 -0.01014804108283729 0.001507077053519756 1.182972413486641 0.04624910951625462 0.3490917511023277 -0.1551292534090211 0.3847975000983976
4275 7 -0.001802668652102315 -0.005195804450986553 0.001502924438695703 1.182793183222723 -6.677529151689925 6.383509360822174 0.4376543651356892 9.248250033097907
4276 7 -0.006578151049738715 0.009123183042502321 0.003010156602608703 1.182778813576842 -4.130712604887718 -3.534007239517023 -0.3961736955840811 5.450591471593679
4277 7 -0.001923004563540707 -0.004146983517938056 0.001497903328522168 1.182747941382117 -7.077222688002607 7.890437350432562 0.5207945990884217 10.61213030315402
4278 7 0.008958420915566956 0.005421786727688073 0.001000764343810471 1.182971995321228 -0.6314702445776947 -0.45492293605372 -0.1753098254759866 0.7977738291290154
4279 7 -0.005881121925270957 -0.00760254082435695 0.001076135308689473 1.18275699078905 -3.683162056683829 4.906945999088601 0.4743036274749373 6.153760289839292
4280 7 0.004925609598866474 0.01013035893668231 0.001500995720189454 1.182976923397567 -0.08918800550060307 -0.7520684122348368 -0.07675762786935519 0.7612181884602696
4281 7 0.006673076435343941 -0.005751982240870222 0.002989253839571604 1.182958329346867 -1.068632577172892 0.9890956273885431 -0.1708029801386889 1.466103476272589
4282 7 -0.002538217840215445 0.007484517090306252 0.003484917943321196 1.182856843779101 -7.540524113000022 -7.87951965978532 -0.8615331397903483 10.94022729739356
4283 7 0.004357943205118873 -0.002245268030810641 0.002458342093180272 1.182919017664416 -2.778855821975763 0.6479511555842252 -0.5500724053551738 2.905935310788035
4284 7 0.008433606384454197 0.004953995435699752 0.001499652961073823 1.182968521816593 -0.9531767339265571 -0.616379860966457 -0.04738853981898943 1.136096691664096
4285 7 -0.008233701102567152 -0.004799595540550372 0.001490878058822065 1.182649431908291 -1.019784957700367 5.340370421270126 0.7905411576678022 5.494039763079217
4286 7 -0.005135575569559216 0.01010176175885377 0.002999504469868997 1.182832871259409 -4.637683232015472 -3.480726921255932 -0.1577016660765493 5.800727150655907
4287 7 0.0001638933343003574 0.008281936385089339 0.003486741492695512 1.183032156028362 0.8070915874042869 -15.17436987807352 -9.489050199941197 17.91521620645556
4288 7 0.001413208356769152 -0.01095903081244592 0.002507874333850939 1.18297635008816 -0.30337980111789 -0.09665077368198446 -2.184593165819043 2.207674789438636
4289 7 0.004530794048509369 0.009939733193931431 0.003009644614083785 1.18297988211095 0.4638628110660156 -0.8715234632932696 -0.7763007894439 1.255931833441602
4290 7 -0.0007453729558320825 -0.009270608674931123 0.003051507514421589 1.183008397330155 -19.12526129995371 8.463370208960585 -9.955940288335235 23.1630093491827
4291 7 0.007286679386465413 5.617126937453447e-05 0.00295519724958684 1.182950791091815 -1.562025730900269 -0.2959873454147288 -0.1995631232988365 1.602297829000889
4292 7 0.001051410764102904 0.008186102954278693 0.002996588449845141 1.182998601015214 -0.5952936067120066 -3.696659446384755 -7.379241912059575 8.274833940172726
4293 7 -0.009145241723116137 0.005652437309376259 0.001487545015949793 1.182665238682056 -1.631590266104768 -3.954503728555278 0.319142670831527 4.289759734524872
4294 7 0.007015950729347153 -0.001049960872692602 0.00147385658152717 1.182948808057076 -1.693363871224327 -0.01496759181794706 0.04630516341195245 1.694062985054356
4295 7 0.004263990089883503 -0.004829172365060996 0.001484263701179643 1.182930631677968 -2.279794981835171 1.849833041562072 -0.278490375040189 2.949051428823451
4296 7 0.007310585330425164 0.001175402762335498 0.0009551972495868398 1.182952537172319 -1.558190874189114 -0.307959571421642 0.1629558412868513 1.596669190610862
4297 7 -0.001458436721773393 0.006175361491286303 0.0009857691527578453 1.182841127463595 -5.605440103696434 -6.404704598489532 -0.1348188131248017 8.512307317197472
4298 7 -0.009539565517293796 -0.003113662038492382 0.002987393738299662 1.182602459553006 2.236866752117616 4.136337871876537 1.534126023767223 4.946352849711508
4299 7 0.00646512265569717 -0.005253059457770467 0.003502082597227189 1.182955457280175 -1.090302353010844 0.6967192312137672 -0.3912958237335639 1.351772662023987
4300 7 -0.00784302018376235 -0.004096759105918011 0.003498911354880796 1.182611672463339 3.069821883116616 7.921461396218967 1.768345442220064 8.677580460524089
4301 7 -0.001395553630648563 0.007166923091432456 0.003169642260733841 1.182890160368933 -6.955497637160621 -8.318994061083936 -1.482877750338241 10.94456650541012
4302 7 0.0005858294173914907 -0.007643418900346054 0.003687459334259444 1.182982887950059 -4.112826975919925 15.54839772308649 -10.28923189350103 19.09283400774684
4303 7 0.0005459311261617083 0.009075246034188678 0.003486741492695512 1.183050185229485 9.252767293963613 1.665396727138772 -14.40157649286193 17.1986236174515
4304 7 -0.001625402266686483 0.01143956410860084 0.001471195732725476 1.182930835757538 -4.207972081560387 -0.7281625133082855 -0.837880595159778 4.351929868084318
4305 7 -0.002016648354983223 0.01088289606876464 0.000963134084748679 1.182916929320506 -4.386971364640559 -0.8185506067539317 -0.9742935837777622 4.567799342942287
4306 7 -0.004971171801527336 -0.0004034688286610174 0.002946277514233721 1.182406453663043 -2.271655236461836 2.151795187759133 19.91824061823075 20.16251346854219
4307 7 -0.01087767680753629 0.004172592789644795 0.001525626872220322 1.182632239669718 -0.3891030261180696 -2.336790379058822 0.1061032426070314 2.371338933743516
4308 7 0.002449789158835379 0.008495327353447364 0.00300890895981974 1.182974806118369 0.3867042124311561 -2.871528060469052 -2.081284758252331 3.567486481390871
4309 7 -0.0009800526691250877 0.008216749576696806 0.001458436596575553 1.182913902289513 -5.928649493663895 -3.928492261355931 -1.492175706970366 7.266947406354825
4310 7 -0.0006311795202285294 0.003792178044479106 0.002942502228396888 1.182787547569383 -7.354319660933209 -5.588464162534219 -0.2620966586618608 9.240435272734707
4311 7 -0.007888985928000594 -0.007839170199789147 0.0009939017636538116 1.182727486417102 -3.099866688984621 3.876368331595267 0.5646823125030289 4.995425011520534
4312 7 -0.0004592189180230536 -0.008424157690494705 0.003479477196142793 1.183012253882747 -14.0241658942088 16.75032137074689 -8.857013902812662 23.57323037528387
4313 7 0.0003810750921274091 0.002873623322423356 0.001438105467534359 1.182815335853523 -7.891227749822937 -3.469776136212967 0.2406817959634641 8.623731765420162
4314 7 -0.0009307038068558478 0.01078829496404849 0.002498002406180887 1.182956773948602 -4.513380931889336 -0.6035179512864938 -3.459827265783492 5.718850064735582
4315 7 -0.001628899150771337 -0.00433733991044897 0.002979046882485266 1.182760418137317 -7.438515471289917 9.252338194787823 0.5817912877943441 11.88594782042654
4316 7 -0.009591826037570307 -0.003641834855519743 0.002478103632098557 1.182618008972159 2.00833807727297 3.798088881364111 1.197202911972493 4.460066792751157
4317 7 0.006874345745726597 -0.004827951798652386 0.001525046840816286 1.182956047528839 -1.553924099022163 0.5436275697393383 0.09039543226285314 1.648751762478673
4318 7 -0.004272381550653316 0.006261786212306239 0.003503171674414813 1.182751955603727 -6.073711550948241 -7.297153496163499 0.270329534068864 9.497973426351704
4319 7 0.004105371115952781 0.005149453241191078 0.00296178504811688 1.18293839286991 -2.441216942667094 -2.307114664707149 -0.2205617015861205 3.36614998202371
4320 7 0.002372941577976794 -0.007055593533661894 0.002681030933608526 1.182944516869417 -0.2361402862546874 2.71842321180486 -0.6792021699980664 2.811921510462549
4321 7 0.005632673518938527 0.00803207560657257 0.001461122667735914 1.182970299132457 -0.3981514253642547 -1.173659409480007 -0.3318687397029768 1.283019028453042
4322 7 0.01124779818001182 -0.001399493020679154 0.0008073680927548333 1.182972622836254 -0.3088555912995099 -0.002534066475030849 0.08971683605073655 0.3216322565303806
4323 7 -0.001106325023984489 -0.005293014338612148 0.001017444609502719 1.182819881514099 -5.733410766969393 5.766431212133442 -0.3651601977809801 8.139844588019526
4324 7 0.001892660094706596 0.01079840148722254 0.002495678492671656 1.182986130197197 -0.3655662690778082 -0.2560463376024101 -2.106344347548061 2.153110525387571
4325 7 -0.006372437528522703 -0.0005626986726494674 0.001415347369735696 1.182532682807675 0.9992660584436673 1.927561302694542 3.397336923215319 4.031863514684637
4326 7 0.003114449155218424 0.01097990874663479 0.001515809080157572 1.182980476971678 0.00179171274968217 -0.3435058111494021 -0.5767318056371157 0.6712816310323364
4327 7 -0.004664689575571147 -0.004621471750408853 0.0009744123706252502 1.182688925095561 -4.226751087570251 7.159791683541028 0.2272398261261303 8.317432274840439
4328 7 -0.003310603847535913 0.007206931804570189 0.002484792801185479 1.182817609007558 -6.165450805744777 -6.437878188489158 -0.07449373597126469 8.914292373743546
4329 7 -0.0104004595393444 -0.004037975382065269 0.002456010233791723 1.182627168155715 -0.5964680829145297 3.097282084946061 0.5728660263176459 3.205792565306202
4330 7 -0.0003808291526643813 -0.009498627475060063 0.002542473012192351 1.182992364039937 -6.427789412427479 -0.402447048931927 -14.90278848188604 16.23488666093927
4331 7 0.002554045798213652 -0.008296178581043225 0.003493387427409996 1.182972698770931 0.7762450912599327 3.599317619793382 -1.184551809744617 3.867920211150882
4332 7 -0.004765496837885684 -0.002041931159478679 0.001428671695275971 1.182572346431725 -2.801809670922533 6.56386689567235 2.901853304112122 7.704235111597052
4333 7 -0.00686195647407449 -0.006788549722472209 0.001063240107357785 1.182719444044114 -2.572507055938579 4.412274189453381 0.2610837109605468 5.114109969476526
4334 7 -0.0009575641883649084 -0.00627069702745655 0.003523877556210437 1.182865771959162 -7.100341500736893 9.392549875331326 -1.570312483353043 11.87858257045206
4335 7 -0.00514985498897973 0.01019174538481898 0.0009995044698689966 1.182831442114886 -4.424804377251801 -2.793385025904893 -0.4613178854997173 5.253066520745603
4336 7 -0.0009844487099630221 0.006980066221708516 0.003684724317412645 1.182901160981376 -6.804124389724674 -8.327034044240525 -1.440698083970049 10.84947997159043
4337 7 0.001780954933884132 0.005462729075080896 0.003488285932918712 1.182910835985178 -3.494218681437072 -4.214875999143755 -0.3820750257067501 5.488235163249723
4338 7 0.005294781350856924 -0.003150271991901685 0.002470042342657294 1.182934675308643 -2.766066981142706 0.6291978750749158 -0.01301914510486852 2.83675624760147
4339 7 -0.0005797168026088558 0.003038180081669453 0.002415381737565913 1.182773035922226 -8.347031567672332 -3.23285015459683 0.8128538421360529 8.98804692257837
4340 7 0.003623591138631733 -0.004958857311950665 0.0009821811039524534 1.18292287059802 -2.418982462596297 1.898563657042343 -0.4264130655183584 3.104488398534484
4341 7 -0.004468603806471785 0.009027031395202431 0.0009854462171313139 1.182826612298935 -4.730413483114387 -3.857741050917584 0.05099825347173814 6.104226286682224
4342 7 -0.005537071597432707 -0.009894380216407043 0.003020109240060565 1.182814632393097 -4.561538412348428 3.418192976346731 -0.3233524538685755 5.709311054785784
4343 7 -0.002248537578346619 0.004514322399169195 0.000968931200092136 1.182759097243504 -6.002151726903079 -7.175867522762662 0.6066948062793454 9.374805525714754
4344 7 -0.002232915540598213 -0.007575045093631158 0.00302209956589123 1.182863908068633 -10.43375213396894 7.282399104038921 -2.360931798446543 12.94104011509602
4345 7 0.00518145662537834 0.009461464830374989 0.000977701535058294 1.182974690317412 -0.2802642922533384 -0.5493604124624024 0.03326452478354868 0.61761757172396
4346 7 -0.002975455683104815 -0.006712154945647477 0.003011215664094502 1.182809709544942 -5.928227110136309 8.187445040449401 -0.6179711887384564 10.12719217502292
4347 7 -0.008512073290848483 -0.004456989457021868 0.002989621248679691 1.182631496458171 -1.005988339249558 5.333203311615095 0.7961739941851204 5.485340748827277
4348 7 -0.002744724538304563 -0.006217369545089276 0.003009357385403422 1.182798100077334 -6.858815559211258 6.097236476671006 -1.06606450998392 9.238838512885327
4349 7 0.0002388994936209106 -0.007586275822039016 0.002651635635649605 1.182945470004339 -0.2585423325038832 4.534035301513056 -5.909223231476925 7.452733689894584
4350 7 -0.003649697172061378 -0.008013426040568946 0.002985560117564857 1.182827319287473 -5.803516380067395 4.865913783461331 -0.5338951197426148 7.592296314072213
4351 7 -0.003978459060205148 -0.006001512326393658 0.002972817937077048 1.182749200794718 -6.145356989383121 7.198369623064569 -0.2095557348249568 9.467093078829253
4352 7 0.004881033908290025 -0.002800201546508852 0.002967959745430105 1.182928819441468 -2.21292633616277 0.00604191520713613 -0.4653965928164023 2.261343287213878
4353 7 0.004960094311537437 -0.003322540369835369 0.001470042342657294 1.182930405201023 -2.768565336108983 0.6313686297520226 0.07192577232701278 2.840555171733869
4354 7 -0.00327197247373386 0.006678935313239584 0.003503171674414813 1.182800634901406 -6.557171219594322 -6.66473413996612 0.1137942652486162 9.350300780954028
4355 7 -0.001775138452202344 0.006911237216536391 0.003484917943321196 1.182865140123495 -8.111340779683168 -8.258036027790764 -1.084642111425037 11.62606798493446
4356 7 0.0008522382506017262 -0.00843026891166181 0.003687459334259444 1.183040917113707 10.9952939547949 7.819959004455003 -5.041209198040505 14.40354255598651
4357 7 -0.0005355133197437282 -0.007345934030091926 0.002488053857600599 1.182919256606085 -5.751199276040052 6.46321933085533 -6.128547319452308 10.60229170878786
4358 7 -0.0006904181200510778 0.01129919399329212 0.003011225245622042 1.182970293792378 -2.630608796844524 0.4992053675846802 -1.877734145398159 3.270350770461068
4359 7 0.006661834579400037 -0.005463578024164592 0.0009892538395716039 1.182956891554676 -1.302574515858369 0.7679947821732236 0.1950582080041634 1.524652110915391
4360 7 0.0003007326039197373 -0.007508296015692269 0.001651635635649605 1.182923805236476 -2.704777264964854 5.345444546380838 -1.321352075513589 6.134783513618673
4361 7 -0.004339736767036109 -0.00408416445249594 0.001457788590286897 1.182667843181633 -3.381825054679659 10.25330869255683 1.560535947607131 10.90881993109679
4362 7 -0.001839131293010287 0.006393586958669477 0.002985769152757845 1.182839988288683 -7.088389665356377 -6.727878787807405 -0.4526701607860545 9.783380361911009
4363 7 -0.007963998137856296 0.007894530511876423 0.003004580216966471 1.182730492990871 -2.922075455124139 -4.221712510981993 0.1991099154242882 5.138192897239368
4364 7 -0.002611657309386438 0.009453882238967242 0.00297552019424069 1.182903918261834 -7.015631009050873 -9.266291956554021 -3.638870201824813 12.17885961102198
4365 7 -0.005575567141255246 0.008212002382996852 0.0009960983498710201 1.182781931944949 -4.320171756269704 -4.015796206401117 -0.4083047525112344 5.912462764867049
4366 7 0.002113971237542895 -0.008172487785993512 0.00318084676166944 1.182968069211078 -1.067333476727828 2.479812189292007 -1.929242569703515 3.318229367819734
4367 7 -0.002626099988822813 0.004179378354881329 0.003468079990655487 1.182713371300736 -7.964068503975988 -7.896297668351672 1.736858827284232 11.34877009147483
4368 7 -0.001195217861986627 0.006769642804179898 0.0004849179433211965 1.182865624032731 -5.017772072682663 -4.918893004165875 -0.9122810394787016 7.085605242660531
4369 7 -0.008164655217335844 -0.005355238549332911 0.0009919667039412689 1.182666653487036 -1.43179253681477 4.784633295717717 0.1325140738286171 4.996028985377459
4370 7 -0.0007034262265766534 0.004132474660637285 0.001443353437833537 1.18279893867718 -6.767140776694691 -7.026852484126025 1.132232293666604 9.821038646298755
4371 7 -0.0005160603382766272 0.007437933474756154 0.001519169513226341 1.182908110927591 -5.199042872756019 -5.611841570834589 -1.140816663032658 7.734615392348566
4372 7 0.0006309303416252806 -0.005157905521998371 0.002522131179902452 1.182870373072748 -6.002191848438502 5.179180419802676 -0.135256554071313 7.928966587251346
4373 7 0.00416507832910936 -0.006184638283308559 0.0009826512334472465 1.182941183103021 -1.818663416065106 1.708369662618406 0.2114673086683693 2.504152940162396
4374 7 0.002960120054030405 5.480721832668104e-05 0.002416435052540253 1.182881657630332 -5.91968512398284 -0.7163999254665734 -1.283516406564272 6.099452039833735
4375 7 0.004638323305043292 -0.002652594635503863 0.0009679597454301052 1.18292294227115 -2.927729374722207 0.8124606961384756 -0.02162499406681131 3.038446858964213
4376 7 0.003441867503417575 0.01031054227782883 0.001022356187801271 1.182977892743504 -0.05537651552328367 -0.2767974792346429 -0.55435498164551 0.6220874927671725
4377 7 -0.0005113789178688947 -0.00575936130159307 0.002502143714750088 1.182854342467185 -5.139315586802401 5.394031247505678 -0.5503853007428405 7.470680141666591
4378 7 0.001592723039936851 -0.005565053300683083 0.001528748298549258 1.182898760285857 -3.054961575265159 3.432455030886275 -0.4440749784752446 4.6164640529209
4379 7 -0.005244393228869224 -0.001591166923394053 0.0009452954756143245 1.182561437099513 -1.780516067563627 4.351429046582147 3.919071115936882 6.120808004345653
4380 7 -0.00625603438471494 -0.009420058311672124 0.003020109240060565 1.182789208000849 -4.151189090477707 3.156586335719895 -0.3158991697589139 5.224576580471288
4381 7 0.005960530473297193 0.00179089297035631 0.0009771276063114454 1.182939694504083 -2.223739530138101 -0.2551153480452182 -0.1465243206028264 2.243116295521741
4382 7 0.001082319477668873 0.005485171415685303 0.002510218247869746 1.18289522473132 -3.686412847260227 -4.960008924306491 -0.3303920566320454 6.188738734243905
4383 7 0.001749837559667176 0.006247463345659447 0.002545642967277975 1.182924519578085 -2.87954042525816 -3.27334653174223 -0.521745232846518 4.390759463414376
4384 7 0.003926485632401293 -0.009394724036091507 0.003076445411337646 1.182972194546784 0.2695792261902626 0.6755688800745807 -0.4355310344718496 0.8477933432781148
4385 7 -0.001084589025994471 0.008270356506640569 0.002143160913988198 1.182921457871802 -5.920620260624962 -3.916453415146078 -5.429144177385789 8.936887496347605
4386 7 0.00156441900112587 0.006495289442608831 0.001545642967277975 1.182922971360482 -2.887080700442566 -3.272176622697003 -0.6010027613375527 4.404949391324271
4387 7 -0.002914638836096738 -0.007066001643493303 0.003011215664094502 1.182824167629742 -5.503036140687876 4.876233381875604 -0.6106398369775753 7.377936010209014
4388 7 -0.004197229507558901 0.0002402683001159145 0.0009462775142337207 1.182561795012367 -6.879053011595995 -1.904106312724573 4.394525644215155 8.382055047789303
4389 7 -0.001299270087161512 -0.003748605537009108 0.001012423499329184 1.182759602398735 -7.904001697274253 6.898417651225179 1.539682723343241 10.60339718249821
4390 7 -0.002544450273376516 -0.007477654071798006 0.00302209956589123 1.182846676021588 -5.778469023173537 5.216472075366689 -0.6988664953126114 7.816053962398617
4391 7 -0.008529286739116694 -0.007851133697545936 0.00150482198052527 1.182717097305927 -2.336148532633253 3.773831130123365 0.3700282445093341 4.453797510770708
4392 7 -0.001026925727051587 -0.009135020006456884 0.003051507514421589 1.182974727774618 -17.22052121931816 7.310296086409362 -9.921822133800463 21.17615013147413
4393 7 -0.01085585426152806 -0.00349559170710576 0.0009653003399928278 1.182621140706712 -0.2760692149312845 2.927989894850339 0.6100385124186968 3.003578869018174
4394 7 0.00216377506748502 0.008502518606463427 0.00300890895981974 1.182980495139849 6.410869627602359 -3.382648870675716 -3.329004226273574 7.976454845540431
4395 7 -0.005442191974438822 -0.00757629592625089 0.003076135308689473 1.182764000867104 -3.942366675316184 4.92436281057273 -0.3065816639437355 6.315504446159614
4396 7 0.00176637204711419 -0.006884314713784847 0.002165730038855895 1.182930380603895 -2.847355752405624 3.085764830300785 -4.725131146897747 6.321095136450792
4397 7 0.0115728824148216 -0.002434789670251857 0.001260076347435861 1.182973175255179 -0.2876959592294523 0.01395853629225697 0.04392168695116446 0.2913638966601955
4398 7 -0.008989499401221616 0.0004862994255446242 0.002976959484161108 1.182538275404296 4.219481971252866 -0.6887441695344286 2.600647656904461 5.004174744366778
4399 7 -0.01152756689549262 0.001300432653654477 0.002500066027638222 1.182594343084583 0.7402905943096584 -1.456847043945474 1.039068945418653 1.936516911056922
4400 7 -0.002951875690038063 0.00366830610759353 0.003468079990655487 1.182669202824297 -11.51551284888027 -12.33763034773114 1.917296991425363 16.98529324219372
4401 7 0.007534664689455581 -0.005028166812781771 0.001022964243589096 1.182961462466456 -1.139771599064717 0.5666084479558128 -0.1332401598522928 1.279795831969655
4402 7 -0.001751730725131169 0.01127577681884407 0.002471195732725476 1.182939004887302 -4.044684799820241 -0.6859966927256863 -3.444578171869555 5.356788718481222
4403 7 -0.00276072510139958 0.01058074399088854 0.002451877118430524 1.182903425777346 -5.7013126359982 -1.480010823395462 -1.831382412260083 6.168416275730426
4404 7 -0.004937332054162493 -0.002168187032799937 0.002428671695275972 1.182520976972562 -3.020241198809233 6.796002099944336 16.17475162045306 17.80253047813095
4405 7 0.0002987256573405128 0.002212805759928357 0.0009636832297929585 1.182800955327997 -7.95284897786975 -3.128853556652017 0.598683373482046 8.567143819585484
4406 7 0.01014194665263948 0.005176678288542658 0.001002291852417224 1.182974023056432 -0.3101837939632998 -0.185628774206912 0.04536187855664841 0.3643209133129962
4407 7 -0.001455130010410614 -0.008083107200891834 0.002501576762034022 1.182914232132744 -6.590806503639548 5.861842181105739 -6.380068657208771 10.88600937879927
4408 7 0.0007564965316718608 -0.004732275327248853 0.001522131179902452 1.182861960640328 -6.00811272369604 5.176689465213482 -0.07462248382910915 7.931021424443595
4409 7 0.001505966304370675 -0.007492341475502409 0.001665545866916809 1.18293511993587 -0.7257931675544886 6.687257623795619 -1.853031112091454 6.977099293507317
4410 7 -0.001047568202032351 0.006724695731448503 0.002218003547380123 1.182878311834898 -5.131807865175676 -6.451343584601553 -5.037002021084803 9.660573242415325
4411 7 0.006414918316919507 -0.006002015003816235 0.001471720901079763 1.182958035314204 -0.894180958694504 1.140657988810726 0.05890447566451974 1.450561950274053
4412 7 -0.001936182597483214 -0.003831480834495822 0.002497903328522168 1.182728417358342 -7.073923612093419 7.835059442782105 1.539077561225404 10.6675822697146
4413 7 -0.00767260136629986 0.008290645293620953 0.000991478186792205 1.182742558991771 -3.202639798042285 -3.554455899039181 0.2044830975395291 4.788827805569764
4414 7 -0.002361133374340176 0.00635935313821554 0.002488940827172659 1.182819814841698 -6.099711805271132 -6.510681263376871 -0.1857397358703062 8.923561725574146
4415 7 0.01109162036934551 0.0004412295861563017 0.00251452280866814 1.182972542495172 -0.3316656475826796 -0.09038732772278826 -0.01358480711426438 0.3440298210673556
4416 7 0.002396197714663761 0.007663098066286131 0.00350984695714963 1.182971214118794 3.546786796881301 -5.068919871524307 -2.940309110728788 6.849749113150074
4417 7 -0.009091947256617355 -0.0064704247453077 0.003009340024627295 1.182682752215687 -1.979330773435664 4.25213518620765 0.1402771569736667 4.692342872512963
4418 7 0.004449919641191625 -0.001925392741871967 0.001458342093180272 1.182917410601718 -2.77722587683608 0.6427943803557532 -0.1293794481104369 2.853577969493427
4419 7 -0.00700033184922675 0.008831866717736872 0.000991478186792205 1.182765352779879 -3.433784723165953 -3.736883277726291 0.2065776702956939 5.07915824623166
4420 7 0.008875458330538013 -0.002982096728326845 0.002526526342125056 1.182964465299052 -0.9274939871034455 0.2150870991928975 0.0005456571451800618 0.9521070602059318
4421 7 -0.006431154542190654 0.004295523870826302 0.002501812722756835 1.182625643158834 -2.768314811766914 -8.735292996705676 0.9628423421362711 9.213901237323622
4422 7 0.0003080366348336228 0.002705521953870703 0.00243810546753436 1.18280599296937 -7.911972398390411 -3.460240195249485 0.8566210494919023 8.677924237059489
4423 7 -0.009579921375358543 -0.006140993959022596 0.0009987931082838159 1.182672576842816 -1.724811185077625 3.880913106169207 0.4794213113987182 4.273909797320022
4424 7 0.009200908843577747 -0.00657695106001599 0.0009785512723438556 1.182970926380187 -0.3139837985367795 0.1929299086225336 0.07000540913640564 0.3751113603892045
4425 7 -0.002463790236544573 -0.01085423913250699 0.001079331923003989 1.182903509642614 -5.365937866478887 1.382094066496379 -0.9686868845573031 5.625106885728467
4426 7 -0.008809222525513785 0.001050824609482706 0.002474644815203773 1.182550728855621 4.670436689688927 -3.546579250748743 4.025093886906333 7.112846410027754
4427 7 0.006960330700467429 -0.004885574608019532 0.002525046840816286 1.182957047692931 -1.543080183470258 0.5594111325275631 -0.1354585816768012 1.646932389372517
4428 7 0.009134734484471347 -0.003771062496835511 0.002506776661344121 1.182966913626518 -0.9598878402620217 0.3103910205522845 0.001727526232870254 1.008826167319852
4429 7 0.001096685340986938 0.01106500073752997 0.001014083849701872 1.182973430203074 -0.8856822905450132 0.279795187281331 -1.155021287436174 1.482158102579334
4430 7 0.001196993300744508 -0.005200693162374321 0.001028564126610171 1.18288381435485 -3.25299175942511 3.563014758467704 -0.5557030521304389 4.856525037317673
4431 7 0.01124177565033212 -0.000195583875530145 0.00300032416646345 1.18297268506701 -0.3509891879836912 -0.02773172280976948 -0.05698938407429532 0.356665457296633
4432 7 -0.0002741179466311615 0.007335002224977571 0.003684724317412645 1.182958061561369 -3.312549446402822 -17.24119901584193 -11.53164827723332 21.00501938415079
4433 7 -0.005454933087856779 0.007285707718750896 0.0009960983498710201 1.182760720035498 -4.236753612763358 -5.476644360654574 -0.4669758601838369 6.939868952822334
4434 7 0.002483210757201557 0.0004998737026284702 0.002926052704790087 1.182873018622715 -5.633368050532384 -1.30958790548048 -1.589429926561544 5.998011634399289
4435 7 -0.002197492918422739 0.01075328462504147 0.002963134084748679 1.182930352478335 -7.388606517712124 -2.321519565169059 -2.416810539286568 8.113071708536012
4436 7 0.001433366434892154 0.005076099664119182 0.002962708170660113 1.182892942119848 -3.879208903613959 -4.539701443933122 -0.6329238428671851 6.004810031033126
4437 7 0.001681252889077119 0.01144257352910455 0.001507536742058174 1.182978246855709 -0.7004112823015752 0.2215201048914448 -0.9586110557283031 1.207717797091268
4438 7 -0.003403862219409719 -0.008546647138486765 0.003498222009680793 1.182850205309802 -5.670256168743185 4.723397950731136 -0.3998757319920697 7.390682906279867
4439 7 0.009622462597332068 0.005728256668119394 0.002511684560681945 1.18297402449397 -0.1797236440453974 -0.2389754280867165 0.005432123559449438 0.2990641259404933
4440 7 -0.00636523905143448 -0.0003703175159717733 0.002415347369735696 1.182461398124965 1.134857849938349 1.8389124146712 21.14125452622435 21.25140334544992
4441 7 0.002618476592977577 -0.0004815254515136937 0.002999145403423707 1.182875587880585 -5.568491898032106 0.9122698381316714 -1.834239505980921 5.933361007162394
4442 7 -0.006479298908832115 0.004853022821388173 0.002980715523344829 1.182648338166301 -2.687081540433474 -8.522308754465605 1.148940381141456 9.009451576583167
4443 7 -0.006226152540852102 0.006046557616056331 0.001480110689766379 1.182704866408022 -1.561191407080967 -5.683768659862701 1.42763857050089 6.064709117209392
4444 7 -0.009120998816749021 -0.006306810357148104 0.00150004991842619 1.182679959724679 -1.96656811867169 4.092020964160476 0.1372561777977094 4.542121199929431
4445 7 0.001806170545837412 -0.006501231454391481 0.001478270704596452 1.182918480933231 -2.939218553683599 3.041892661338716 -0.4180011555497078 4.250510749952897
4446 7 0.002730018042346282 -0.008744428120153106 0.003003518555904883 1.182972427805508 3.597087016352768 1.857400377180867 -2.331020991692666 4.671469793124766
4447 7 0.004818998955288648 -0.003501940857023663 0.002984079529240556 1.182930281960413 -2.212929072043607 1.944834413257699 -1.033820854864512 3.122214203548499
4448 7 -0.006234736840113471 -0.006989543331651533 0.0005619832972154113 1.182735717924706 -3.491759344460909 4.570019191378143 0.6625488936279 5.789337592993015
4449 7 0.001526062259831507 -0.009807592457726267 0.003001096626265648 1.183001072314852 1.37583419658245 -6.737361031924147 -3.200310067510872 7.584651471174342
4450 7 -0.005398393555746431 0.007682189800379276 0.00299609834987102 1.182773336578925 -4.237144060838959 -5.388991181965746 0.5486142849057877 6.877179173557289
4451 7 0.0007300228044292098 -0.00659800935122795 0.003484699105247369 1.182921372675916 0.08550604213453843 8.400049369785028 -2.28467841391727 8.705624397657351
4452 7 0.001469292345374056 0.005878199899459768 0.001035796010128345 1.182908243655102 -3.030065818629717 -3.537029159818609 -0.7300955758284442 4.714330672797526
4453 7 0.009393784111280067 -0.006071034618575747 0.001466394981212506 1.182970749701661 -0.3133093296465392 0.09738503429614161 0.03724635751707463 0.3302027742111113
4454 7 0.00965260105222885 0.005662756642138638 0.001511684560681945 1.182973951296125 -0.1797405152871791 -0.2384671069388748 -0.01184676251443013 0.2988537430074629
4455 7 -0.001321975769615248 0.004147776827434611 0.000968931200092136 1.182778399957879 -7.252496782147826 -6.877554086918764 0.6198469772365834 10.01417345909022
4456 7 0.0008891048430769233 -0.00704879501108602 0.003172158439506812 1.182935667497434 0.1708720918205782 6.858965320122568 -2.788100413117779 7.405950745720278
4457 7 0.0005748654098713881 -0.003162696394771114 0.001530003366347784 1.182820518669953 -6.029245967370993 4.31942280648366 1.222095084437541 7.516830230332261
4458 7 0.002790425248592836 0.008307697482450697 0.002495259388772365 1.182968542998897 -0.8580512686413442 -2.758892084426404 -1.485650011958638 3.248829554033328
4459 7 -0.002998230571503817 -0.003343087564148675 0.001487712494891534 1.182676681269201 -7.489959580904828 7.94105707312753 2.351043300985778 11.16634616001881
4460 7 -0.004122477111360785 -0.008306789279496933 0.002499712129038918 1.182820085219648 -5.474442100717352 5.17044959657266 -0.2059982584748595 7.53296094688534
4461 7 0.01132646240659159 -0.001965248188136354 0.001760400513899311 1.182972526679352 -0.2864161078004103 0.04818623944465069 0.1360144169885016 0.3207117430155551
4462 7 -0.003301767871337759 -0.003475348235549123 0.002487712494891534 1.182650003263169 -7.654697216650996 7.859056582061879 5.005264021947587 12.05868267133925
4463 7 0.0100773574175863 0.005217898997351763 0.003002291852417224 1.182973987006573 -0.2681718234870409 -0.2005747177998751 -0.04447898318959469 0.3378235105472152
4464 7 -4.517215352481938e-06 0.007412760424124951 0.002718975887317789 1.182940430522248 -3.910056904127062 -5.870677717819975 -3.878705637047153 8.049705539886599
4465 7 0.0009235617060387848 -0.003686019517710493 0.001037432074655083 1.182843776091565 -5.73132936566352 3.00462976468467 0.02157978947916195 6.471197880443777
4466 7 -0.0002875733922334962 -0.009617781639720201 0.00154247301219235 1.182947516072109 -3.728080610939016 0.9320250382544926 -1.82495764370134 4.254142230214765
4467 7 0.002011045715327301 0.004417126543825411 0.002411084775445764 1.182892652263163 -4.778193497857551 -2.669480373432887 -0.5731984112971574 5.503254944650951
4468 7 0.01064558011598782 0.003922459764722996 0.00299911005444434 1.182973502621278 -0.2773549034859864 -0.140450014513661 -0.05252391295209372 0.3152946407670253
4469 7 -0.002839348615556951 -0.0002446445451834943 0.0009668508607305023 1.182616397821546 -9.551990750773493 -1.738453665856149 3.391705061419096 10.28427983258171
4470 7 0.0007021762363079052 -0.004635794072861531 0.003037432074655083 1.182858125679097 -6.033023922549216 5.316328082060265 -0.01195508409762917 8.041197973572686
4471 7 -0.006499561298388166 0.006263328946490224 0.00248011068976638 1.182705425984107 -1.522520955304964 -5.658035538967946 -0.01338861229609353 5.859318686887261
4472 7 0.003741831153980668 0.003922486426704768 0.003448376604785651 1.182921268821891 -2.755134795375312 -1.178703498762703 -0.6480000619650386 3.065944187194198
4473 7 -0.009950409763150583 0.002254710567498724 0.003497685331042665 1.182587291341822 1.713679162331311 -1.786861680566006 0.7552011952963535 2.588416462291328
4474 7 -0.006589165514316105 -0.005805210508707665 0.001552172648790051 1.182692420048227 -2.780342026581218 6.917231783206513 0.1336987140660539 7.456290812027051
4475 7 0.005610312725595717 -0.003037405443883875 0.000988045410643928 1.182938492828507 -2.32089286711104 0.5863413344706817 -0.1655420222010223 2.399529958602344
4476 7 -0.0004565490883359153 0.006188434202842251 0.003547510077209633 1.182881170759337 -6.444738908295546 -9.002293726245785 -1.937848218094375 11.23971563902193
4477 7 0.002049022467076844 0.006854179442409229 0.00350984695714963 1.182948907622764 0.8402134788595007 -5.127515645647529 -2.060996963165997 5.589730214294501
4478 7 0.007391295417220305 -0.008433519648133162 0.00248973028823301 1.182970823347977 -0.1772968201923542 0.289423594352637 -0.085343860542478 0.3499767905884813
4479 7 -0.002445954357398512 -0.009683257795378262 0.003070252327959589 1.182898924052681 -6.515108004590561 2.110979778268763 -1.242183402580328 6.960308006215363
4480 7 0.004243748015798304 -0.004623514452973328 0.002484263701179643 1.182929543164289 -2.282162591824224 1.85454340980418 -0.1720002796134285 2.945705594684756
4481 7 -0.003453622720157994 -0.003699253177607175 0.0009688560488546312 1.182679761507297 -7.610919474947313 7.872393723937957 2.228784649798057 11.174442232792
4482 7 -0.0005539461348441553 0.0049468524390894 0.002975273447178049 1.182830493781646 -6.799935184296644 -7.012965228913759 0.3178125316479352 9.773525700475817
4483 7 0.006741142885864904 -0.001034790919847569 0.003485962813416739 1.182946322470939 -1.383521516439622 -0.03104478142582141 -0.1805468206212017 1.395597620856954
4484 7 -0.008930648754517448 -0.0001748198188070641 0.002413113628383117 1.182549308269293 3.807567801328396 2.358737505268936 2.937871795830707 5.356519940148886
4485 7 0.001834465244979255 0.008492717912306833 0.00300890895981974 1.182995852671627 10.76307984374563 -3.724009035484936 -2.884931675332169 11.74882810285995
4486 7 0.003512320193465972 0.00517213597266577 0.003488285932918712 1.182931079143751 -2.574132079153186 -2.464299370974839 -0.1053220989143578 3.565111512313776
4487 7 -0.001668270978115974 0.000684088726150776 0.0009642364559662962 1.182686466685113 -8.868788619747058 -3.668676435370786 1.220324927741777 9.674905234598826
4488 7 -0.004973502950665626 -0.0003746959309118335 0.0009462775142337207 1.182543611814187 -1.974143965634647 2.223283638783465 4.507073638447736 5.399439537389455
4489 7 0.0006757704863847155 -0.00792692009790707 0.001166936530402236 1.182935571892302 -2.088119180606699 4.314343675888067 -1.723518097410092 5.093556488171409
4490 7 0.008503091852903464 0.001614965633151225 0.003474896871125994 1.18296105806325 -1.208981257259795 -0.3473769741016266 0.1971108069566193 1.273247467211526
4491 7 0.002926755433157404 0.008717996579974756 0.002985412431622735 1.182980158381593 -1.570889989491279 -3.785433226405136 -1.911383241288148 4.522232409522215
4492 7 0.007461556445590749 0.0001720859821182621 0.0009551972495868398 1.182952869375994 -1.571163881742058 -0.04495913708797999 0.1812296777042108 1.582220421868976
4493 7 0.003484691532575222 -0.002024581185784835 0.001464433118672405 1.18289815043675 -4.945508406311446 0.8699431753536613 -0.7470564345649398 5.076706397032082
4494 7 -0.005175117512642876 0.0035191603412241 0.001510762086654348 1.182617641125714 -3.055378069681931 -8.588873083586718 2.198105751301613 9.377406085296665
4495 7 0.006897346384009342 -0.005434822316696 0.002989253839571604 1.182958456841424 -1.612291244974828 0.4959778746542336 -0.1018094787039914 1.689923749973054
4496 7 -0.002068109415413338 0.004318382960997 0.002968931200092136 1.18274498900621 -4.63465715961563 -7.595040543750197 2.035506507782092 9.127320230582958
4497 7 -0.004490077339502452 -0.005986072623621145 0.00253480123429246 1.182736708730319 -3.945004424094091 6.178993067404733 1.587738810735662 7.500928593465878
4498 7 -0.0005048053910463754 0.010689127822181 0.003503163597645245 1.182996408174325 -11.06909234221183 7.650396860731099 -10.01963488474112 16.77636613306404
4499 7 -0.004234101707932279 0.00667106104041245 0.0009998748578642824 1.182771952170915 -4.758380590656599 -5.775490151931837 0.1059497897359879 7.483962700237367
4500 7 -0.0006371366408590128 0.0003438862632473811 0.001472999511639836 1.182731631540747 -10.50958855009574 -2.94881047654727 1.180198103558569 10.97906199465791
4501 7 0.006226353611169008 0.003108124967704718 0.0009957158451139514 1.182945585737241 -1.889303012991738 -0.6536616566169916 0.1650564433795084 2.00598680597157
4502 7 -0.0002393061148389498 0.005406949716143096 0.002522783524387682 1.182856648458879 -6.221338496690074 -5.480958240887413 -0.2831745049678314 8.296152344853205
4503 7 -0.007498231218683456 0.002805279276406056 0.001018782530454672 1.18258825914621 1.754726296809042 -2.612339751326184 1.910819596549488 3.681659256860916
4504 7 0.007189702991537672 0.006879198969630556 0.00248416494704801 1.182970162611733 -0.7298990643372519 -0.6081976401237853 0.03624673118851211 0.9507738106902133
4505 7 -0.0002796794416045744 -0.0001068484196574952 0.001000120002470811 1.182746927959871 -10.41691623087869 -3.591069645666588 0.8785272296704135 11.0534942463659
4506 7 -0.001833026600132864 0.002109581325647054 0.0009409594998245125 1.182704994073339 -8.31409209183594 -3.211783682237907 0.4712526224335876 8.925343733838442
4507 7 -0.0004934433777775312 -0.01058770779606266 0.003062995816049558 1.182981299619848 -6.867101980674445 -8.212960438004345 -8.319973619636833 13.55845750078748
4508 7 -0.004894822246665926 0.01073763789517757 0.001507558788897939 1.182845572459082 -4.181686558776594 -2.054136340268667 -0.3149663424004719 4.669601950606745
4509 7 0.00635462037641821 -0.003073551312438553 0.00152383841188861 1.182946366759802 -1.540740535615569 0.5209905096771212 -0.008240139134419532 1.626462544651899
4510 7 -0.003740105764049346 0.006923504858909815 0.002999874857864283 1.182793036327169 -6.628519700622578 -6.65242117713758 0.1022567876977809 9.391615270559184
4511 7 0.003209552084782962 -0.002568157522653134 0.0009740507709222384 1.182893301760252 -4.41918911132017 1.366514555663795 -0.05715221614048199 4.625998358004631
4512 7 0.007322153523129021 -0.005663793038293979 0.0004871712423444145 1.182962306492293 -1.035838864887784 0.8055220044765092 0.07698554989789988 1.314440804525235
4513 7 -0.002919886279015023 -0.005861358851522549 0.003485479829192984 1.182779225179885 -6.130575163235877 7.732439814301508 0.1058664040475916 9.868423633457661
4514 7 0.001307122404923384 0.00524374439154867 0.001510218247869746 1.182891898007375 -3.680137829652987 -4.98367727146849 -0.1558675811227039 6.197156468432894
4515 7 0.0002051406592522956 0.009898779953295109 0.003503163597645245 1.18305549333311 -0.3154060016741401 9.295800889057658 -6.637416591583677 11.4265784084794
4516 7 -0.006364889775138211 0.008440102863819089 0.003499395166421551 1.182770197358158 -3.5946419641438 -4.217957417293747 0.02118958966781385 5.541936901769744
4517 7 -0.003884697654985418 0.008278707172834134 0.003496703183449469 1.182834157338617 -6.190027029250273 -5.788434899375477 -0.02081554344667699 8.474836074757194
4518 7 -0.007248480285479314 0.002065653230166699 0.001493544738208785 1.182563615258885 2.314565224595873 -5.112271771476095 1.964998881672495 5.945902408324075
4519 7 -1.954598484239849e-05 -0.0007521132627046271 0.001492691294163512 1.182761254420873 -11.20981661858555 2.41384771868158 0.7307370225887453 11.49002289064225
4520 7 0.007091529546956398 -0.002211065613415292 0.002529349204311007 1.182950786283489 -1.634448601369081 0.4391006351627295 -0.1128872369645286 1.69616482883803
4521 7 -0.006485591341302475 0.004529193994214025 0.001501812722756835 1.182643823609149 -2.768346317259747 -8.685463511760787 1.972250390802585 9.326885297377393
4522 7 0.002590680899036457 -0.007788941836864307 0.003493387427409996 1.182962290462295 0.7986338575476976 3.856983274593312 -1.13842179136747 4.100017096790498
4523 7 0.00207140635506345 -0.01143269784110537 0.00251095159633068 1.182977988604101 -0.6239897453843004 0.09350312242151931 -2.249187109351452 2.33601127760978
4524 7 0.002167885894180466 -0.01091514696908328 0.00100417388874539 1.18296821964878 -0.9015828246376154 0.01228985503828996 -0.523429006355205 1.042583596126661
4525 7 -0.003941154794292276 0.008832052419189476 0.002985446217131314 1.182842926000707 -6.995637461319073 -3.216808027306676 -1.147511780445224 7.784830162631424
4526 7 0.01105020123291672 0.0004471498378409892 0.00151452280866814 1.182972516869176 -0.3313289227538887 -0.09140861435550793 0.02975634388600126 0.3449925069231334
4527 7 -0.002706208996404751 0.01054656814485493 0.001451877118430524 1.18289817174928 -5.692957280047302 -1.457601449988948 -0.5912827486264749 5.9062661528479
4528 7 0.001633663900608202 -0.01026738111769739 0.003001096626265648 1.182987224650848 0.6243044388782161 -3.667855799999542 -3.473751419151196 5.090173977777997
4529 7 -0.007571161075927368 0.00470150248666887 0.003485561219539678 1.18263197433073 0.652343147041055 -7.763626127238984 0.8354562638514883 7.835651178673531
4530 7 0.001180568016201367 -0.00475561321799535 0.003543865021362802 1.182875978244791 -5.166232111172737 5.410806376360731 0.5468633929758258 7.501055888310344
4531 7 0.004334882076467477 0.003899803695230076 0.00292187571998382 1.18292858254805 -2.953357226449949 -1.084044852074286 -0.5517974524349806 3.194049557669171
4532 7 -0.006948205725809984 -0.005367217759241634 0.0009901893515746399 1.18267550689301 -1.170913075091518 5.563266215549344 0.960491291938569 5.765718683423847
4533 7 0.003723496867214716 -0.009226970940673235 0.001076445411337647 1.1829669879904 -0.1712286429942501 1.159870707113958 -0.6339184198467321 1.332843527359331
4534 7 -0.0005454622058788036 -0.006346077086362346 0.003008576661457806 1.182877743292246 -5.946074172878629 9.427522298241199 -2.395540874818882 11.40055221628046
4535 7 0.004311588168222477 0.007213425651124723 0.0009777418260508621 1.182957329404537 -1.290708060776263 -2.155130215680359 -0.3669832774962499 2.538737928706541
4536 7 -0.007927607008399007 0.008517461639534115 0.002496663237337124 1.182743446637635 -2.725201884738686 -3.183086550736301 -0.1695748999173969 4.193747840386163
4537 7 -0.0005144829194494849 -0.001088026992912903 0.0009839282384899719 1.182739994738676 -10.57216427939236 3.028432980960993 1.570097606513148 11.10888249846088
4538 7 0.0001039518568480305 -0.005548917433682088 0.00297826615853965 1.182866261043921 -4.809026136682565 5.472401365947051 -0.4724730630458949 7.30048901708777
4539 7 -0.004532922744136213 -0.005595196067550745 0.001047463126408396 1.18272733999882 -4.122116737979276 6.211812074179452 0.1659424502315562 7.456942573417029
4540 7 -0.007172286616630671 0.009162574788179421 0.002502239622979357 1.182767254996654 -3.179856933350527 -3.541580364569605 -0.1437466338766372 4.761821572679226
4541 7 0.008502705257416632 0.004358863129510426 0.000990260252809102 1.18296717128022 -0.9582509335212633 -0.4407512211808677 0.1116012449994222 1.060641941680707
4542 7 0.002718029385324934 -0.0001913293703059423 0.001416435052540253 1.182870989312002 -5.806160833430959 -0.41587242478066 0.4857804768619873 5.841270081845291
4543 7 -0.0002606456696686 0.00823822598886396 0.003171465810108156 1.183007352597963 -5.199681962182113 -13.80304873906552 -10.39211586020576 18.04319592125521
4544 7 -0.01019211614307442 -0.003235610620201901 0.0004884823834188663 1.182617679816815 0.6057231551995843 3.060857057861393 0.2992088282832218 3.134529054312221
4545 7 -0.01085470691187669 -0.002924439459016074 0.003013201435703267 1.18260823798263 0.1609633388674669 2.799148718793166 0.2428290090712147 2.814268763644882
4546 7 0.00341900869804419 0.01094555193279511 0.002515809080157572 1.182983720297134 0.005774599575673755 -0.345144144384587 -0.648377121762249 0.7345411618336486
4547 7 0.001594787179494044 0.01159453259351609 0.002507536742058174 1.182985576999985 -0.7310906139227041 0.2439569030145279 -1.923191940055609 2.071877335796976
4548 7 -0.005820882342946098 0.00560175100163561 0.00349515430380515 1.182687516179973 -3.34589749330758 -7.637867116250789 0.8246153671225928 8.37926217664311
4549 7 -0.00408338754378254 0.006796346190904095 0.002999874857864283 1.182777775908885 -4.907225450913389 -5.843645963834788 0.2227446566385664 7.634047089113071
4550 7 0.0003289426408027181 -0.01150623067739775 0.002997743205356052 1.182975136555282 -2.009456766995933 -0.6008044133166434 -1.819874294060334 2.77683720942876
4551 7 0.009027519788529391 0.004826654421498747 0.0004913716355457505 1.182970644784855 -0.6363671271136488 -0.2996687644644128 -0.03441878324544534 0.7042365664367362
4552 7 -0.0004926953039760156 -0.00572008496515424 0.001502143714750088 1.182851735973918 -5.110298894759046 5.394762507912177 -0.1777769954230902 7.433049305006127
4553 7 0.005784621429897409 0.003550185072965493 0.00146921496031212 1.182943415091699 -1.602168031238431 -1.152825901722866 -0.04252573889856037 1.974274144711022
4554 7 -0.001052306738099947 0.002728734176833166 0.0009409594998245125 1.182750579576696 -8.217356801936821 -3.13773034839845 0.4699393852983273 8.808583744022224
4555 7 0.01167136904737862 0.000945305671881822 0.001333748833021321 1.182973746196493 -0.2651255083354883 -0.002362602186461039 0.009394420444000618 0.2653024164886577
4556 7 0.006427104118471396 -0.0007026256999461122 0.0009662631918775845 1.182942835553668 -1.974014499663898 0.008786034634752967 -0.220370612657649 1.986296464833742
4557 7 -0.003922438281069275 -0.005415828766973165 0.003485479829192984 1.182721307761767 -4.556377334259601 10.8297013770835 2.384431472883472 11.98868298762779
4558 7 0.003110158840566064 -0.007619256270602327 0.003493387427409996 1.182958513893882 -0.4604362393504934 3.368409086409255 -0.8841820378329226 3.512827803912119
4559 7 -0.007083881987335765 -0.003545173466275425 0.001457645457994155 1.182609683505728 0.5517916407242613 9.145393877731701 -0.4114243394853854 9.171257993358743
4560 7 -0.009355850019310377 -0.005953426285347188 0.00250004991842619 1.182668707748409 -1.966177120880882 4.094648038322639 0.2024389983169072 4.546754510247328
4561 7 -0.003571776056841263 0.008730170374688742 0.0009854462171313139 1.182844431921727 -5.144537527288658 -3.737271341774813 0.05128391860849181 6.358938078959446
4562 7 0.0003346248839014096 0.0055667097710972 0.003021932314951034 1.1828803986026 -5.537370609506232 -5.384986493827144 0.01560826460928386 7.724040161964999
4563 7 -0.009020439224828241 0.0007864559079582622 0.001474644815203773 1.182566496771182 4.575511666527365 -3.491464911942556 1.672561341832213 5.99358788073101
4564 7 0.00320006988611354 -0.008500994918029662 0.002569832838747642 1.182965672920956 -0.6718611505341162 1.748156940749381 -1.154334368018526 2.199985892744768
4565 7 -0.00684317412063202 0.009432358570525309 0.001502239622979357 1.182779035258093 -3.202485883637714 -3.550421284728573 0.4746342175232733 4.804860536414814
4566 7 -0.006588236452862426 -0.008989348722589503 0.001006796964985499 1.182776355349698 -3.610788210484276 3.471055886846609 -0.03382754454648731 5.008708892854004
4567 7 -0.001943690815431261 0.005877288483610991 0.003500851209436649 1.182814668371526 -8.332338881516375 -8.588793988353201 0.4590657624276965 11.97522420604454
4568 7 0.01119490956794535 -0.0002151286128157549 0.00100032416646345 1.182972690060395 -0.350049947607109 -0.03056356567943001 0.07414134180845862 0.3591184149162213
4569 7 -0.008270764029473465 0.008246023997764085 0.001496663237337124 1.182732433110967 -2.726771721492911 -3.186196432275923 -0.2983491297758896 4.204300646887573
4570 7 0.007010479106013955 -0.002441280731372157 0.001529349204311007 1.182950336954246 -1.637934319549335 0.4472413799443403 0.008968540980338098 1.697920528711334
4571 7 -0.009177296727290415 -0.00709084570658754 0.001520260241498754 1.182694968084598 -1.904799960199115 3.347656669297235 0.3987880391067615 3.872221579920165
4572 7 -0.002693804149407937 0.003996775014647452 0.0004680799906554873 1.182723504573805 -6.420571322702971 -8.233797374232848 -0.134496860573695 10.44209005493362
4573 7 -0.004090669559555864 0.007221110000477241 0.003496703183449469 1.182792538943155 -5.686265397805252 -6.814366383265805 -0.2974516719336753 8.880184732132353
4574 7 -0.00199288781652725 0.007399158227488749 0.003484917943321196 1.182876602873816 -8.336146103764234 -7.747756288734672 -0.992781507763987 11.4238642540556
4575 7 -0.00058565232534863 0.0002839132830715498 0.002472999511639836 1.18271879025514 -10.60623104613291 -2.797495476378222 4.215302663159067 11.75103801739856
4576 7 0.004123928501979244 0.004851871118946822 0.0009617850481168804 1.182932234633975 -2.308250418390297 -1.824486740939634 -0.2773812420804596 2.955285471036869
4577 7 0.006962599951900456 0.006996168212549805 0.00148416494704801 1.18296968881719 -0.7290527950979617 -0.6114193376064774 -0.02254652745401935 0.9517667415598892
4578 7 0.0009530461325394296 0.007257668018882303 0.001544098527054774 1.182932392596135 -1.7262816008901 -5.29065050493016 -0.4917629374543016 5.586847207284546
4579 7 -0.00158625287293673 0.00822870948642127 0.0009716951038800418 1.182893192554854 -4.996239010527705 -4.120385910830084 -0.7939191043638829 6.524591316608257
4580 7 0.008737533539329009 0.003412102780070984 0.000990260252809102 1.182966482570046 -0.9632932811569833 -0.3165007484222348 0.1158574846608198 1.020553588022674
4581 7 -0.0048816174253986 0.01065866626411557 0.002507558788897939 1.182846445544432 -4.179776834752066 -2.056806828645131 -0.2226174646008362 4.663748197988025
4582 7 -0.009168182929820048 -0.00710420005027578 0.002520260241498754 1.182694774973476 -1.909641713563393 3.339920994593699 -0.2093804596058024 3.853004529088155
4583 7 0.009333029085503422 -0.00606242974293982 0.002466394981212506 1.182970689023229 -0.3128257272237158 0.09704993033125074 -0.05258757156311179 0.3317289213699232
4584 7 0.002594040851113743 0.004472596910495283 0.002936662537704363 1.182907769268002 -3.424203239702058 -2.417592480703403 0.09029781759026168 4.192621486063495
4585 7 0.0002482016607874896 -0.00508401090249374 0.0009782661585396504 1.182855242118234 -5.93724506091844 5.192835794706886 -0.02110988883612448 7.887766992729703
4586 7 0.009817360308654934 -0.003888014212584703 0.002970983660099439 1.182970022465216 -0.6153091058819976 0.1719941452580509 0.1009784676645789 0.6468260451746183
4587 7 -0.002465692896761149 0.005843054663157055 0.003004022883851462 1.182794494924541 -6.869280915188249 -8.57428466123042 1.095197635500738 11.0410522870054
4588 7 -0.002482088367951441 -0.003755909596569779 0.001004336275229886 1.182716210619266 -3.527412779069576 6.538201471898722 1.980410903332174 7.688481433099707
4589 7 -0.003658472283686208 -0.002127487029141316 0.00147772657963178 1.182603477300732 -7.414979348044877 7.318268714912861 3.504218394175572 10.99174791694582
4590 7 0.0009002490697734148 -0.01131719265739733 0.002997743205356052 1.182980120250107 -0.9028835776245011 -0.26702224419552 -1.819767773827462 2.048915416580242
4591 7 -0.005291424400684465 -0.01044501721540569 0.002512585888725087 1.182827515581751 -3.79355438277869 2.942037713021057 -1.123075803501103 4.930308308853233
4592 7 -0.0111299430509729 -0.003500964089657456 0.002490019392277228 1.182617542662781 0.2032693634951392 2.683724089617555 0.1236900510836081 2.694251779634999
4593 7 -0.007063577630876471 0.003392387926003455 0.0005210971994120068 1.182606811661027 0.04063465758421833 -6.323351797282963 2.775167934974271 6.905648861251781
4594 7 -5.284942112031678e-05 0.0004089299622929726 0.0009816425648425651 1.182768189327011 -9.928061171845211 -2.354869588186824 0.7140348950583615 10.22847277166189
4595 7 -8.571667952332249e-05 -0.0007254893322001671 0.002492691294163512 1.182750261219011 -11.23241315870705 2.39507813767757 1.727555234225069 11.61412724834607
4596 7 0.01115579599484934 -0.001452080171812124 0.003112600375959656 1.182972319672595 -0.3207396876081697 -0.01798473723943803 -0.07030967806788957 0.3288477593211914
4597 7 0.007615747151388122 -0.002562734478537272 0.003043386390894268 1.182955631027875 -1.257654911178499 0.3362551729897454 0.2354956637757876 1.322959419117216
4598 7 0.001861082283660007 0.003848581424181467 0.002922798842527052 1.182883053165312 -4.592402774706068 -2.2578643477934 -0.7405657601193565 5.170740015048684
4599 7 0.000545931126161707 0.008586601357646158 0.003486741492695512 1.183041226149004 9.252697226041606 -8.439345398863876 -11.07279329547101 16.71651004493314
4600 7 0.004314550546560035 0.009194934754869906 0.003486350428952624 1.182979066094451 0.4931313005773383 -0.7886693057184215 -0.8505052214305253 1.260371724957388
4601 7 0.003587806218709334 -0.004669336228209773 0.002982181103952453 1.182921673753643 -2.54384482840294 1.964003257905672 0.05073490374595384 3.214191863986123
4602 7 -0.0006731368294479431 -0.01119824562700005 0.002539701644227577 1.182955747270276 -3.868217342064027 0.4828388685162437 -2.067860261767231 4.412741193474978
4603 7 -0.002177775434497012 -0.004592488519453988 0.003485479829192984 1.1827490832268 -7.573120530598905 9.102931708738488 0.7567482265300185 11.8654198469035
4604 7 0.002141567296148728 -3.645896721190461e-05 0.00350876305567354 1.182866948872968 -4.852625701338982 -0.1502222135647701 -2.630518193901104 5.521790369000681
4605 7 -0.000133035914928183 0.006991648249648563 0.003232234394622278 1.18292911409597 -7.42551255492248 -9.440132411400681 -2.231914206553003 12.21620962792887
4606 7 0.00473004092881822 -0.009312361117973228 0.00356631428284276 1.182972366677502 0.04586511125996798 0.6022904296925637 -0.5220895339904501 0.7983951726009544
4607 7 -0.01007296287997168 -0.002933277934396526 0.003488482383418866 1.182602314056412 2.895690894784127 3.57749745302432 0.9417088969844407 4.697906920234887
4608 7 0.001783776408965245 -0.008477238068912981 0.003687459334259444 1.182992330411665 8.916029746981364 8.542165915345707 -4.504213678738873 13.14352029853832
4609 7 0.000855566794230505 -0.007414446979518311 0.001172158439506813 1.182923411524785 -1.519212817101208 6.001605752262522 -1.87480452104706 6.468552479602657
4610 7 -0.000676099180792075 0.008775323175292895 0.0009735186532543568 1.182929723388343 -5.383144221951365 -3.144265654946429 -1.953793380246146 6.533142949293069
4611 7 0.003566309649175615 -0.005263436200222335 0.003500184171939087 1.182928447696115 -2.475610711062551 2.461005548362151 -0.2213233006141918 3.497739370678107
4612 7 0.004722191472451936 -0.004338905209360438 0.0009840795292405558 1.182932090965694 -2.526546328923251 1.262821470698197 0.1757865028036057 2.830027440435841
4613 7 0.005288541719101572 -0.002367459709552368 0.0004859628134167387 1.182931029898634 -2.542872747750322 0.8698184373606185 -0.3293470011341201 2.707629105394566
4614 7 0.006521923374793753 -0.002493265749088856 0.003021755814661421 1.182946950345403 -1.529082796088582 0.5176193654783661 -0.1476369195752181 1.6210554169534
4615 7 0.003745640441828126 -0.002233457263655092 0.002972379279763533 1.182911066715095 -3.023455734926748 0.6723008070062658 -0.5124654783538675 3.139409788904146
4616 7 -0.004155988286069275 -0.00605422586701365 0.00153480123429246 1.18275087367334 -4.148257874191831 6.268422533054527 0.1486731796718478 7.518195804716315
4617 7 -0.006684273107604851 0.001677566652123335 0.0009958594071661202 1.182556129024045 -0.3828111218545204 -3.590362470281101 2.657714703991071 4.483379804436479
4618 7 0.00712104146151419 0.008855037585448115 0.003006675013507022 1.182976690215317 0.04680436532855158 -0.450243272960845 -0.09315078487969869 0.4621544354260883
4619 7 0.009066468619268438 0.005206110982661762 0.003000764343810471 1.182971958071231 -0.5768145100296204 -0.4379870288397781 0.1539880849530707 0.7404457756784907
4620 7 -0.006329183709209141 0.0001636125885201034 0.0009455458080546029 1.182535039840117 1.053951127709517 1.357154779303176 3.959004359282571 4.315831042963106
4621 7 -0.0003788056413731203 -0.0102335105848988 0.001062995816049558 1.182945640582248 -3.528249558936583 1.586795518601525 -1.494763891776903 4.147382796433205
4622 7 0.003256194728779999 -0.001980976842445981 0.002464433118672405 1.182896199898358 -4.94693321059169 0.8714952476889201 -0.8657543902721849 5.097174003413553
4623 7 0.0003426576834157826 -0.003542167224400836 0.0004935670532922815 1.182822020294714 -6.346933737326115 2.913749814322547 -0.441054171153231 6.997716386676784
4624 7 -0.006407772440207291 0.005615280403583914 0.002980715523344829 1.182682420962808 -2.288465946925656 -7.517572873496511 1.243311780765638 7.955928763052089
4625 7 0.01068769519183953 0.004955418344273558 0.001510030271315813 1.182974455731933 -0.2500460159693218 -0.2112659787582199 0.06301478494929739 0.3333574463020215
4626 7 -0.004459446643824208 0.003080607865937309 0.003494510583437191 1.182536776997514 -14.77962584961817 -25.31082563597726 12.11233656168212 31.71409673336143
4627 7 0.004081792521200166 -0.004468590156250106 0.0004819969320133665 1.182924329885746 -2.681165781338232 1.240025246445996 0.0933158581813124 2.955506793805526
4628 7 0.001403896393130217 0.008549479498784894 0.002495650452515251 1.182984763964486 -0.1994372982204436 -2.943848486848242 -7.838382390675647 8.375336270974092
4629 7 0.008760687528382313 -0.004156489456020573 0.003023636710113332 1.182965825548747 -0.9056016949534217 0.3997081036543658 -0.07936290113145386 0.9930656917371984
4630 7 -0.005635993368120616 -0.01051287454842672 0.003505957228586504 1.182822999515403 -4.906967473808958 2.787881498673297 0.2291541048549671 5.64828510642264
4631 7 0.01010271299597197 0.002866705053455695 0.003005570277750441 1.182971343695403 -0.712571895499853 -0.220104528208846 0.1293848267790331 0.7569313991339852
4632 7 0.006576964507667761 -0.007062003220671258 0.001480280564485621 1.182964435698437 -0.905156811367548 0.8018481880757902 0.01601548897680951 1.209349356378322
4633 7 -0.001613302994973469 0.007654844102384814 0.003169642260733841 1.182901623119254 -7.746852780415493 -6.993800799282975 -1.173086336107042 10.5025287037667
4634 7 -0.006857307888214171 -0.009451560645965968 0.002512754193572002 1.182777849742938 -3.397550074865294 2.66330644773289 0.4755997609951153 4.343125933980197
4635 7 -0.003141563596988048 -0.006269470806031615 0.002496695493287486 1.182785956953893 -5.807239953161988 7.040869745536021 -0.1994063070012093 9.128945477024013
4636 7 -0.0001728470049726979 -0.01130355635108139 0.0009676713259487805 1.182951906958542 -2.810652586372932 -0.1690395884128231 -1.490711608187884 3.185994890536037
4637 7 -0.001858353891572246 -0.003357531615640831 0.0005188564460369022 1.182727871635884 -7.188463668315658 5.996579508566642 2.487938957462457 9.686217836148169
4638 7 -0.006667998577987387 -0.004602666777295213 0.003488932541432266 1.182632800816368 -2.416558223884577 10.71441553727838 2.564747788337507 11.27902412324216
4639 7 0.002257871002503607 -0.0009791056130575067 0.002491199242332579 1.182863623774175 -5.411890028043358 1.584459934645218 -1.615264056774976 5.865845628146057
4640 7 -6.038612751614157e-06 -0.003018844101461457 0.0009861383449849825 1.182798762873102 -7.499456883516332 4.367419297504872 0.3950634442893682 8.687478344891124
4641 7 0.0001751977515306551 -0.005026805984545249 0.003493567053292282 1.182854013650269 -4.81506271199799 5.448935586699676 -0.4880868837625875 7.287932268797279
4642 7 0.007863760439025142 0.004853199758822802 0.003008281325528072 1.182965340584937 -0.9564820922845884 -0.6158847458407719 0.006599651810668841 1.137635956017776
4643 7 0.003638134753679107 0.004306143773118723 0.001410161652902531 1.182920593391076 -2.401196738238511 -2.170165026409962 -0.1292311652306374 3.239145367476903
4644 7 0.008571792543052462 0.004672819664692684 0.002499652961073823 1.182968411368752 -0.9524262427433347 -0.6175746005842891 0.004874629406286284 1.135137831791751
4645 7 0.002297305495526406 0.0002504628846154017 0.0009260527047900864 1.182859762862368 -5.875002283457064 -0.3190294242075901 0.397318558744843 5.897058049676891
4646 7 0.007181908935453392 -0.001502651366926929 0.002993556203066325 1.182950039403535 -1.616541063154938 0.5893481108006158 -0.1219386445694366 1.724936299580301
4647 7 -0.001921369885190611 -0.007236739294309741 0.003523877556210437 1.182876563473069 -11.81948870250552 7.052737354480763 -2.894754247036368 14.06488604755399
4648 7 0.008007597445666051 -0.005385848184107343 0.002510807952457747 1.182965542026674 -0.7795809204091738 0.5639285276366534 0.0007253753113161411 0.9621654337575221
4649 7 -0.0002459398175466791 0.004743376987090001 0.0009752734471780495 1.182835923326561 -5.894109121115413 -4.690868500469766 0.01933396124139926 7.532937237384409
4650 7 -0.001381306714237221 -0.008919466417836979 0.002549729524102382 1.182935784715758 -6.113371717607857 1.384120989858547 -6.221076260871371 8.831245354749916
4651 7 0.001832436925953001 -0.00501129048287156 0.001044049193301889 1.182890841678701 -2.801576232184723 3.63012383271834 -0.6583641440197823 4.632501675309243
4652 7 -0.006473414636338686 -0.009646193297435034 0.001512754193572002 1.182789253328475 -3.38605121605706 2.66217073061861 0.1006601182715379 4.308436873871353
4653 7 0.007887263909267889 -0.008114991538346751 0.002979088027599964 1.182971113045638 -0.2280449586353941 0.2795084890862987 -0.1052310882019832 0.3757699835730599
4654 7 0.008223109437541341 -0.008496842062946701 0.0004919167852555493 1.182971631500272 -0.2029234627505151 0.1324530010481218 -0.1019902922046629 0.262913957266072
4655 7 0.008246902991364812 -0.004853199356019801 0.003023636710113332 1.182965144270266 -0.8336014680727611 0.5011337376381095 -0.0809025501079506 0.9759977731461141
4656 7 0.007294359631613729 0.0009426310543440823 0.00295519724958684 1.182950957114487 -1.535871995817119 -0.7520062181002162 0.1784420607182512 1.719377128099018
4657 7 -0.003096504957968199 0.007654838741532412 0.0009816211267706654 1.18283539163359 -5.778519444673734 -4.221731460862022 -0.7380040032264833 7.194369562990418
4658 7 -0.006314519944904833 0.001186725278487791 0.00146664300746661 1.182534991668576 1.599690429150805 -4.821438408574516 3.575290887935057 6.211922627507984
4659 7 0.00879612719395614 -0.003760128685532509 0.001506776661344121 1.182965246765903 -0.9565569362324658 0.3093703749320984 0.03718861104376115 1.00602892300939
4660 7 0.005677042823852473 0.00536314848174199 0.000964890512296406 1.182953667136932 -1.57850838769018 -1.292170511144175 -0.1685776710004005 2.046902975482416
4661 7 0.00734029019521769 -0.008312160970270977 0.00148973028823301 1.182970319275345 -0.1739566740066256 0.2905297733399955 -0.0125828435905378 0.338861035796771
4662 7 -0.002941289332060001 -0.007529755332740345 0.002509437673775294 1.182834532898147 -5.537589861805729 5.105203585138342 -0.530594880701031 7.55046594924506
4663 7 0.004702691692397123 -0.001650610059735035 0.002976345161166905 1.182924089172386 -2.839184994110649 0.5032829183725678 -0.7048771468244164 2.968352559724674
4664 7 0.009092446748134987 -0.0002776413596095782 0.002975221037589444 1.182963742733262 -1.143886119327558 -0.1228425858787852 0.04286740517918115 1.151261642426448
4665 7 -0.005938189097487967 0.007411560156445255 0.003499395166421551 1.182752076231341 -4.051694139830092 -5.204624147712073 0.4291534536975946 6.609728482207246
4666 7 -0.001586732177013861 -0.008239461966083541 0.001501576762034023 1.18289244073386 -6.384735996087716 5.521313340969518 -1.591129850025819 8.58961285207601
4667 7 -0.002937480516605618 -0.00411207521002828 0.0004854798291929843 1.182719290857362 -6.235154458782218 6.137580564572552 0.6052551879378939 8.770027374758659
4668 7 0.001545764803093897 -0.007109258216109042 0.000978086532657365 1.182923220265206 -2.938786289987994 3.042653032737888 -0.4176227804514006 4.25071889479914
4669 7 -0.005261668521443726 -0.00261898358713639 0.0009531777813427402 1.182591923342823 -2.927198204232698 6.197820552021821 2.707653744188961 7.369725756115196
4670 7 -0.002516418740572308 0.009836661469927961 0.00297552019424069 1.182912890238119 -5.388950968304701 0.397018133350978 -2.599816339974599 5.996454030391677
4671 7 0.01083131099992803 0.002783976209659499 0.00247504006843 1.182973066066053 -0.2855548015299934 -0.08173422748864745 -0.009458046088255193 0.2971724806502234
4672 7 0.00874029696468121 -0.0007454412239360145 0.00248281442723903 1.182961943732118 -1.008440716584657 0.04048702421352698 0.2067962342267248 1.030221607464043
4673 7 -0.003215252700268234 -0.002047457709013468 0.0009943503599701335 1.182624165609364 -5.412222815905228 9.247906780916486 1.97318487562422 10.89538407725576
4674 7 -0.003415658683946781 -0.006944993631011906 0.003487338107884064 1.182804315135596 -6.728441255960646 6.390155550022482 0.1841315455305331 9.281159093262859
4675 7 0.007001815968048617 0.00284885578935133 0.003498888617263351 1.182952734242121 -1.367875786733624 -0.3633958343157163 0.2262095260267455 1.433286939170029
4676 7 0.003104572014264221 -0.009060266289508588 0.003510131128494887 1.182977437495672 2.208163646214914 2.715100686248439 -2.717960647900266 4.431147538557741
4677 7 -0.0002943658207751155 -0.0001401974693288664 0.003000120002470811 1.182723093472402 -11.59801769139302 5.177841936655923 1.598672784269756 12.80155522434766
4678 7 0.00464315202803565 -0.007301474547100549 0.001048781344350919 1.182955852887206 -1.280255534756559 1.716376616711285 -0.395767077644927 2.177529449724087
4679 7 0.005404847946417614 0.005922834251225449 0.002964890512296406 1.182956438024318 -1.185919369525021 -1.310018763156195 -0.03363403162845742 1.767395020622015
4680 7 0.006970786948215882 -0.007495861843682223 0.0009978135029774613 1.182967646412816 -0.6279626083867914 0.601125625984043 -0.1406215528418383 0.880604040911862
4681 7 0.001141220279651814 -0.002587125818147767 0.001528490151964375 1.182831383187284 -7.899787038405803 2.418744931697487 0.2928120253376396 8.266964447665112
4682 7 0.0006043454047909788 0.005340855305896964 0.001021932314951034 1.182877305323526 -4.855055126570431 -5.132418129088883 -0.7825114806668935 7.108136207981214
4683 7 -0.00500377354652054 -0.007306565251904773 0.002563473416573538 1.182767519257384 -4.889554069608511 4.753002735161804 0.09421013260385301 6.819651717585435
4684 7 0.000625769014194496 0.009425038676655707 0.002989905090340756 1.183014868943386 2.273704044936126 -1.695459697337233 -9.569685696019928 9.981142118508391
4685 7 -0.007161628145863347 -0.001057708510571616 0.001380717913657215 1.182547303923913 3.156128380074988 2.588103794766238 4.283171887225231 5.91650141718184
4686 7 -0.006022321447128472 -0.00551153599332649 0.001050915838647677 1.182691793735585 -3.609604853228737 6.873268249855482 0.5123263332060255 7.780330449448804
4687 7 0.001338509823131055 0.008515468745880914 0.001495650452515252 1.182959063488575 -0.4452100738513143 -2.788639275477121 -1.317906562158321 3.116343807279971
4688 7 0.009338464446436498 -0.00247054559173022 0.002990733340880374 1.182966308912314 -0.9627431221212346 0.1574963452577513 -0.01877163659041587 0.9757211652421884
4689 7 -0.003238800109580439 0.002657608997274806 0.002962590574092678 1.182579655158806 -3.683420010391682 -19.69837918268879 8.317638533123979 21.69739238170453
4690 7 -0.007020325560008539 0.004964597450734053 0.003485561219539678 1.182644671043127 -1.571275565657172 -8.897820430660607 0.4183549013409703 9.045171979735301
4691 7 -0.007483552715092613 -0.000613954167805988 0.0009109163519761218 1.182552111247122 1.426159728425033 3.698431720547228 2.066544824367079 4.470227765298951
4692 7 0.000766515345241651 0.005975310813808061 0.000547510077209633 1.182893650971253 -4.298118890268626 -3.724610287960624 -1.388156348839916 5.854359558558962
4693 7 -0.009414661749794079 0.007151863755804871 0.003505185050544919 1.182692274864262 -2.439495026961717 -3.988548353117439 0.01233578613038388 4.675447157582496
4694 7 0.01163697558747379 -0.0007341527028200673 0.001307368092754833 1.182973211253792 -0.3251328378697151 -0.1114182485147899 0.09295408712878313 0.3560419226401061
4695 7 -0.0007550018956465549 0.005842701704067225 0.003048361286646282 1.182855132510634 -5.328853910621694 -6.861002502338374 -0.5650692008612342 8.705707469218311
4696 7 -0.007869618966231147 -0.002374110375839612 0.002404867060783897 1.182559477767053 3.839925951320063 3.946390330076362 4.46091870334781 7.086524086378301
4697 7 -0.007774414811119673 0.001721880563050919 0.0009724475387967784 1.182566121943616 2.277108056642857 -5.136688042328146 1.922835247669836 5.938693504088781
4698 7 0.0003224044105795119 0.007316526757809365 0.001034251569905144 1.182921738040115 -3.872469167813692 -5.57874738607074 -1.598899983433973 6.976741432093061
4699 7 0.00105598222039326 0.003225300207826695 0.000965225958365334 1.182846977277253 -5.879568479570842 -2.8357767902533 -0.6422582103155603 6.559226411614409
4700 7 0.01065324441168314 0.004931139027101907 0.002510030271315813 1.182974346484229 -0.2473810469223778 -0.2091168475756523 -0.04944811983331938 0.327677211400855
4701 7 -0.008546792345964761 0.008222215676797019 0.003505185050544919 1.182727295360687 -3.224069860191078 -3.942414451719352 0.5452514095349541 5.121968105339779
4702 7 0.0006886984298601366 -0.005552428737619209 0.000484699105247369 1.182877095832756 -4.485529889926109 3.379823809081948 -1.374546185531067 5.782089984600357
4703 7 -0.002920121932537226 0.00971532403477776 0.003488743033681845 1.182901580500799 -9.025171897720313 -2.083896343698718 -0.1639317444629301 9.264082543432135
4704 7 0.001995331631789679 0.007400905974579791 0.00350984695714963 1.182967138038498 0.9521129152656521 -7.102024784448256 -2.408082540917346 7.559374085610785
4705 7 0.01115061586303353 0.003574404146826002 0.0024685798451239 1.182973961292893 -0.2944157873619379 -0.1039270438075633 -0.01929570753153178 0.312815937272498
4706 7 0.007393219552945449 -0.00529316611779153 0.003022964243589096 1.182962194921456 -1.449886752556224 0.5584382046869132 -0.09671728627142034 1.556720609857685
4707 7 0.004595103813562395 0.000536795333098958 0.002387972375327558 1.182918030146519 -3.035134699725843 0.1470964702666457 -0.9348029292417699 3.17923521205396
4708 7 -0.009710675367377873 -0.006743615553868416 0.003508083214484921 1.182681139527097 -2.29511990387833 4.042055530668041 0.475586527559172 4.672469457511559
4709 7 0.00629915044963818 -0.003206815826759217 0.00252383841188861 1.182946704530268 -1.530042799911085 0.5168314719076964 -0.1481305946685006 1.621754732686441
4710 7 -0.006779754494758389 -0.009778235886534198 0.003505957228586504 1.182784309540088 -4.174181869092612 3.127432789729196 -0.2875337032547944 5.22372527618387
4711 7 0.004345639744504096 0.003286849935346661 0.002418702947834419 1.182924273618224 -3.089976886482018 -0.8309750034170167 -0.4633919464380216 3.233142234935023
4712 7 -0.0033010041789019 -0.002578234439835991 0.001002232665698549 1.182641607578478 -6.892993765985285 5.505110414618155 2.494878434659081 9.167552679901885
4713 7 0.002386940211223979 -0.0009751816189372063 0.001491199242332578 1.18286291006126 -5.379594707151123 1.543480515795852 -0.02057980374025525 5.59667712523885
4714 7 0.005730339660380132 -0.005753704628600279 0.0009845496587353487 1.182952315076546 -1.294952243870813 1.173608621943029 -0.199706502868569 1.759017111540721
4715 7 -0.007376025233758471 0.002397512158428114 0.003018782530454672 1.1825094398415 5.998505768126012 -22.51112756328653 8.292010165031755 24.72833128615413
4716 7 0.004797095184774328 0.000860529322790094 0.0008975900275773922 1.18291857369937 -3.222515835135797 -0.2865435892116365 0.08080970605071179 3.236239444913069
4717 7 0.001402487152381302 -0.002781443414549124 0.002528490151964375 1.182845089501838 -7.897384775092807 2.35738570872836 -0.3093713033615564 8.247524735878518
4718 7 -0.0008644893605852741 0.004758679153887327 0.0005008512094366488 1.18281538460726 -6.418194822208734 -4.768227662237972 -0.3475749258397021 8.003126148189272
4719 7 0.0003275259221155729 0.01146750859327904 0.003014083849701873 1.182983556562173 -2.638822523891704 0.8182691190257566 -2.069031338432198 3.451642991846622
4720 7 0.007046140979225478 -0.002844934614210835 0.003535793001244682 1.182951795089788 -1.199917812091336 0.393987103698747 0.1983341954290273 1.278422874768543
4721 7 -0.007456103518899798 -0.002970813772808453 0.002968712916561889 1.182561275224235 0.8640928590329903 9.06987494594437 3.915580816971564 9.916706163759057
4722 7 0.00833964761572807 -0.002987166165980402 0.003043386390894268 1.182961213719745 -1.200082240724011 0.3173250215256719 0.2327861843909586 1.262965542455824
4723 7 0.006811027798667099 -0.0001165361855956901 0.0004803003784608457 1.182946662917244 -2.030397584360262 -0.1209417384473584 -0.1451984522084116 2.039172343182001
4724 7 0.01079416659561649 0.003481553772369449 0.0009608414262253103 1.182973596820975 -0.3029511997214751 -0.132972833426327 0.06072321273750596 0.3363755526301981
4725 7 -0.008546593653376582 -0.008222448425510171 0.003510920216871459 1.182725727382329 -3.249049659270243 3.839804401943556 0.3946041754465743 5.045407217348176
4726 7 0.0009782546432218074 0.009299770544619388 0.002488967093010866 1.182992072812176 -1.023686451654937 -1.486824357601768 -7.878531556932287 8.082687678936857
4727 7 0.002289943481675525 -0.008620737325103394 0.002690977890164327 1.182967798245655 -1.468684033595667 1.679147066766174 -2.459873379268111 3.320774714490611
4728 7 -0.003391331428149825 0.007054279469667806 0.001484792801185479 1.182809376399095 -6.163671808441833 -6.436044685476829 -0.005398278511256474 8.91142808404164
4729 7 0.004447711121131813 -0.009103741633645307 0.0005663142828427598 1.182966083076872 -0.593998409007493 0.9955694788546874 -0.4386779005181679 1.239528538410251
4730 7 -6.753580029085791e-05 0.0003755809126216014 0.002981642564842566 1.182744354839542 -15.37291059559968 -8.318176213088782 0.2947151352665791 17.48157008690158
4731 7 -0.006971427710215129 -0.00335332899292215 0.002457645457994155 1.182589554674002 0.7095819961529747 9.360016034493055 4.107668243751148 10.24628445710703
4732 7 -0.008944864909481411 -9.933039892374935e-05 0.001413113628383117 1.182561842210847 3.754143528773474 2.474322006288765 1.930919588976407 4.89329270374555
4733 7 0.009180121928931754 -0.007146337180674313 0.001501733315769899 1.182971281099416 -0.3139720528352424 0.1900510532390793 0.07059964859387327 0.3737407700270844
4734 7 -0.009790758038048502 -0.006729017264034588 0.000508083214484921 1.182682686980271 -2.257129645988861 3.42190425782435 -0.0410973904662618 4.099481916537912
4735 7 -0.004441996912596613 0.005319598137179333 0.002998325978219964 1.182706329185373 -4.056356401496393 -9.386600014429668 1.590646823872365 10.34854793703673
4736 7 0.006507357459484477 -0.003781680934712676 0.001037875598471871 1.182949900531347 -1.575869359863764 0.6229482904663712 0.07999455288503618 1.696416204957875
4737 7 -0.00282489403851616 -0.001737879647405859 0.0009943503599701335 1.182632639227033 -10.7859300954747 3.755609146493009 3.139888413171724 11.84482111865176
4738 7 0.006946214721575729 0.009477682919156927 0.002498026119612691 1.182977917218326 0.02451613506145993 -0.4345852480795446 -0.1220545469450784 0.4520649191838264
4739 7 0.007760128330784695 0.0001682180588869297 0.003474896871125994 1.182954681781585 -1.349487686087148 0.01948523778619334 0.1047993654333497 1.353691100800941
4740 7 0.01107073378778553 0.004025920079002436 0.001468579845123899 1.182974223714979 -0.2941894761561077 -0.1109390900826357 0.06941549258240151 0.3219836023772417
4741 7 -0.0004119272574043355 0.01174628509975043 0.001011225245622042 1.182955815131665 -3.363733251760451 0.05999591929187043 -1.362425330691278 3.629669913510022
4742 7 3.057451192863719e-07 0.01129114494917745 0.0005031635976452445 1.182959120528725 -3.11999074409645 -0.09662859137544141 -1.580156145611836 3.498652994001202
4743 7 -0.006782099403608495 0.009774433134296087 0.003510761436187152 1.182787178292515 -4.305130986036907 -3.311515497407477 -0.1770990384294243 5.434303245671668
4744 7 -0.005673029626010353 0.001548973638180154 0.0009918807997124962 1.182552785889941 -0.0415758935340243 -5.557430908668228 4.618972821616775 7.22645672417531
4745 7 -0.004226763320075162 -0.007633320436059301 0.003487338107884064 1.182799884273079 -6.088270306268932 5.170421052618274 -0.3637806104860684 7.99578798594109
4746 7 0.003208509228573845 -0.001368786780033704 0.0009824361866590384 1.182887014682511 -4.624209696558102 0.3763177412578334 -0.4350594592328336 4.659850544083505
4747 7 -0.005137961687292851 -0.008196414349333403 0.003514152011474062 1.182789131814974 -4.51653694386451 5.482542525570316 -0.636608385306481 7.131805433845095
4748 7 -0.007454552396073746 -0.00718840289872523 0.003501256810142374 1.182718607115031 -2.385707074292612 4.638168197144643 0.1794031984727297 5.218849296248748
4749 7 -0.00241886643116498 -0.005982366864003946 0.003009357385403422 1.182799077674031 -4.974396817137356 7.718480473278381 -0.279548188943883 9.186822720650905
4750 7 0.01084594332765065 -0.003452955748917153 0.003483139951230789 1.182972087310485 -0.2501686846322186 0.03720275314099988 -0.02506508961390314 0.2541587581202694
4751 7 -0.002798803701727891 -0.003572667584527994 0.003004336275229886 1.182670008589459 -12.02643947707253 9.572876197202829 2.293563264193708 15.54141684755673
4752 7 -0.0007746163762116608 -0.0004427621498657711 0.000491356946797271 1.182725668277673 -8.721328864628457 0.694847337496536 3.461904900884301 9.408994395268511
4753 7 0.0007264481407958101 0.006598487305041229 0.003547510077209633 1.18293345211991 0.3189769689533551 -10.00672090069769 -2.768747444723892 10.38759702259612
4754 7 -0.008200858018491278 -0.0001965545372075763 0.002910916351976122 1.182495090546375 15.85730479193164 -4.868300769702796 12.5231864930955 20.78424084707827
4755 7 -0.006744116772321014 -0.0009860079691915889 0.002944563769435207 1.182426591449758 13.28927900939523 5.641928144863591 15.13621979565208 20.91749123302426
4756 7 0.004364167654392377 0.0002924469513791529 0.001387972375327559 1.182911319839874 -3.084586843572992 0.252540032204653 -0.148777152574226 3.098481419104787
4757 7 0.009418657156822809 -0.006867402342949296 0.002501733315769899 1.182971446803042 -0.3130962590337014 0.1774886068472426 -0.08046658418310827 0.3687903796895615
4758 7 -0.001184221129262285 -0.006702342832933612 0.003523877556210437 1.182883240438412 -5.699153478751297 12.02758528813685 -2.705188713048034 13.58164953939585
4759 7 -0.009097726990567852 -0.003613644298195489 0.003498911354880796 1.182607368350004 0.7307841484458684 5.413879419597172 0.8162130575499684 5.523616532388235
4760 7 0.003573333515987924 0.005270265913831888 0.0004882859329187122 1.182929566434635 -2.089278538620142 -2.088398171289603 -0.03146542243651237 2.954231170134385
4761 7 0.007210455048831039 0.00877362742662785 0.001006675013507022 1.182975421297711 -0.1790692984400017 -0.3283888145697175 0.01666025042915551 0.3744096568234597
4762 7 0.005009133943580092 0.001395691943955198 0.001394417255427992 1.182924425373116 -3.342546836189224 -0.9702317476703787 -0.2246274427150029 3.487753787801942
4763 7 -0.003688377825912858 -0.0089190480115461 0.001012374021154854 1.182843072552476 -5.374790983523989 3.174402278867249 -0.8457899975014476 6.29925143683929
4764 7 0.01025990906540679 -0.002127195327788751 0.0009834641176942383 1.182970445160281 -0.5663069424440123 0.05718766334049552 -0.09313104592313758 0.576755904706115
4765 7 -2.265134345245365e-05 0.004712600180423561 0.003474422237741401 1.182841183609364 -7.187391831501265 -6.794927832385331 -0.01174527350738283 9.890893970633073
4766 7 0.002727693443900536 0.01075468382035533 0.002992514895026412 1.182988784992024 1.561898991415215 -0.7739080166186847 -1.630054936054309 2.386533295834263
4767 7 0.002933369780781583 -0.001912363116902003 0.0004920538389088719 1.182882166006013 -4.293622287720722 1.207740286478322 0.06942682985855739 4.460790180438783
4768 7 0.0004059944916459953 0.005044555482983187 0.003474422237741401 1.182866981976728 -5.500258537243936 -5.527224594420665 0.1185882702792912 7.798533123064961
4769 7 -0.004699543259374569 -0.007926683674987287 0.003001490119358126 1.182792650205254 -5.60090664301564 5.267182760031652 -0.1611683645040206 7.690210965446155
4770 7 -0.008632412563223852 -0.002635458492624996 0.003498911354880796 1.182565067284462 7.448609627417694 4.093229469387817 3.41959329242439 9.161328023617443
4771 7 -0.0007463043963924879 0.01019259309989837 0.0009899407582040897 1.182943251090486 -4.231856212267966 -1.36448570024377 -1.402342085669847 4.662294666011745
4772 7 0.002999435866868712 0.007507359276135548 0.000996197386102254 1.18295259191789 -1.030765920648201 -2.268081677816435 -0.340971170117867 2.514544535153015
4773 7 -0.0007212926453357668 -0.01102955922373287 0.001539701644227577 1.182945842534374 -3.713961436280942 0.3648732216541892 -1.097933918908471 3.890000116754757
4774 7 -0.004286871764550194 0.001556002456020496 0.0009652941837376807 1.182577664644174 -6.177157175902492 -3.627294697018683 4.742592312490697 8.591083717280339
4775 7 0.005977255922860662 -0.005215267648948636 0.0005020825972271893 1.182951171317019 -1.462123288886902 0.7455457603206789 0.1270912862303486 1.646145554825962
4776 7 -0.002144454452040625 -0.01098344792266246 0.003079331923003989 1.182924524154654 -6.398273537381199 2.105890963128346 -1.151894715661616 6.833706347488697
4777 7 1.00377475307217e-05 -0.01089570354697977 0.003490965497770762 1.182994842341706 0.1705526178382276 -9.883055854240387 -6.017884601971851 11.5723297695899
4778 7 0.007878867830446452 0.005486414525411256 0.003509392708264721 1.182967739354226 -0.9627804402108618 -0.71114180439486 -0.08070961755970028 1.199659486845009
4779 7 0.01014612176443646 -0.002039122775174465 0.002983464117694238 1.182969898848301 -0.7183261067505302 0.05152778639108777 0.1195081772096048 0.730020350969548
4780 7 0.001128615322698639 0.007871676213864151 0.000996588449845141 1.182944709706265 -0.5557351796594504 -3.022814756615047 -1.430233056408167 3.389958294487331
4781 7 -0.005050414960344089 0.002973141568997132 0.003015607782849198 1.182530558758172 -5.919746043757179 -24.48729665513209 16.63119638947151 30.1872122602302
4782 7 -0.006042782788710371 0.002039815011815697 0.0005210971994120068 1.18257392324541 -1.484836114653099 -3.746627573774475 3.011301596165635 5.030893933190702
4783 7 -0.007436746207221007 -0.001997487805281385 0.002905955705903102 1.182500468823969 10.66674354586825 18.40982570319148 12.36461076492237 24.60863059301037
4784 7 -0.005465977996256301 -0.003003845718383377 0.002442110322775006 1.182547188924643 -2.269264904039237 8.897845102054989 15.89656048040765 18.35815474856137
4785 7 0.0009996696973775259 0.003067636141619879 0.002965225958365334 1.182840887181648 -8.222614502787014 -3.567160947321177 0.6535035894305568 8.98682888603846
4786 7 0.005287740938208424 -0.00590957284166189 0.00348246706150816 1.182951197209171 -1.265143539999324 1.317945542111736 -0.05444680353936619 1.827712527502581
4787 7 0.0002758807005197746 -0.01173860817735184 0.001474449033534071 1.182960443668697 -2.095503608030795 -0.6081003661838815 -1.168972640914257 2.475362289005208
4788 7 -0.005592630883630318 -0.001520821375562806 0.003469801561681093 1.182379891012404 0.1675319104373132 10.58337730687219 14.26356671893391 17.7619052386311
4789 7 -0.0004710992087405665 0.009466755482200329 0.001476682250899601 1.182947686792054 -4.197321075634036 -1.439758349581602 -1.392260025528214 4.650676971778994
4790 7 0.006589133949425427 0.001380261173310644 0.0004803003784608457 1.182945919361334 -2.12012580655994 -0.3838275444443492 -0.2346984124641562 2.167334852838575
4791 7 -0.006664251355422461 0.006430950406904287 0.0009849563859612293 1.18271326167665 -2.808312203096973 -5.159079008195758 0.1554041935628553 5.875956441826848
4792 7 -0.007502300987243338 -0.003076777402400992 0.0009687129165618889 1.18259606135566 2.437488584360068 6.18122559550785 2.542052616759738 7.114136066158846
4793 7 -0.009151568780590992 0.003639407294747292 0.001006985426766513 1.182618851148237 -0.03819269616213913 -4.587333976385895 0.4957132863258766 4.614198018636019
4794 7 -0.009210188585587951 -0.002462880723023838 0.002987393738299662 1.182581462344572 2.964410422163705 5.180801405859493 1.653622485544792 6.193779111551189
4795 7 0.00244407741944645 0.003904051790851339 0.003448376604785651 1.18289817017015 -3.372367112468188 -2.0446530577456 -0.1332829048081149 3.946039837675178
4796 7 0.001513526879456878 0.0116011185764525 0.000510920252056628 1.182973125662309 -1.04157359128306 -0.3131477097738317 -0.5981019676760938 1.241234465333968
4797 7 -0.008184149111887942 -0.008491206862588549 0.0004926449535114375 1.182736705055458 -3.371782206644466 3.542936641297854 0.1592323780793028 4.893533513068438
4798 7 0.001880304585936059 -0.002800916366931754 0.001035918860271674 1.182860665481698 -5.725096666151885 1.956967692938647 -0.8540435710940565 6.11030644152289
4799 7 -0.0001943885212038917 0.005422522275079493 0.001522783524387682 1.18285688190375 -6.220553450030962 -5.470194351797671 -0.3573487642626849 8.291321342853099
4800 7 -0.006381361658622351 -0.005073543243860459 0.000488932541432266 1.182674880580369 -2.159394540179754 5.350259552265837 1.586080817128614 5.983637222896567
4801 7 -0.004913871916456923 0.008510625960713739 0.000496703183449469 1.182803977566704 -4.830357014567877 -4.124741543484129 -0.1070487569511288 6.352739655069591
4802 7 0.0003375108093276995 0.0007185059954440241 0.0009816425648425651 1.182789958075353 -8.638203446760249 -0.978917499295187 0.377652367248918 8.701692913941269
4803 7 -0.006962241180839379 -0.0004361353139167379 0.003474762207754114 1.182382492575253 13.50261630107738 5.534391500273548 14.94920989349417 20.89088348280572
4804 7 -0.009615420639818514 0.001208684917012317 0.00299988260744966 1.182566376741653 6.128458111544604 -4.698149468208777 3.461572546962889 8.462451875696216
4805 7 -0.003571971612174959 -0.0001226464799334446 0.0004754939139332312 1.182594047120645 -7.277540562449401 -1.401925123583029 4.782410760697617 8.820399275217987
4806 7 -0.003353207784957195 -0.001601195249147117 0.0004754939139332312 1.182615854439343 -7.385912521886077 4.258597200907968 5.218942027929399 9.99623478072732
4807 7 0.008235027536917015 -0.00517847168846473 0.001510807952457747 1.182965809735765 -0.7811134755402762 0.5655000911235916 -0.02245135442078664 0.9645893831297999
4808 7 -0.004491461037328437 0.009700637125788955 0.000488743033681845 1.182838278250394 -4.365987394727686 -2.884697367886345 -0.5110524956254511 5.257803675347383
4809 7 -6.807789836692271e-05 -0.01184282905504373 0.002474449033534071 1.182964441026544 -2.05451580068635 -0.6152219400649012 -1.848678277966024 2.831456265992911
4810 7 0.001681132137903924 -0.003351572183466346 0.0005438650213628018 1.182860847095614 -5.285102259171823 3.070509258301901 -0.07987699901192644 6.11283185849177
4811 7 0.004325086742449 0.003853464326791086 0.0009218757199838193 1.182925567447462 -2.793835382658313 -1.44523338338031 0.1528657716252958 3.149219525845256
4812 7 0.007286679386465414 0.0005561712693745344 0.00295519724958684 1.182950738348789 -1.594271783795738 0.3829960841772747 -0.01306070177055159 1.639682622653881
4813 7 -0.002673595072272838 0.005694742735765632 0.001004022883851462 1.182787223939706 -5.7910680091202 -5.69661190993497 0.3152186715357646 8.129404575339642
4814 7 -0.001109366867093673 -0.01125926302009471 0.003048736146456816 1.182951734899692 -4.742791361764159 0.3004320672587491 -1.811169599075994 5.085731475892056
4815 7 -0.004416067790298964 -0.006527844550746918 0.003487338107884064 1.182755883639778 -6.111742880644986 7.275319350438847 -0.2437930343709003 9.504899143788553
4816 7 0.00181594454654249 0.003127767703374188 0.002413602563150985 1.182870542476438 -4.68548308882386 -2.449950599783604 -0.8075885543817426 5.348664224851174
4817 7 -0.007111956562905876 -0.009347526297451579 0.0004926449535114375 1.182771923280441 -3.800951936652337 3.209057428496422 -0.3386498943066811 4.985977231701238
4818 7 -0.007457154925894039 0.006816023647034325 0.0009849563859612293 1.182711679797994 -2.931959661339838 -5.110811483611083 0.1620049000363286 5.894321594922584
4819 7 -0.01129545682820156 -0.003141185975024907 0.001490019392277228 1.182614282601937 0.2448970099156074 2.65484883345319 0.5427431784681472 2.72080264475891
4820 7 -0.005650820140239689 0.01046027408344607 0.003510761436187152 1.182825609430667 -4.919567361393833 -2.844540979163756 0.38200782570477 5.695567257467255
4821 7 0.001003534311135522 0.01131820326383162 0.003014083849701873 1.182989340489381 -0.5127302171674939 0.180878614143714 -2.100237934100473 2.169471993017149
4822 7 0.005003283754626437 -0.0001143504100411681 0.0009706827262110122 1.182921960964078 -3.024147837663238 0.1512859607009579 -0.1969143212929181 3.0343257629791
4823 7 0.0009128680732226457 0.009265759791715409 0.001488967093010867 1.182966372336265 -1.067141501637755 -1.692169889571741 -1.280089249974228 2.375049137931782
4824 7 -0.002813562434581508 0.002935173429284789 0.003468079990655487 1.182608575473362 -10.22560070415431 -21.83664449522143 3.197569891367734 24.32337159568276
4825 7 -0.00511345485252053 -0.00731065675320731 0.001563473416573538 1.182765812398645 -4.859874723557152 4.742889133221351 0.296049171836635 6.797133570178245
4826 7 -0.0030937480004063 0.002496584141297356 0.0009625905740926785 1.182648320675896 -10.89396888262537 -4.176653454253391 2.884739740776749 12.01851552665941
4827 7 0.000283228689589395 -0.006503364704636576 0.003484699105247369 1.182912631493909 -3.623107653386359 9.285317162403542 -1.683284740083145 10.10828726296643
4828 7 0.01123974692296557 0.003918261485916677 0.003507738418898589 1.182974253816794 -0.1497567526366033 -0.1063034960462809 0.04752298497104237 0.1896996371437762
4829 7 0.004682555164941283 0.003402715608662968 0.001418702947834419 1.18292866797561 -3.111161832362016 -0.8136018212911431 -0.1812911915790027 3.220891548453406
4830 7 0.007556510251992893 -0.002842967840356737 0.001043386390894268 1.18295596111958 -1.564216180002988 0.419379719391719 -0.05753200798221335 1.620481884737587
4831 7 0.008105135897839585 0.003108309240365692 0.0004988886172633515 1.182962230467459 -1.27828333860797 -0.3457580921807225 -0.09675108514045633 1.327749119580596
4832 7 -0.005626036341225197 -0.004796645214021733 0.003488932541432266 1.182651449119297 -0.6382504229180985 12.1203287598096 3.36311939920924 12.59445532532314
4833 7 0.005947706009460221 0.003434319399649186 0.00246921496031212 1.182944978515395 -1.594359264366125 -1.16510113061443 -0.2786051393749924 1.994257488920444
4834 7 0.003548251920250713 0.01163045897963696 0.001016747077487462 1.182980676441118 -0.06819891520884079 -0.5206541604855346 -0.3797775869602331 0.6480454169453688
4835 7 -0.004877535426158161 0.007916119309334156 0.003496703183449469 1.182791933141792 -4.798129486796774 -5.94665538466666 0.2192392319615368 7.644136489943435
4836 7 0.002293587584791252 0.006435296986881986 0.0009981328900683416 1.182930946539609 -2.627170511712967 -3.197245939574752 -0.7049453903180823 4.197779710641344
4837 7 0.00941215806441521 -0.003847873536700542 0.000970983660099439 1.182968227420841 -0.8149716705443133 0.2508061371799511 -0.1067643132952275 0.8593492659159713
4838 7 0.01054545473467819 0.005632770889268942 0.0005109202168714735 1.182974927635578 -0.1646374680402652 -0.08390212598088226 -0.09051157206933354 0.2057605581866538
4839 7 0.008536851040022804 -0.002971162917023843 0.001526526342125056 1.182962798438436 -0.9263869739930324 0.2156021730632082 0.01578517018614172 0.9512761398307803
4840 7 0.0009736327856063639 0.002564482645331696 0.0004908037206239333 1.182832596751726 -5.87378236650876 -2.821296755346174 -0.6331460738052784 6.54690068823494
4841 7 0.003170499663889361 0.008889486250780752 0.002985412431622735 1.182980724896057 2.095538194183054 1.567794670961793 -1.435393851209891 2.98489798178553
4842 7 0.00209809442754706 0.01197869136802708 0.001004373144412929 1.182977942314944 -0.7582710370284855 -0.2541314757251176 -0.4643983690732631 0.9247830111698568
4843 7 0.001998807500451775 0.004456629296760832 0.001411084775445764 1.182891251840823 -4.773788433973032 -2.712332328596214 -0.01985513044663226 5.49055524508113
4844 7 0.001959748653097875 -0.008925487608022864 0.003197590462754331 1.182992059446242 8.902386257216408 8.394746024952621 -4.659114207921968 13.09318857645431
4845 7 0.0020846736108267 -0.009474438766316061 0.003510131128494887 1.183006966949957 7.928990445778617 -2.125478654569345 -0.6170585156868399 8.232090269916879
4846 7 0.008937829506070211 0.003684799798195396 0.003491371635545751 1.182967076297812 -1.016427073422097 -0.5951388644101054 -0.03635343932857738 1.178403935867398
4847 7 0.0008388873516344834 -0.003038658231330264 0.003036436313055503 1.182824980777279 -7.945064116634443 2.314631186964794 -0.2776889330562689 8.28001645485347
4848 7 0.003792338010669695 -0.01066321832152565 0.003017486173438219 1.182977498478348 0.6833072733164278 1.089702905777479 -0.7059656284695098 1.467224836624354
4849 7 0.001832118134506429 0.00387764687477105 0.0009227988425270517 1.182878399954423 -4.77160703650654 -2.707986506354701 -0.01751131544790688 5.486504467838023
4850 7 -0.006427591665665667 -0.003534930408484602 0.0009587341031133591 1.182613462240326 -2.711306526146291 8.238763093320713 1.671571943919863 8.833037594751138
4851 7 0.002221089231024035 -0.004699537884614359 0.001044049193301889 1.182892814085474 -4.029372858593354 2.748886415355194 -0.3289189963476677 4.888804543469852
4852 7 0.002572986571294316 -0.006611802279721918 0.0009935715993490829 1.182930148667404 -2.448042807771687 2.986382348059203 -0.7203115186221322 3.928134646539246
4853 7 -0.003965129115337018 -0.01124806926594498 0.003492476648664522 1.182875049251033 -5.599045695358109 1.869340876290065 0.09402326244576259 5.903608081873154
4854 7 -0.004738603717033759 -0.001047188772568801 0.0004754939139332312 1.182567390304796 -2.419882658676152 2.786553738624014 4.941655462858065 6.167712098792872
4855 7 -0.002540611371168479 -0.007280384557473055 0.001509437673775294 1.182836822577767 -5.538494571127214 5.104804461022645 -0.5156585687634515 7.549824796591076
4856 7 0.00933378526732594 -0.0008926619456353225 0.00350032416646345 1.182965120276771 -1.252376790600289 0.06018137091480087 -0.0543942242045303 1.255001256838525
4857 7 -0.000794622777304285 -0.003098590222800297 0.001504994791021885 1.182760280829787 -10.09857918834848 4.45591039059952 0.9372047237540062 11.07767086199191
4858 7 0.002845805888647769 0.001959814574629953 0.002356469974526131 1.182886996282357 -5.596252781740334 -1.418189790908565 -0.7524254098766552 5.821980030676999
4859 7 0.008981635483872163 -0.001360461809961759 0.003007917556113036 1.182963321275627 -1.142313701521533 0.2685074561221161 0.08701515624801459 1.176668383230323
4860 7 -0.006041607556406535 -0.008741060340023071 0.003514152011474062 1.182781613241387 -3.494477317723307 3.988210579719071 0.1388604445463198 5.304382864700229
4861 7 -0.001622833184029053 -0.009635493031299604 0.003572030318278796 1.182959976813664 -20.86452173122367 1.257239602954523 -7.380747152827883 22.16719077884969
4862 7 0.01048086549962502 0.005673991598078048 0.003510920216871474 1.182974889152943 -0.1415935514808598 -0.1324190804922412 0.06812203194115474 0.2054851769232157
4863 7 -0.004479587037948876 0.005481064060718206 0.0009983259782199634 1.182725792434361 -5.347511366543299 -6.820402178663883 0.7296996122660192 8.697483844088129
4864 7 0.001679989368848578 -0.01218298288390664 0.001000820467835793 1.182967275312917 -0.6431682753497522 0.4966635185115335 -0.5233521468137473 0.966559646690875
4865 7 0.009623628768889171 0.0003490526795467354 0.001489419679794134 1.182967418004147 -1.0384654881136 -0.00331039459841426 0.06172557681620401 1.040303597777451
4866 7 0.002176538094591041 -0.00523197431178193 0.000500184171939087 1.18290066393717 -3.737696791580367 3.491040194475307 -0.01909703707212265 5.114499353999109
4867 7 0.0008457225314436217 -0.01064632289269379 0.003490965497770762 1.182999982648435 2.770686147168018 -8.686469277083033 -5.843487179027353 10.82948718265428
4868 7 0.008031655049937202 0.001508913122548475 0.000474896871125994 1.182958867648029 -1.241024362124612 -0.2651384925112076 -0.01666051155581479 1.269140441497007
4869 7 -0.0006543735656266274 -0.001029245208525393 0.002983928238489972 1.182711926334407 -12.06170894069765 1.601409201598714 2.715632473876832 12.46691596724086
4870 7 0.005253035264841355 0.005416591454539517 0.003473499115198168 1.182952082199647 -1.175000082300483 -1.248700189476084 -0.08200276214844698 1.716566867210166
4871 7 0.003939712635307519 0.0003989027053642768 0.002907671996866713 1.182910223801735 -2.93987065536651 0.1636317999000713 -1.002145489486035 3.110291050419696
4872 7 0.008862194178254575 -0.008479823935976528 0.001015098828681592 1.182972382075489 -0.1072356538914594 0.1540862257746949 -0.06000953668979794 0.1970867700601523
4873 7 0.01170362036914178 0.001023404861270623 0.002626474851700691 1.182973758983201 -0.2689457725189042 -0.007211098040622805 0.002026712192821586 0.2690500623546744
4874 7 0.001989504339723107 0.0009719086996163194 0.00241685642541402 1.182856795573661 -5.666227949770483 -1.255814594792628 -1.605367497030965 6.021662085817987
4875 7 -0.01131345052038019 1.396280769328827e-05 0.0005021972764069947 1.182594348138168 0.5998665790796425 0.02181084058121572 1.022727948183677 1.185870179007621
4876 7 -0.004096012677081434 -0.005038988463214661 0.0004854798291929843 1.182717522954853 -3.898325507490318 6.75665449689013 -0.1542626612618584 7.802122706120101
4877 7 -0.001699644294723091 -0.01144764043503131 0.002556037751182008 1.182934365790942 -3.850298704036166 0.4410898397859 -1.765636753839477 4.258736139228836
4878 7 0.006813240071706621 -0.007910728542602252 0.002997813502977461 1.182968682735607 -0.5051021909201091 0.5268940584043806 0.1019886587686433 0.7369852499009462
4879 7 -0.01022889947501197 -0.000695891897311954 0.002990679659825861 1.182572706949972 5.49616683802006 1.473502092254193 2.062533600996034 6.052528660193736
4880 7 -0.005097323527022 -0.003498038539682244 0.002972308761093913 1.182562300223258 -12.86602621794136 24.14611997836535 7.915784586054151 28.48208886762313
4881 7 0.005092207238201791 -0.01066387496991165 0.0005073550449433327 1.182972219440548 -0.1585009822389258 0.2934112970140689 -0.2881844507077143 0.4407527971730746
4882 7 -0.007257604843665824 0.001843004879794525 0.002493544738208785 1.182508467172116 2.020731128602451 -6.060164574075899 16.15432776800492 17.37156454079834
4883 7 -0.005016026985925803 -0.009355189084676828 0.003514152011474062 1.182818685883206 -4.638798293170249 3.277236953345415 -0.3921266316591608 5.693197251839103
4884 7 0.005979034966464384 0.005952074111376288 0.0004913913970982377 1.182959049682748 -1.443184756851468 -0.9827304154932495 -0.4273010707728001 1.797533731819113
4885 7 0.0021506063383657 -0.007665251041814594 0.00318084676166944 1.182957660902441 -0.5542813757283153 4.908217765359503 -1.400477944927042 5.134118030382335
4886 7 0.007180197909516281 0.009445713352246837 0.00352329417182197 1.182978030201969 0.1357313228021234 -0.3244726648424293 0.03644213882658343 0.3536008084009674
4887 7 0.003279285431951151 -0.002535910358144192 0.002974050770922238 1.182900011551879 -6.42577062496683 -0.6056013911783232 0.4845246123690465 6.472406451210793
4888 7 0.001799218612264438 0.00311733040102835 0.001413602563150985 1.18286728968789 -4.641249631318114 -2.418017662291255 -0.1475700773565548 5.235435462604234
4889 7 0.01007113466728108 0.003526017408490578 0.003491371635545751 1.182971752358278 -0.7328070593980768 -0.2623335371209063 0.1124824905274813 0.7864333294547525
4890 7 0.002791954255283359 -0.006159158527560482 0.003500184171939087 1.182932751771754 -2.082891356494253 3.563406936552528 -0.1760972708413292 4.131260781798566
4891 7 -0.006190082342809392 0.0009083756748291798 0.002945545808054603 1.182419340018526 2.263657723856159 -11.04384599203595 19.08312801984603 22.16430589051718
4892 7 -0.003702018376045088 -0.004012618802740773 0.002968856048854631 1.182652008600861 -0.7138954536552834 11.76522795823138 3.52356576397033 12.30226610510937
4893 7 0.0002830867688059305 -0.003361748386744499 0.002530003366347784 1.182810494273086 -5.973683752191357 4.316548670879357 0.6903754297766003 7.40230425160332
4894 7 -0.01003103573738011 0.007010483340527049 0.002997868751231186 1.18268313640822 -1.717743631066875 -3.608043663355936 0.3879936030409482 4.014867531408034
4895 7 -0.002532629606893006 0.009552177253234201 0.0009755201942406903 1.182890125778056 -5.943720420616612 -2.938662483538728 -1.151917673041869 6.729819013619839
4896 7 0.005770894838053662 0.002518805433185012 0.0004968272278505997 1.182939259452715 -1.893830676954805 -0.6648867458485901 0.1580440180647445 2.013367062764828
4897 7 0.0001684623122671033 0.009301947575241526 0.0009899050903407561 1.182954212540261 -2.960684113025791 -1.517484442618488 -2.042816869166748 3.904037680615377
4898 7 -0.003653974615909874 0.01072255759963866 0.000488743033681845 1.182872794837854 -4.62859535033658 -1.882624455795155 -0.1017459843715488 4.997851738902541
4899 7 -0.009786911040580567 -0.007377390858836496 0.00301900343135638 1.182693162284886 -2.162891711449455 3.158110007902683 0.05569043869945306 3.828166767845201
4900 7 -0.0006960115911533166 -0.00298810534830985 0.002504994791021885 1.182758788556584 -10.11456302901452 4.455877414779335 0.6251696916344406 11.07023332847083
4901 7 0.006282853260550709 -0.006676696070174758 0.002969638303852574 1.182961511486498 -0.8984579376802456 0.9904596445799428 -0.02785647255533451 1.337539889642658
4902 7 0.001100027437662509 -0.002168794676207539 0.002984625130601573 1.182823791564228 -7.929388279745408 3.007794250374118 0.01328039901137892 8.480695791769998
4903 7 -0.008824449923004039 -0.008503170360345338 0.001003565170382896 1.182726315944284 -2.775642662474011 3.360092015162755 -0.1246297814959574 4.360039348737812
4904 7 -0.008463919611778925 0.001132779894320472 0.0009724475387967784 1.182564340754948 4.395091085663273 -3.630364452737664 1.87955430526625 6.002424185062473
4905 7 -0.008510401216507472 0.008845146804454709 0.002997268070915573 1.182740249007451 -2.948992753175265 -2.94954009430316 0.08382065757295418 4.171734762520035
4906 7 -0.006997134746382135 -0.01000437087229711 0.0009986021820979408 1.182784821259218 -3.44727867622706 2.573383803754749 0.001611105941859956 4.3018643712534
4907 7 -0.007996262664735441 -0.001830074991021432 0.003436154144222008 1.182499986308516 16.6690478922803 11.1385303461374 6.440418950317591 21.05713684627063
4908 7 -0.005665099559660204 0.01055025770941128 0.0005107614361871515 1.182823248589605 -4.439171242651556 -2.771027448451529 -0.4806782528087055 5.255081923660142
4909 7 0.01033837632496194 0.0004412295861563024 0.00301452280866814 1.182970591222405 -0.7065864065537669 -0.04621789464108339 0.1158038431238895 0.7175032918348752
4910 7 -0.009664437073464651 0.006772967946639405 0.000492683700686266 1.182685441398097 -2.206148393827647 -3.8979189264268 -0.2476092034242334 4.485774516201739
4911 7 -0.005740564912427266 -0.002168219351051764 0.0004698015616810932 1.182581014010611 -1.672570355857056 4.615782073863894 4.080903666840583 6.384098251650579
4912 7 -0.0009065534882411736 -0.003828477055029574 0.003493567053292282 1.182770586880732 -9.88542698973907 6.539558649952326 -0.6858946508592333 11.87257114435223
4913 7 0.006208942312122594 0.006763624346337496 0.003491391397098238 1.18296627627361 -0.7598354181201313 -1.104950911396589 -0.05302844990445345 1.342042620681331
4914 7 -0.004448884254686029 0.0009584920688958944 0.0004707836003004895 1.182574613432503 -5.955962814857936 -3.068184150884347 5.15638253898208 8.454320074614378
4915 7 0.01048536049315892 -0.001626104383917474 0.0005003241664634497 1.182970908123373 -0.5947744701955123 -0.01919431349101504 -0.0354692598158897 0.5961402187896996
4916 7 -0.009685663629737181 0.001254980357337063 0.0009998826074496597 1.182587948259995 1.894010100729725 -1.39062909026518 0.6561556256779786 2.439603191805348
4917 7 -0.004005753161449345 0.005646931153511871 0.003503171674414813 1.18273020557644 -4.754236033317643 -10.31260711672077 0.8816100677606828 11.38990176059095
4918 7 -0.008192849884780329 0.006000951444473902 0.003485561219539678 1.182677149915649 -0.6319080652712815 -5.190934912543549 1.111232860791675 5.346022029520795
4919 7 -0.009829888281498422 0.007430551765510479 0.0009978687512311852 1.18269655524315 -2.180115036266491 -3.261993315961492 0.0340538362812134 3.923603143603869
4920 7 0.003378346978061446 0.008537402900969103 0.003486350428952624 1.182980460725604 1.293226918772907 -2.448337846775782 -0.500416901938514 2.813753925121968
4921 7 -0.007226672062104445 0.006822613766589936 0.00298495638596123 1.182713706569053 -2.549567929778063 -5.263596361564958 0.2659325184676538 5.854610438826072
4922 7 0.003556823604270475 -0.005769495938787275 0.000500184171939087 1.182930207010945 -2.259401038323705 2.29944741432533 -0.2587922284702071 3.234087951918169
4923 7 0.01194205427588591 -0.001606694065160883 0.001889536772164729 1.182973463048481 -0.3280739133403512 0.01183333058963996 0.02054179521416643 0.3289293019448355
4924 7 -0.001620174536647613 0.001425240188768561 0.0004728795091690252 1.182704807794429 -8.563665458327186 -2.897081629992398 0.7155698210587568 9.068709291944231
4925 7 -0.0004490944441666798 0.002353969073105725 0.0004728795091690252 1.182772162046127 -8.196088657087603 -3.164794646657066 0.448981113634568 8.797350650664656
4926 7 -0.0002303445234050209 0.0008754381160698827 0.0004728795091690252 1.182763400673866 -9.430070130639683 -1.096075291423493 -0.1093951655649631 9.494186169203806
4927 7 -0.008215262370140667 0.004947929157698229 0.002994861315263527 1.182646440414105 0.4229658336749249 -7.620199809028741 0.8341341066779416 7.677377477622251
4928 7 -0.005684502171837935 -0.003187166969392372 0.001442110322775006 1.182602760895672 -2.118568625720751 8.422426908247196 1.808106980974243 8.871012281656617
4929 7 0.0006376502254562741 -0.001179903096603627 0.001001334347366241 1.182802563427011 -8.242896106527443 0.5611320577105963 0.2166759529130118 8.264814207093016
4930 7 -0.001384421220540458 -0.01119223426827958 0.001048736146456815 1.182929713313398 -3.809083697750404 0.352316073860476 -1.119331134328868 3.985743019895575
4931 7 -0.008255395574408325 0.008618330458541549 0.000492083020370654 1.182739027030695 -3.290302397855174 -3.445547681744952 0.09254239631049206 4.765128832636575
4932 7 -0.006027942489120383 0.0003475337751760977 0.002945545808054603 1.182397002795396 1.457831036154492 -1.959679138265404 19.17189074146169 19.32684682656414
4933 7 -0.005032869766292636 -0.00362888845251351 0.000972308761093913 1.182636972002776 -2.620366136858328 9.158011184849636 2.163771078748291 9.76818267817778
4934 7 0.000549140132564557 0.00125345044583885 0.001472446285466499 1.182800534680273 -8.32432071058609 -0.6184383074768557 0.5986706275497713 8.368702871600723
4935 7 0.003875670268449863 0.010961092510831 0.0005232941851311605 1.182978092212943 -0.1277719197806365 -0.4691801398164155 -0.3446407057112348 0.5960141635193903
4936 7 -0.008514996480136148 -0.008841292216866132 0.003003565170382896 1.182738366910886 -3.040427286590268 3.086774058338122 0.04097402567987556 4.33290330414288
4937 7 -0.009796024838050933 -0.007364036515148255 0.00101900343135638 1.182693766503243 -2.203991733061608 3.12859123840154 0.09639539448224714 3.82817904080833
4938 7 -0.001282299384603718 0.008787283085017358 0.0004867771605588453 1.182909013653684 -4.538168195210132 -3.021924401996229 -1.608524054378923 5.684570985827572
4939 7 -0.005915003025440039 0.004467896776203815 0.00349515430380515 1.182627640024668 1.416807497283961 -9.903367968828555 2.896235169684457 10.41499970083997
4940 7 -7.802176013970905e-05 0.01182140528196191 0.00252214549767867 1.182971671023084 -2.279236481382334 0.7071959536336659 -1.835859022529872 3.010884156772606
4941 7 0.00546000230936473 -0.0005759091002721516 0.001456645539627751 1.182930210131499 -2.996361140817176 0.1060474992350021 -0.1752264738007201 3.003353205238078
4942 7 0.001544180759653292 -0.001362126858923286 0.0004920538389088719 1.182837779889999 -6.083395900068592 0.8806580154885206 -0.5288137933108064 6.1695144253994
4943 7 -0.005032346026952511 0.00277020685748074 0.001015607782849198 1.182596717519006 -2.490224877597659 -6.386518902279254 3.574987004775263 7.731065626062716
4944 7 0.01183050698363732 -1.932977707217142e-05 0.0005 1.182973794571715 -0.2087713877688083 -0.01788896109785118 -0.04894459211393262 0.2151768583683519
4945 7 0.0094433133525659 -0.004273441171769764 0.00348784370886865 1.182968934387445 -0.5838393266452407 0.1995847043989275 0.07502378122683453 0.6215552922445012
4946 7 -0.002830124027714861 0.006702386576853373 0.0009880896177360101 1.182815576545576 -6.087435068634374 -6.516802917803397 -0.06239370487188792 8.917930194767061
4947 7 0.01021158540175388 0.0004054050448157256 0.00101452280866814 1.182970308490751 -0.7369949935461135 -0.03817121321225136 -0.07133805481040946 0.7414228079134496
4948 7 -0.00720428020309653 0.00948311680953064 0.000492083020370654 1.182773924499491 -3.839899334895196 -3.232479975044793 -0.3119341017617517 5.029021433145425
4949 7 0.0007651300850163475 0.003675367325879268 0.003474422237741401 1.182842263856122 -8.231732687764637 -4.631182393695801 -0.03082015000381402 9.445116372397804
4950 7 0.001185518969655806 -0.001152570403008414 0.001000816894582412 1.182825639234708 -6.882328825935135 0.7624469032295643 -0.07345410321475318 6.924822803062987
4951 7 -0.004589791715658788 0.001047117933063923 0.002965294183737681 1.182422159881933 -5.382719701064012 -5.054822668308677 19.0543403628101 20.43508723372826
4952 7 0.00457816533962941 0.006501848131119226 0.0004913913970982377 1.182951927546091 -1.870670392815838 -1.548059901114348 0.09053787065122994 2.429834208751286
4953 7 0.002003816738049594 -0.01158061486957601 0.0004940427602505031 1.182966487410268 -1.002006102835467 0.177124240383858 -0.3143000739373732 1.064975944858905
4954 7 0.001575855051105666 -0.0008429640052894701 0.001000816894582412 1.182837019350479 -5.930924683435261 1.266133801953848 -0.2951089416128652 6.071742064058026
4955 7 0.0009823803756976121 -0.001614573804740463 0.001493388186275113 1.182817398974576 -7.792216989612911 0.2680948001853668 0.4876486137507188 7.812062570511806
4956 7 -0.001519564606950147 -0.005887641551281031 0.0005238775562104375 1.182824316771304 -5.785588837056834 5.636604082111906 -0.4802223635869615 8.091659736323958
4957 7 -0.01106012525455461 -0.001852486246919186 0.003488482383418866 1.182594203360663 0.5996095155711066 2.342216219644293 0.2112333530523313 2.42695857405312
4958 7 0.009076681133518366 -0.0005371860169612789 0.00148281442723903 1.182964464621969 -1.006215671246524 0.03271001239252495 0.05973133087056082 1.008517602156938
4959 7 -0.008429135423745579 -0.00220669756157966 0.002935065499102804 1.1825589952516 6.940778202025639 3.705210509754256 3.664452926214219 8.679354942606484
4960 7 0.004849297116369293 0.001330251993918814 0.002394417255427992 1.182923837654595 -3.285028334550806 -0.9155092706983743 -0.7209571072623266 3.485591418116641
4961 7 0.009948903693455472 0.00253973010154403 0.001005570277750441 1.182970666242279 -0.7076073860626744 -0.2264917565646017 -0.07080081161091178 0.7463373791569958
4962 7 0.001134504643221809 0.009713169186973231 0.003002225600315355 1.183020532799499 -2.199736967578824 -3.849768706839498 -8.991585136939644 10.02537605766125
4963 7 -0.0009633517103599326 -0.002397933347559166 0.001011427737729603 1.182739040797709 -9.884307525059631 3.593347663385155 1.483466347506883 10.6213160711887
4964 7 0.003574623858031479 -0.008816833087385144 0.003076445411337646 1.18297068261112 0.3060938283987663 0.6389988885167452 -0.4464755860762349 0.8374684831511969
4965 7 -0.001419838584402932 -0.007737144254312329 0.00100335475235323 1.182882171082253 -7.722285674868097 4.396200574616024 -0.3733013670187013 8.893797245673262
4966 7 0.0003560830988055774 -0.01049119920527949 0.003490965497770762 1.183013336714287 1.843433735528765 -8.556049200364351 -5.670387326920464 10.42868727566615
4967 7 0.007044869600446464 -0.001804649568859543 0.0009935562030663246 1.182949556775686 -1.668344421919112 0.2178341731781881 0.1070831937704989 1.685909738847526
4968 7 0.003492789292568322 -0.007860026614823379 0.001059701710252756 1.182954477193356 -0.7410621833083253 1.852654143093311 -0.5777625531380732 2.077332448420121
4969 7 -0.002268059264220697 0.006252029791071339 0.001488940827172659 1.182818416413943 -6.097626466250172 -6.506689193313615 -0.06724974028481237 8.917543120605984
4970 7 2.203430485277081e-05 0.004067251100939745 0.003474422237741401 1.182821881291001 -6.962415142571067 -5.396137037951291 0.03131305614192158 8.808774038272157
4971 7 0.0002899333044345527 0.0007022339089540887 0.002981642564842566 1.182776577594127 -10.7116999445442 -3.106653333115144 1.911980059674352 11.31580657234366
4972 7 -0.0007837193620044423 -0.009274940267834495 0.001051507514421589 1.182931026219 -3.693150344398251 0.9160277577911763 -1.801790711343302 4.21009692131379
4973 7 0.01163251425693234 -0.0008005499046194254 0.002612600375959656 1.182973134978502 -0.3379562047510665 -0.07005250124263773 -0.06483036355466182 0.3511762026372576
4974 7 -0.005390346171372374 -0.01106351154742537 0.002998433877251025 1.182835882704057 -4.316386554043079 1.864613122231687 -0.2586164203177567 4.709018733492197
4975 7 -0.004214848321967312 -0.003793087028323062 0.003483376219661647 1.182617700127434 -5.217170300057902 12.16291935913092 4.781284844307376 14.0718214186697
4976 7 0.01039028754791004 -0.004292008284824653 0.002495009117081474 1.182971559265025 -0.2909463957109805 0.03975591965611595 -0.0189802825215295 0.2942627897806841
4977 7 0.008030209136673438 0.008142998894289653 0.003483380841685051 1.182975560285445 -0.08440524186580066 -0.2771990120926965 -0.1220535280084934 0.3144210566404726
4978 7 -0.009840500787981861 -0.001100086456727364 0.003488482383418866 1.182562105586106 4.718210176552692 2.775520077156242 1.071961636047356 5.578003291320301
4979 7 0.008783273022084965 -0.007050022371475397 0.003010353285770457 1.182970865483886 -0.2871928661267203 0.2064767890373314 -0.1134343785112145 0.3714562760184197
4980 7 -0.001705612615975552 0.004129896819950993 0.002968931200092136 1.182753223063463 -9.659916411431594 -6.349940423623297 1.378934702652319 11.64204403760738
4981 7 0.003543575583510518 -0.007883059812657802 0.003059701710252756 1.182962167317966 -0.4046179757936687 3.305897302972838 -0.9125766559954492 3.453327212588793
4982 7 -0.002164444037543191 0.0001070368488288194 0.000491356946797271 1.182659721110775 -8.01508435635014 -1.511068456680851 2.520800869565163 8.536939858297297
4983 7 0.009517446198682106 -0.001855392372308201 0.002491057507343824 1.182966963880298 -1.020636793500125 0.05658317116468513 0.0211457844381779 1.022422742169194
4984 7 0.001296958602138781 0.001112290404207581 0.0009995667762974733 1.182830495360544 -6.569068838796612 -1.022630291292266 -0.3843603993769194 6.659292082355778
4985 7 -0.004743108972997599 0.007132764661852246 0.000496703183449469 1.182772849135044 -4.956006786312455 -5.517222080126983 -0.04149875012616173 7.416432086500749
4986 7 0.003266209809336665 -0.01060713160927912 0.0005101311284948868 1.182970297686045 -0.3926181680820729 0.2507674914812493 -0.6539708889348608 0.8029391535266999
4987 7 -0.00225444675317394 0.005308526735092766 0.0005008512094366488 1.182788374615635 -5.541524107916851 -6.011286102187464 0.07254817155104791 8.176142934059506
4988 7 0.009847079587696057 -0.006780162886425543 0.0004913800299994412 1.182972028095088 -0.1811609689714032 0.04587770253213406 -0.05332195881749722 0.1943380857176986
4989 7 0.009709000555668435 0.0003907974725719998 0.002489419679794134 1.182967675109805 -1.03547176677224 -0.002774328846000883 0.02134504497935728 1.035695460851375
4990 7 -0.006096613212963398 -0.003159764684122332 0.002958734103113359 1.182537761437572 10.28055834977673 12.34290436062761 6.75384568683526 17.42560184327495
4991 7 0.01004907900840554 0.002328185974526137 0.00351419864220469 1.182970207899791 -0.6956281635919743 -0.1847452985719478 0.1096068981365325 0.7280405479407674
4992 7 0.009205638280961079 0.006678576007783606 0.0005093927082647207 1.182974540372615 -0.1790337395989665 -0.1868726924185681 -0.0274873716079249 0.2602499542448903
4993 7 -0.00188064975816564 -0.001324920439881365 0.001010213392834173 1.182672462181904 -8.545858278881186 3.360366159478852 2.204247950632256 9.443646725516539
4994 7 0.004090388929106376 -0.001638799292579486 0.003490382347750167 1.182916138223066 -3.092566830075894 0.646350921391932 -0.537597370549448 3.204801092874805
4995 7 -0.002475041052455766 0.002518227151540489 0.0004680799906554873 1.182685961274441 -7.899970161924948 -3.733750936082287 0.8085691378880269 8.775204194931582
4996 7 0.008481289655145852 -0.0006631702651934444 0.0009824902607755799 1.182960939048453 -1.237885299774076 0.04965100202975204 -0.0478102856521745 1.239802831426616
4997 7 0.004981883610188873 0.007935801914720883 0.0009777418260508621 1.182967151583271 -0.4639384046999354 -1.247315106754394 -0.4270633005533871 1.397646908762295
4998 7 -0.002077071062376767 -0.00187904410422768 0.0005188564460369022 1.182681260235551 -8.24050435408574 4.132448402578987 2.787096596106406 9.630729424384821
4999 7 -0.005779968471968979 -0.005300381480180088 0.003050915838647677 1.182680365971752 -3.108855407799951 7.009009321588653 1.002962162231598 7.73286018983868
5000 7 0.002504162427594941 0.002423481904789578 0.002939180325409585 1.182883679277204 -5.349929413383891 -1.731003524990681 -1.040095117054848 5.718384018605398
5001 7 -0.01214732518686663 0.001695480300208259 0.0009978687512312277 1.18260388956943 0.1603577513328451 -1.391055196370254 -0.02083607454803098 1.400422546863547
5002 7 0.009203003861017276 0.006785448949632072 0.003509392708264721 1.182974816818795 -0.1444894365063597 -0.2027687876914888 -0.004252958989461497 0.2490190076760556
5003 7 0.005082410409134076 0.003221983978020327 0.002970326343048768 1.182935284250597 -2.200990120208658 -1.013870912397555 2.596067928543035e-05 2.423281192296084
5004 7 -0.001213836934953051 -0.003322617979076427 0.003012423499329184 1.182738586101757 -9.581164722673138 5.080590548736991 0.2295008553316324 10.84729405932695
5005 7 -0.0005807890039689605 0.008271713624472307 0.003684724317412645 1.183022591309169 -10.45281603930187 -12.60424824937645 -7.660429995806859 18.07790432555868
5006 7 -0.002824122647472004 -0.008393206137855744 0.003498222009680793 1.182869256558174 -9.048627350919832 3.736365022147706 -1.47626024153902 9.900374983569669
5007 7 0.001085329278901923 0.0005773459538127555 0.00050876305567354 1.182819918755623 -6.422019481678943 -0.6510411740870439 -0.09491972729286223 6.455633089639611
5008 7 0.007269611496833131 0.009364303193426571 0.0005232941718219705 1.182976326844464 -0.1418925313630918 -0.2276517839423107 -0.05419606441709023 0.2736714062284256
5009 7 -0.003908021499243936 -0.008207286813577882 0.001499712129038918 1.182822068604313 -5.477944928742652 5.16269899410768 -0.3806431852752325 7.536990830603038
5010 7 0.003699455028336122 0.002086109171407247 0.002362493481752797 1.182908117896294 -3.142881916520328 -1.045032320251512 -0.9085416719130821 3.434420949907476
5011 7 0.004769377357807781 -0.006679149946434116 0.0004824670615081595 1.182950908906168 -1.473793745444004 1.245860703085115 -0.1119555001675049 1.933072924030379
5012 7 -0.003089227364014645 -0.01135323489681299 0.0005073016047251925 1.182888806223681 -4.472706771502919 1.984080327408399 -0.3156448200889433 4.903194087725476
5013 7 0.005503222625828464 -0.005435249735205551 0.002984549658735349 1.182949588379133 -1.410441191395235 1.172435361204863 0.02206457593225659 1.834239863294618
5014 7 0.009521363439522673 0.004695753311894131 0.003491371635545751 1.182971920583834 -0.6403351345839389 -0.4009648066439224 0.1086684405687285 0.7632893885842175
5015 7 0.01227257300316576 -0.0005383538670764838 0.0008070439262913836 1.182974315765112 -0.2051536192797447 -0.02402761801141835 -0.04894461367726242 0.2122755500261336
5016 7 0.008472519120447759 -0.005911181174169307 0.002975014951213065 1.182968564850704 -0.5811935035129925 0.3653028453598259 0.09022479580159319 0.6923673671766535
5017 7 0.002809617175750552 -0.003879340188455554 0.001025861953376168 1.182896142955673 -4.04721421090646 1.950754581142622 -0.01634021707548261 4.492844678764913
5018 7 0.009331846959773901 0.001016315085990901 0.0009890955133306841 1.182966312772151 -0.9834595459754463 -0.1219211272683614 0.1379061856095847 1.000537633412159
5019 7 -0.003950807203881601 0.009426686518713999 0.003488743033681845 1.182855465037517 -7.084467941020466 -2.93349803659342 -1.008027374094636 7.733771132181786
5020 7 -0.003724461479027713 -0.011510124170701 0.0009997782533897144 1.182876223645881 -4.375915184909674 1.949786971244445 -0.3659097432287716 4.804601219554792
5021 7 -0.001926542832282052 -0.01154929808648336 0.001556037751182008 1.18292224894055 -3.824259023778705 0.3486815162869942 -1.111736843712035 3.997811237467303
5022 7 -0.003143350158921927 -0.006190673582267561 0.001496695493287486 1.182783218231884 -5.843643197000159 7.059849041643176 0.3367248845880376 9.170769757906756
5023 7 -0.01156664877845974 -0.00146940396518663 0.002981216425394833 1.182593699254826 1.001423869608015 1.74360025711049 0.6786559593986867 2.122160581681746
5024 7 0.004862588840748742 0.008575718022583785 0.003486350428952624 1.182974881785618 0.5071716228476334 -0.8197002867296858 -0.8439265053191128 1.281149312713691
5025 7 -0.003007846926649483 0.006092217085995648 0.003503171674414813 1.182784959880413 -5.711892138976548 -8.562852892013284 0.5005903285920816 10.30527787760438
5026 7 -0.001540921640351561 -0.002555097309219023 0.0005188564460369022 1.182719521325224 -8.030467054993732 3.867408752800838 2.784637021838011 9.338064838389757
5027 7 -0.006392839910978349 0.001452228410834661 0.00246664300746661 1.182489191495542 1.788046825120258 -5.923651043624782 16.1485477953629 17.29341924069904
5028 7 0.008039426083621782 0.008134079388499067 0.0004833808416850515 1.18297508237887 -0.1371184050146425 -0.2446606814370481 0.04623860114860934 0.2842504428689258
5029 7 -0.0100629880715615 0.005069732594436164 0.003509300095723848 1.182644987856414 -1.102709047684034 -3.684868790884623 0.02615131578779384 3.846415102559416
5030 7 0.01037702013814657 -0.001512566842332891 0.00350032416646345 1.182970331192012 -0.7221591847921235 0.045429242096714 0.1151647000031313 0.7326940782781839
5031 7 -0.00487171663603293 0.001558343233526258 0.002965294183737681 1.182437330059944 0.7054221829309599 -9.776672446512164 19.07805289965663 21.44884721901525
5032 7 -0.002628472734305034 -0.001183755983059544 0.001485707306767405 1.182623841173385 -10.61041438000394 3.952109264222731 3.262251272295235 11.78313813529067
5033 7 -0.002241316415393347 0.002524859067482326 0.003468079990655487 1.182621276973116 -21.88493401355938 -15.17211819439091 1.216901565079097 26.65753845915838
5034 7 -0.001114100815462386 0.002356357222378592 0.002940959499824512 1.182718967563587 -13.44818516845705 -7.086157341813587 4.835888800383572 15.95158708993315
5035 7 -0.007502975903713007 -0.005674497567889267 0.000501256810142374 1.182682314696172 -2.044866839896798 5.374975184443111 0.5196778044566032 5.774244855107341
5036 7 0.004277802960101715 0.002835410890070747 0.0009452038326362507 1.182918582270095 -3.159363050680233 -0.9347248787941171 -0.2567734697291894 3.304726630115864
5037 7 -0.001800905218081829 0.004655513028517954 0.003500851209436649 1.182766584676467 -8.317817962842479 -7.928649395414485 0.4436847120290487 11.49984491295773
5038 7 -0.00137027718596501 0.003570552192857016 0.003468079990655487 1.182747028055709 -9.43775218477461 -6.61114607968125 1.432923941823981 11.61170486238584
5039 7 0.006998907326991259 0.009363819350259539 0.001498026119612691 1.182976809560109 0.0316138213367908 -0.4323846930717823 -0.1914290390505465 0.4739209148097492
5040 7 0.002915805799673623 -0.00289938999042172 0.002974050770922238 1.182892324323095 -4.154039955456389 1.638555396978248 -0.5889461272076942 4.504194631812396
5041 7 0.008475343427978505 -0.007976614733514395 0.002502270071026006 1.182971359548223 -0.2287300594921294 0.2793773826604716 -0.1050773257030652 0.3760457504538466
5042 7 0.01187737306602409 2.149602134384734e-07 0.0035 1.182973723086594 -0.1923520767732442 -0.025537103352539 0.07350950791605355 0.2074972598389642
5043 7 0.00763252509864421 -0.00476051728970399 0.003535793001244682 1.182961797165049 -1.074883576235828 0.7026548973903042 0.1248004731449804 1.290222370518087
5044 7 0.005003460352509566 -5.674977729664129e-05 0.002970682726211012 1.182927453946067 -2.903747909929276 -0.0655748109301435 -0.7954684939403924 3.011448506134375
5045 7 -0.005929219285368094 0.004079178292084581 0.001016251503217157 1.182637032490859 -3.079514619565798 -8.582206989172045 2.191223302632039 9.377587464753962
5046 7 -0.0009296734154232608 -0.01064872518915732 0.003572030318278796 1.182977287249265 -12.66389967537382 -6.837390365150082 -4.334547183903765 15.03038792855555
5047 7 0.01108100966105117 -0.004016371609130007 0.003007165408212824 1.182972547454852 -0.2573017059137397 0.06955006203671074 -0.003606209472797678 0.2665602816291141
5048 7 0.003315053896841448 -0.008617960157252764 0.001569832838747643 1.182962709850637 -0.762729138955298 1.764306369477393 -0.5496621154989073 1.999165112241788
5049 7 0.0002442803898345034 0.002001808374381308 0.002963683229792959 1.18278922516448 -8.007621066453321 -2.706798995615586 0.3574638561375454 8.460291741720098
5050 7 -0.007920839665858388 -0.003432757896456582 0.003498911354880796 1.182579483265744 2.397881486945151 11.02003518750447 2.967686893897987 11.66182561434893
5051 7 0.008610915135548586 0.008120301675536339 0.002976833723795458 1.182975797458921 -0.1929665164016438 -0.2504963053757423 -0.04381897124982196 0.3192249640934676
5052 7 0.00849593176386962 0.00746334650325314 0.002486226432060179 1.182974842824936 -0.2037442052652868 -0.1757311591622522 -0.01616643758933831 0.2695449780352476
5053 7 -0.007381027998257621 -0.009809738220828043 0.002998602182097941 1.182772951282177 -3.168846226371686 2.964580603337176 0.1798296041518244 4.343116766402037
5054 7 0.006522047729133089 0.008377526360195491 0.003483380841685051 1.182974924575444 -0.2699364919289676 -0.8982154976311405 0.01559623566792759 0.9380298675557641
5055 7 -0.005727958743729097 -0.0036539575054212 0.003488932541432266 1.182552872736187 3.389401032224417 22.66335069222368 1.214317365114752 22.94755042742425
5056 7 -0.004216982654794591 0.01105013163232109 0.0009967973527107879 1.18286344447317 -4.141583139679101 -2.029442304482492 -0.3214872225816275 4.623278166450799
5057 7 -0.0117053374889894 0.0004735121790538891 0.001007382326951919 1.182595015542589 1.003124740335319 -0.8032612303415906 0.600566465020366 1.418509050993241
5058 7 0.009541401616053335 0.001033404465332803 0.002989095513330684 1.182966933639588 -0.9812095696209464 -0.09845608910554497 -0.03931130716345792 0.9869200574862088
5059 7 8.534853358611798e-06 0.01085698825330738 0.003503163597645245 1.18300341807368 -0.09381093684312714 10.34109445752804 -6.475524024510801 12.20161655123636
5060 7 0.00700537116957782 0.01006835868595565 0.00301464527792764 1.182979257204978 0.1201062991565617 -0.2877160106203308 0.01813376554087216 0.3123057145123271
5061 7 -0.003695285899637377 0.01067776181461026 0.003488743033681845 1.182881869263849 -6.958474039302684 -1.985453484315625 -1.107530476895878 7.320451505971723
5062 7 0.003920334537609433 0.003286159608198864 0.000448376604785651 1.182915481741948 -2.780728710017454 -1.412149997984394 0.1733652380183442 3.123567716774493
5063 7 -0.0002264377127877849 0.0007991930494041159 0.003472879509169025 1.182737178907034 -13.89031472004766 -3.017544855524881 3.740226050277328 14.6981533154424
5064 7 -0.005716906040030081 -0.007046065900443013 0.003561983297215411 1.182744381498815 -4.095690877699157 5.073392649674643 -0.143902933790053 6.521863598527201
5065 7 -0.011312008435599 -0.003964886145026362 0.0004768179565739615 1.182628459116044 -0.8249779588221662 2.845294108241003 0.2603988143176745 2.973902274357952
5066 7 -0.007210207633245211 0.001333793985007555 0.0004747622077541135 1.182558635708776 0.8774749741804514 -3.41172457874787 3.345806799697716 4.858420532688457
5067 7 0.00871182466614652 -0.005378532346081766 0.00348784370886865 1.182968167094296 -0.5776629375408938 0.2873714786092375 0.05537181996013943 0.6475668881066512
5068 7 0.01138833340259425 0.00347735549356313 0.0004694697906795598 1.182974423645628 -0.1576376483644899 -0.1197327725312008 -0.07443496338444966 0.2114855285213132
5069 7 0.0005364276369156899 -0.002426009492988679 0.003492571291692701 1.18280368283967 -7.950661423605417 2.985146324842354 0.0259227008986691 8.492631373134536
5070 7 0.002215747501948541 -0.004025645172150204 0.0005438650213628018 1.18288389302727 -4.361035322694822 1.904989492996345 -0.1963580162227168 4.763000160062282
5071 7 0.01018675972047595 -0.0032827788469423 0.003483139951230789 1.182970509105754 -0.6538568709425527 0.1381975813154394 0.08358086375379196 0.6735080845439447
5072 7 -0.009795697515526345 0.0006441597330742359 0.003502197276406995 1.182553923290328 5.780016036134828 -1.593292683064164 1.787897560634664 6.256496195092343
5073 7 -0.008551752509442141 -0.0007037209639588042 0.003436154144222008 1.182500612150064 15.85737883469348 6.902889963959354 5.816388443951087 18.24655386346812
5074 7 0.005229242748077842 -0.0007626568492474298 0.002456645539627751 1.182928992806843 -3.003078723464131 0.101083929476498 -0.7055680048507635 3.086507085621294
5075 7 0.003102924988852867 0.009373390403220636 0.00349906200267011 1.182985336275351 1.678948745461295 -0.5175644845187204 -1.811637274355719 2.523642506250876
5076 7 -0.009149987510844363 -0.00414181711522285 0.002989621248679691 1.182622917769157 0.7802848596057502 4.434131719306595 0.4380253822091029 4.523520178108003
5077 7 -0.005080212780230017 -0.006125619793206541 0.0005619832972154113 1.182732315985142 -4.297342567078617 5.785169799681031 -0.04110837258864103 7.206735228122661
5078 7 6.986856883812152e-05 -0.006135633218451363 0.003484699105247369 1.182889661868982 -3.763649175296263 9.493559193801151 -1.703929640473917 10.35355482433933
5079 7 0.003857811567283294 0.002549776501566871 0.002945203832636251 1.182914979687991 -2.9145541715187 -0.4589350713945939 -0.4949259493056412 2.991688338341597
5080 7 -0.0008630227068784206 -0.0004439533456540923 0.003491356946797271 1.182684758587798 -12.45414561350366 2.115306593243622 3.022976920422369 12.98917450830416
5081 7 7.414064406234666e-05 0.01210470909866345 0.00152214549767867 1.182965361492135 -2.285036774486338 0.6948329303330354 -0.8078659493368222 2.521276116161814
5082 7 0.01166490059476329 0.004021721800196118 0.0009772082095781491 1.182975050539632 -0.1370427717368084 -0.05156452988723245 -0.04101482651905528 0.1520586663830328
5083 7 -0.01103552903309635 -0.0009509898202833672 0.002483413701801828 1.182589437390171 0.7428922165077468 1.133229928462315 0.9735317725345269 1.668491243083018
5084 7 0.000231000279033547 0.006651259095884185 0.000547510077209633 1.182897724120613 -3.524515484863994 -4.699737253016969 -1.232031225366488 6.002302940598684
5085 7 0.0005677333223523342 0.001210554428844454 0.002472446285466499 1.18279814740091 -8.322134909273261 -0.6209142527357316 0.5414426271971654 8.362811971815534
5086 7 -0.004703278322163079 -0.006584649592669446 0.001049321405099475 1.182755849659662 -4.376372698400419 5.884829846044886 -0.1015052097206808 7.334450464745514
5087 7 -0.00536481165644808 -0.01043817130037072 0.001512585888725087 1.182823892528562 -3.768608360523219 2.901346045760409 0.3796478861477762 4.771200097429528
5088 7 0.01222981523984517 0.0005268668397002432 0.0008195501908166308 1.182974410606181 -0.2171464871910305 -0.03489020829690115 -0.04894461760112111 0.2253120039556825
5089 7 -0.004409444996600612 -0.0001707939677118652 0.002946277514233721 1.182416602213484 -4.579458120421775 0.2012324505867136 19.12627743683521 19.66790328852209
5090 7 -0.005866858658798577 0.003910397825641946 0.003016251503217157 1.182604945017202 1.409066331780148 -9.878846491167973 2.906583681844803 10.39352224334872
5091 7 -0.008259708665195447 0.0004645647071441119 0.003474762207754114 1.182484057681378 15.85715684509562 -7.434664066940207 11.91373027674845 21.18161047005934
5092 7 -0.007376234970500451 0.009813824879973187 0.003002844456557806 1.182775619712328 -3.462660420055212 -3.175039658863515 0.2183905724808491 4.703040342387209
5093 7 -0.01131086108594763 -0.003393733896936675 0.003524719052284401 1.182614282652422 -0.1584287733704878 2.708256898282554 0.5508662267689125 2.768250115708719
5094 7 0.0004595340114631328 -0.000994019587531071 0.003001334347366241 1.182783495960726 -12.1972255122141 3.014049674224732 1.391973505587482 12.64098081142275
5095 7 -0.008014793917821852 0.002025538907957372 0.003497685331042665 1.182498139536001 16.80288348061652 -9.215469605299264 1.085421060798276 19.19478867267349
5096 7 -0.004868565575181462 0.004871968117845677 0.00349515430380515 1.182663519147339 -6.352079559118302 -12.43235331232304 3.135406269893929 14.30884677691003
5097 7 -0.00684601066557324 -0.003066534344610169 0.0004698015616810932 1.182599840090258 -0.2777036257207509 5.553402947748535 4.124438752154723 6.923033917588167
5098 7 0.005701195045450889 -0.0105505120362426 0.003489079747943377 1.182975527913007 0.3034072014162821 0.2480728308701301 -0.05923195519462642 0.396364079860119
5099 7 0.0004863736465859684 0.01164956894809047 0.001014083849701872 1.182968666889195 -1.477020187098918 0.4579061953516743 -1.20693118804214 1.961619129573317
5100 7 0.0009489215973207628 0.01064734028957439 0.003503163597645245 1.183012689817802 1.384816292500019 10.53452049223862 -6.76769264490265 12.5974402916322
5101 7 -0.00413095361804562 -0.01101035690930249 0.000492476648664522 1.182860297748795 -4.384523992617079 1.952831322629351 -0.3705664610288305 4.81403368481324
5102 7 0.00177390464904473 -0.009422983129552948 0.0005101311284948868 1.182956278666438 -1.284105043958451 1.835301502836947 -0.7879054975014078 2.374458347334826
5103 7 -0.001303961467369561 0.00344695669768675 0.0004680799906554873 1.182758919829253 -6.586507092183263 -5.194238258150755 1.798828199401919 8.578925902977653
5104 7 0.01079129414415099 0.002797962100162915 0.00147504006843 1.182973078910397 -0.2830794537448574 -0.07910903508362382 0.03501173719303816 0.2960034430637983
5105 7 -0.004927686069596269 -0.006512404847974405 0.003049321405099475 1.18274339157538 -3.342512242613455 7.671087833987362 0.8980265261501225 8.415725060292726
5106 7 -0.01151283461521809 0.002039603706387533 0.0004926837006863033 1.182605194433386 0.3325713933073797 -1.171066326824399 -0.1501102587087902 1.226594131421646
5107 7 -0.001250354463926018 -0.01187456482655315 0.003476705828178019 1.182952505253994 -5.00930206986362 0.06027516335727571 -1.638998185462419 5.270963419945806
5108 7 -0.01171785168585439 -0.0004438049469956404 0.0009949313183829616 1.182595084288217 0.9595402238473973 0.7083265427275199 0.5846333046323476 1.328246977485277
5109 7 0.002010716753207483 0.008478243309919255 0.00100890895981974 1.182959448991607 -1.523635962808471 -2.688948300371292 -0.6997516611867617 3.168842359058997
5110 7 -0.008431800253559992 0.005370148576379258 0.002994861315263527 1.182660837036931 -0.702839233558278 -5.567632214785065 1.043398593785338 5.707993701192605
5111 7 0.01134363513883399 -0.003107594328124609 0.002953032421144478 1.182972739248761 -0.288514606185107 -0.0001801746963605251 -0.006256032887498249 0.2885824810908626
5112 7 0.005225782395568275 -0.002205543575433246 0.003485962813416739 1.182933890949439 -2.212935823247725 0.1496904920622801 -0.3671241358904631 2.248170885938222
5113 7 -0.0004736802094449015 -0.00726795422374518 0.001488053857600599 1.182897591838221 -5.35019237028358 6.274234584023944 -1.396771228967992 8.363106353531293
5114 7 0.01105675249372185 0.005387231627828191 0.003018658635770063 1.182975248630599 -0.1215087707787482 -0.1458931971489504 0.05711339602823465 0.1982703869880292
5115 7 0.01109120327387825 0.005411510944999842 0.001018658635770063 1.182975360311079 -0.09078346793324117 -0.1294954061253353 -0.05344665624998706 0.1669348475359643
5116 7 0.0004633150736398016 -0.003916722878358561 0.003037432074655083 1.182829422908202 -6.047724772890037 5.422998414837132 -0.004708372980974742 8.123048005812228
5117 7 0.002814958904826047 -0.004553232900919709 0.001526046125315255 1.182905064013878 -4.246348123799322 2.608191066373915 -0.4090739328406703 5.00014744879953
5118 7 -0.01118396907047978 -0.001892418729998242 0.0004884823834188663 1.182602953541039 0.2293471840249974 1.538096615560849 0.9169445618440227 1.805305696860025
5119 7 -0.01110630195102057 -0.0009556394662154963 0.001483413701801828 1.182593628467493 0.7449928404013332 1.146752217346657 0.4539392911317733 1.440873297785734
5120 7 0.001970795429543822 0.00890301700983089 0.00349906200267011 1.183007468054322 8.766877614339053 -5.108846119539718 -4.1498904185152 10.9626658374512
5121 7 0.00346668580743203 -9.158226498815164e-05 0.000907671996866713 1.18289284517676 -4.454380896300478 -0.1852602342337441 -0.4971259796187069 4.48586276688519
5122 7 -0.006128619214275812 -0.001735714554927923 0.003469801561681093 1.182395572191055 1.726260220164413 11.44527351424048 13.18969355216955 17.54828413730641
5123 7 -0.006994919852564979 -0.0001162544389673409 0.0004747622077541135 1.182549279572618 0.2826551709043175 1.235997567277116 3.536645779484567 3.757053007544597
5124 7 -0.001266935434586605 0.01183531183221465 0.003508061647976797 1.182962799000837 -3.597349090425805 1.318484606746523 -1.220613049846181 4.021096660622534
5125 7 0.006747886339441614 -0.006539460288535804 0.003487171242344414 1.182963443702895 -1.068484262549695 0.9911630876879862 -0.1714060800774139 1.467461389611002
5126 7 0.009919803592638604 0.001072667451259892 0.00051419864220469 1.182969203258755 -0.7114672319034439 -0.07487781511925209 -0.05239612037227508 0.7173128067304024
5127 7 0.004536636437686222 -0.003960978919339084 0.002984079529240556 1.182929282436103 -2.705981814267655 0.7252421333551168 -0.5860699100239136 2.862130617315742
5128 7 0.006522531864364788 0.007227948354960155 0.002974772238783289 1.182969428563882 -0.5732284229634498 -0.8766907243083633 -0.184734440621118 1.063627878787071
5129 7 0.01086688922854716 -0.003437558935002383 0.0004831399512307885 1.182972220065928 -0.2676966985867348 -0.01759712970398983 0.04907227575217113 0.2727256307272078
5130 7 0.00260210789310035 -0.01090065300382656 0.00300417388874539 1.182981458014449 1.408936114522114 0.3295597138559091 -1.135187453451365 1.839119662848195
5131 7 0.0009263168508110746 0.0048373813084754 0.003474422237741401 1.182875698508236 -5.100869223580857 -5.570487763425314 0.1422700576551214 7.554431912980005
5132 7 -0.0002558380369208815 -0.01186494888247822 0.000476705828178019 1.182947820982589 -2.688844704391411 0.5718037845537922 -0.8018390925074883 2.86352777926756
5133 7 -0.01026816889805519 0.0008931250051164969 0.0005021972764069947 1.182591489098819 1.112674173577934 -1.629680090366855 0.268884681339835 1.991532069876025
5134 7 -0.003596046498148317 0.008024172793431017 0.000496703183449469 1.182827430651173 -5.405768400383051 -4.656133286018054 -0.479679883242246 7.150664442283144
5135 7 -0.01163742169638396 -0.00147405361111876 0.0009812164253948331 1.182599819165056 0.6720999467067279 0.977245025571528 0.3806722574652288 1.245647440478708
5136 7 0.004817108458295016 0.007566583247061307 0.002977741826050862 1.182966488281258 -0.5535793061295217 -1.339603580126884 0.01133233054833403 1.449522756557918
5137 7 0.002874033919229402 -0.002384039946513361 0.003492053838908872 1.182891201996422 -4.154036014223717 0.2476325266078434 -1.280318840979065 4.353912425654405
5138 7 -0.005357822574827674 -0.004166195750426423 0.000488932541432266 1.182658053916705 -3.67765554646267 6.485654502039373 0.6800394157885691 7.486742832853102
5139 7 0.005025427689756764 -0.001143987021821082 0.0009763451611669052 1.182923699434345 -2.888007163534894 0.3686510923991259 -0.02396269628256981 2.911539664055611
5140 7 -0.003349405967533215 0.01121955127607083 0.002965099957871679 1.182894587806836 -6.109311117262162 -1.354865474927991 -1.693634455239303 6.482880567358049
5141 7 -0.0054100668173464 0.01109615021976987 0.001018815755216094 1.182837378933801 -4.102282565356029 -2.208945684586433 -0.2030856953843116 4.663625958752139
5142 7 0.005699706746416705 -0.0108169281348875 0.0009964347928867094 1.182973199744193 0.06031474174608189 0.3190558309108386 -0.1851151129778673 0.3737674361991835
5143 7 -0.008984296449643632 0.0034421925193295 0.003006985426766513 1.182603381381114 1.663847797567533 -4.165205045737648 1.412669361547946 4.702441630851464
5144 7 0.01174478267001129 0.003570205868019682 0.002977208209578149 1.182974712488409 -0.1822805058367759 -0.07479488746572309 0.06763310988689686 0.208313935088592
5145 7 -0.005614772230810106 3.301149833417454e-05 0.0004707836003004895 1.182546997164543 -1.029717047425178 1.02981994931279 5.287436668714706 5.484326107319795
5146 7 0.002697179926370161 0.004414962025099934 0.0009366625377043632 1.182906266978797 -3.716469642680485 -2.429519639890043 -0.5886238451131256 4.478972015609477
5147 7 -0.004200418422349046 -0.009336449765201397 0.0005141520114740618 1.182834226989787 -4.839962151958526 3.356741584889634 -0.3595567332362801 5.901036243282523
5148 7 0.00925749899298357 0.007351611488940004 0.003002845590375127 1.182975490122652 -0.143884284791867 -0.2111276125768665 -5.569261869394187e-05 0.2554947343961169
5149 7 0.002465600322092189 0.002312856904561644 0.001356469974526131 1.182876621933463 -5.459482626497899 -1.453993301865642 0.2013826801755504 5.653370857707571
5150 7 -0.01156444138943637 0.003989331365608117 0.001016326776496474 1.182628562349428 -0.4694158793306311 -2.305806450288602 0.03358775613361385 2.353342897098161
5151 7 -0.004301546278432602 0.007809176929274214 0.003496703183449469 1.182805701582238 -6.103534942150237 -5.688138266154483 -0.04972789958137811 8.343292430985299
5152 7 -0.005396861996079074 0.01101717858870787 0.003018815755216095 1.182839183715691 -4.222087973277945 -1.97259223326666 -0.1453090341096505 4.662430877582647
5153 7 0.005071652741097457 0.003834937737903742 0.003473499115198168 1.182939593180423 -2.200998137245153 -1.443406297912816 -0.3047605695197552 2.64965913765243
5154 7 0.01048853160594854 -0.0001955838755301442 0.00350032416646345 1.182970733794243 -0.7152594216815188 -0.03277112287522149 0.108492708383768 0.7241827494294025
5155 7 0.009795792377109952 0.006543647582220463 0.001020312925136194 1.182975073815024 -0.1864167303379052 -0.1838505014527039 -0.03219345788353055 0.2637965560138809
5156 7 -0.002435909093754578 -0.008726117994505333 0.003498222009680793 1.182897251049066 -10.7154709649324 4.951908368790627 -1.594853892849025 11.91160247123549
5157 7 -0.00212087969047913 0.01163800939609937 0.0004763569241898338 1.182916198286135 -4.196961643778071 -1.210407932225132 -0.5422766691209913 4.401549543923231
5158 7 -0.01020990341109461 0.005688077828900344 0.003001983796410114 1.182656180682126 -1.099324702949626 -3.556315944617634 -0.04301171772957707 3.72259961697722
5159 7 -0.008853558237581931 0.008573709162684681 0.0009972680709155733 1.18272890114989 -2.641796574505533 -3.268317835653102 -0.2169559683778907 4.208094641061693
5160 7 0.004161505070801174 -0.007821824094502647 0.0005663142828427598 1.182956470548555 -1.252778171964595 1.783177223437352 -0.3707439067427493 2.21057123900669
5161 7 -0.007885588421933369 -0.001145662702200401 0.003436154144222008 1.18245898324961 16.15763573863344 6.634132770431212 5.847932680413047 18.41953384080924
5162 7 0.009026103602270581 -0.002533874282375117 0.0009907333408803744 1.182964961475309 -0.9630196271524908 0.1498800428340109 0.06224939846198706 0.9765991076842773
5163 7 -0.004063254020407438 0.006009591439994186 0.0005031716744148134 1.18275636400119 -4.872268580213253 -5.626492159670891 0.206415310237253 7.445738540995891
5164 7 0.00538458352327631 0.01088713382782045 0.00101464529123683 1.182979377394275 0.000721131323742531 -0.5429840920292373 -0.3078149370070143 0.6241652663132045
5165 7 -0.004203777833527265 0.01097116000125909 0.002996797352710788 1.182867264871099 -4.847565786682756 -2.457083429130464 -0.3739982847847532 5.447570811925868
5166 7 -0.001855962060627077 0.01203089014617881 0.002984418572166631 1.182944072253096 -4.444566552019233 1.088593577673505 -1.650050527842974 4.864347289936751
5167 7 0.005763049808661986 -0.003745535066157997 0.0005020825972271893 1.182942026600052 -2.268637977526192 0.5196061989148489 -0.2150355591688069 2.337295267340417
5168 7 -0.009006911446109678 -0.002034119791978501 0.00242354788252167 1.18257539031171 1.978147919578028 3.80498485746498 2.67073948091583 5.052111274723789
5169 7 -0.00653762634107314 -0.005845797847650313 0.003561983297215411 1.182688784033295 -1.548662803909233 7.009668636290991 1.459418655758101 7.325552107765557
5170 7 0.00225855639375249 0.001744716717854864 0.0009080933697404798 1.182866562455896 -5.450514225131938 -1.436267762911249 0.2129575309084688 5.640595829796204
5171 7 -0.008318874334166141 -0.0002271834298334844 0.0009109163519761218 1.182556530685643 3.578564045322171 2.551986242562139 2.110277476389673 4.875656410787841
5172 7 0.007309208563754204 -0.007592200432815841 0.003487171242344414 1.182968972433268 -0.5378663146407248 0.4914774462472106 0.05876006474303101 0.7309603257383264
5173 7 -0.002285442048872971 -0.0115987497291209 0.003507301604725193 1.182925294508955 -6.270263056854545 0.4524154229013197 0.1318298818822677 6.287945422376929
5174 7 0.01012461676236535 -0.005257298668296044 0.00348784370886865 1.182971647522608 -0.2381079773309887 0.08802645504177091 -0.06324803540028151 0.2616187677477876
5175 7 -0.002748724874092323 -0.001436531656230004 0.002485707306767404 1.182571155013155 -11.10985975124023 4.746558028497041 15.5393280492744 19.68322923285413
5176 7 -0.001983909284422389 -0.006245327767243729 0.003523877556210437 1.182825484029992 -6.999469425174325 7.743326655650375 -1.042971398158669 10.48996993644085
5177 7 -0.00194764398786587 -0.007792768002640897 0.00102209956589123 1.182865750885147 -4.551235917914605 4.689994490553539 -0.6032613626718161 6.563057288614141
5178 7 0.003034702466803558 0.002397050407730911 0.0008656662539021974 1.18289197290676 -4.310795141220681 -1.239271974136004 -0.551935871014554 4.51922371444072
5179 7 -0.0001091228746401722 -0.001297775463856297 0.003492571291692701 1.182745161076123 -13.08997119581348 2.946670539713085 1.697798356342189 13.52452337184707
5180 7 0.007912991637772336 0.006512974469414406 0.0005093927082647207 1.182971058476608 -0.5626536005477051 -0.5433417201800633 -0.1616664572316066 0.7987085466497436
5181 7 -0.003034563599053007 -0.007664552799382605 0.0009855601175648566 1.182831592351759 -5.443374755163796 5.193506037450202 -0.3943478949456556 7.533813373613278
5182 7 0.001240766795876203 0.004113542230855294 0.003474422237741401 1.182870282705992 -6.318280192198038 -2.559486252076331 0.1302393478012394 6.818254670324769
5183 7 -0.001533826614657352 0.009752551822689791 0.003486777160558845 1.182970296942587 -21.5435952043978 5.353618928319373 -5.523980377069483 22.87579701708467
5184 7 -0.006182394074510856 0.006955158002493382 0.000499395166421551 1.182736270537182 -2.890524538349051 -5.400687140657936 0.3225351496613001 6.134051077455504
5185 7 0.004429138492558135 0.001814027816377633 0.0009141168769671462 1.182915746952575 -3.291716851929667 -1.04718893524898 -0.1714353710835257 3.458524914735211
5186 7 -0.005559096632662976 -0.00981959300861157 0.001020109240060565 1.182810451242486 -4.093228740627217 3.112771971603302 0.1017654054415461 5.143367288852748
5187 7 -0.004343656944482822 0.002854907123746492 0.0004945105834371912 1.182621793845985 -3.663751869656535 -6.560279939267475 4.169307712045057 8.593222762251971
5188 7 -0.005318398338671279 -4.221369436709169e-06 0.00347078360030049 1.182343086651389 -2.600553921219054 1.014318739422288 19.1534806104977 19.3558141833151
5189 7 0.002198460929039438 0.005818207443732923 0.0004882859329187122 1.182916218834229 -2.744887246662937 -3.494855389607276 -0.8774962467203242 4.529726244947714
5190 7 -0.005048481443352613 0.001964150914960436 0.001486391383149687 1.182559433274453 -2.496240809758072 -6.415351152016723 3.583914493284944 7.760953013590651
5191 7 -0.0008749516111440663 -0.009890669213013093 0.0005720303182787963 1.182929150729139 -3.558116820358013 1.611023752914427 -1.511801748653671 4.188214102335434
5192 7 0.009967140012190852 -0.002654275994596483 0.003483139951230789 1.182969243880318 -0.6581442606771243 0.147285135164606 0.08328649005207744 0.6795464798877922
5193 7 -0.01062075456932053 0.004866989213265694 0.001032943171534019 1.182642788138665 -0.4254650934853219 -2.802562004700749 0.2279904276714327 2.843827345511073
5194 7 -0.007047122474501801 0.01008360866231908 0.001002844456557806 1.182787606977705 -3.674305357809379 -2.860487438584958 -0.133765435489823 4.658411901116176
5195 7 0.007590900746425402 -0.002206336677844123 0.0005075933896495858 1.18295518094102 -1.651929028556093 0.196200741556593 0.09679656368253248 1.666353450236287
5196 7 -0.01126484406996158 0.003932193348884939 0.003523643075810171 1.182620309064931 -0.4622048528305177 -3.196794726556033 0.4664907538329549 3.263547682067505
5197 7 0.009543692645031396 -0.001929654874256099 0.001491057507343824 1.182967283303908 -1.020169032164589 0.05614575609425808 0.03502630501484137 1.022313084215409
5198 7 -0.01144484841256434 -0.002387877729035383 0.003013201435703267 1.182602104002716 0.4996018174602888 2.004598013211149 0.1093109055592465 2.068807396703205
5199 7 0.007115423558464793 -0.003481628733182445 0.000535793001244682 1.182954062177737 -1.478497109100813 0.6374757773890417 0.0248925324755737 1.610263551891513
5200 7 0.009344266099058611 -0.001226469104934921 0.001007917556113035 1.18296616158909 -0.9987974354422681 0.0197074342765278 0.05271708724581197 1.000381822755441
5201 7 0.00643400893805651 0.004001636553208017 0.00297238773246152 1.182952645544585 -1.499431402977136 -0.8292005676030078 -0.06706575979482575 1.714749523890877
5202 7 -0.009349450886208106 0.003068247948685303 0.0004976853310426649 1.182609617102749 0.6139207106525645 -3.115404784897622 1.464381996084803 3.496721356240509
5203 7 -0.003199054206435221 -0.004109938151719643 0.003485479829192984 1.18267201392715 -11.63453885556136 12.73066859975711 -0.3551072723248122 17.24988459536083
5204 7 0.008802653731626555 -0.002475615029383777 0.003507593389649586 1.182963057333007 -1.225623067884922 0.1663089165652025 0.1426281842175769 1.245051548809904
5205 7 0.002850943216058249 -0.001329106430815151 0.002982436186659039 1.182885777857034 -4.599761039118119 0.3355613453951238 -0.9898211100691753 4.717006345496152
5206 7 0.00258257655327775 0.001394948617303619 0.00290809336974048 1.182879524246808 -4.941602628418692 0.3474331439619091 -1.080520338771972 5.070273220371628
5207 7 -0.002823873836810164 -0.000801103131292521 0.002966850860730502 1.182512494598718 -10.8649255546926 3.524002688390684 14.97105110208421 18.83076135895769
5208 7 -0.009362941066159624 0.001893991794450895 0.003497685331042665 1.182567045132276 6.178767496531074 -5.146488122561907 3.259375288919846 8.676810188420683
5209 7 0.002045689746753427 0.0009686344702358742 0.00141685642541402 1.182854208131644 -5.38663832898636 -1.25260496024161 0.1518673809722562 5.53244569563319
5210 7 -0.003388365761721423 -0.002070684640704167 0.00247772657963178 1.182559264758171 -8.359947298843828 7.653986010090346 15.84565058982395 19.48221915739819
5211 7 0.006258073147770262 0.00411316954044531 0.0009723877324615197 1.18295058098416 -1.551294746979086 -1.003676716247739 -0.1252591351561092 1.851910417294208
5212 7 -0.003632024232082725 -0.01174099061230852 0.002999778253389714 1.182887352094929 -4.670586207575074 1.032666094791981 -0.4770158881359896 4.807111288836321
5213 7 -0.007472207615963126 0.006252717959761187 0.003485561219539678 1.182691596978597 -2.743742047587346 -6.068747642159194 0.7470126043491984 6.701928543260377
5214 7 -0.009292393786704033 -0.00269615678154805 0.0009873937382996619 1.182602830771914 1.58150254841711 3.173626427303185 0.7836988758976547 3.631423817018641
5215 7 0.01032369259418552 -0.004262801420243495 0.001495009117081474 1.182971431081265 -0.292946355176876 0.04085982184998499 0.0131563984301563 0.2960746238242682
5216 7 -0.006406820210006912 0.0006157267984394665 0.003474762207754114 1.182362992064096 6.323485710970408 -5.525172556872628 14.40781061797678 16.67630085251372
5217 7 -0.01164707876793018 -0.0004391553010635112 0.002994931318382962 1.182588592221359 1.272077967936795 0.07582164244769393 0.5941553053246653 1.406041181765
5218 7 0.002827658538463859 0.001828910221024131 0.0004172896491165465 1.182881913429193 -4.322690478904093 -1.269423298008598 -0.5744435966248921 4.541703857765108
5219 7 -0.005574584784764186 0.001408669089092845 0.00347078360030049 1.182384882502399 2.94511026651505 -10.11722396271976 19.10106138649447 21.81472991545835
5220 7 0.0001427132908491877 -0.001515816826811902 0.0004925712916927011 1.182781303744814 -8.576498991056443 0.5117473869953767 0.03272113719141032 8.591815349767934
5221 7 -0.003294889862538385 0.01118537543003722 0.0009650999578716788 1.182886386466192 -4.523169734689534 -1.796853573096749 -0.01720719510643034 4.867036398007043
5222 7 -0.01116184583666717 0.003367542502964122 0.0004926837006863033 1.182619961108598 -0.3642627168705787 -3.104481315334369 -0.3317798580856096 3.143337309038509
5223 7 -0.009936274786343546 0.005056383050083778 0.0005093000957238485 1.182650182986554 -1.194370065246398 -3.392579022815734 0.6560493054352083 3.656024202596047
5224 7 -0.001840631891555436 -0.01206294224148975 0.002984007432903212 1.182935136145244 -3.923186882491023 -0.2774389800047795 -1.106517520730574 4.08567604274488
5225 7 -0.0010143883281427 -0.007333733378691294 0.00100335475235323 1.182883062357025 -3.888003200510334 7.281376771522697 -0.5715396892323866 8.274157007962609
5226 7 -0.004756671533744555 0.000228453491512443 0.00347078360030049 1.18235323520183 -4.572508892882217 0.1975261975057507 19.12046354902152 19.66059461215882
5227 7 0.00456870913501847 -0.000682428331590099 0.0004903823477501665 1.182915450266923 -2.92110620074584 0.4102301791052216 -0.05166548299230918 2.950223645423738
5228 7 0.008553044163826958 0.0001681574761340059 0.003474896871125994 1.182960197715325 -1.228248747588444 0.019485328640177 0.1351140309098035 1.235811662565738
5229 7 0.008468427728916645 0.007421973587385429 0.001486226432060179 1.182974668592559 -0.2035984455474701 -0.1760305090193822 -0.02246292261009673 0.2700808212871771
5230 7 -0.009604914779601985 -0.001222395128850155 0.001426833804047869 1.182582900316443 2.823587543284305 1.294312418662777 0.9782723630090971 3.2565177825282
5231 7 0.006791911545977348 0.000774534160963 0.003480300378460846 1.182947006226549 -1.28311562599871 -0.07906435370889356 -0.1969013176267281 1.300541045331753
5232 7 -0.01158609722504384 -0.003970258527578058 0.003001537008858362 1.182623587332573 -0.1785278089822154 2.525537019483133 0.4614753125816379 2.573551802370035
5233 7 0.002956261040628239 -0.01114014560604074 0.00100417388874539 1.182971548229476 -0.6163691198052216 0.05094401157107636 -0.5793823299973089 0.8474609539545336
5234 7 0.006368412409155885 -0.007355511241729102 0.002480280564485621 1.182964967948597 -0.9042225916457464 0.7948504647052793 -0.118380540663342 1.209718855309982
5235 7 0.00434806917425469 -0.0001946424050313224 0.003490382347750167 1.182919647601283 -2.753839812169049 -0.06557437820313977 -0.8757847852160872 2.890490044988908
5236 7 -0.01027598571089975 -0.001111575748330971 0.000990679659825861 1.182591186710791 1.302174291894651 1.195303222015239 0.2445033459352868 1.784429759112108
5237 7 -0.002301724253918647 0.01150839795237621 0.003476356924189834 1.182935419844129 -7.394314457219226 0.2882941368203449 -0.1983385538658667 7.40258995105874
5238 7 0.005131384924964474 -0.003809108507708254 0.003502082597227189 1.182937707834052 -2.212942963354527 0.9590142508010485 -0.3407188585995948 2.435757424889683
5239 7 0.000424128559294729 -0.008371483012634139 0.0004794771961427927 1.182933556318055 -2.506170972298233 3.074388702561657 -2.449971587563163 4.662093909038704
5240 7 -0.01065845122396874 0.004856297715139072 0.003032943171534019 1.182639185401572 -0.4593240417975501 -3.263914339550509 0.4389750128751749 3.325178860336002
5241 7 -0.0008284665980866361 -0.004473984150688644 0.0004935670532922815 1.182804589593143 -6.161096854667636 4.701406894202822 0.2757873485749153 7.754895221670455
5242 7 0.01143117599345503 -0.003121404378790997 0.0009530324211444775 1.182973000187963 -0.2866346526178115 -0.03161698890842748 0.03696295471214595 0.2907323822521689
5243 7 -0.001486303667429885 0.00283765172481276 0.003468079990655487 1.182707327021772 -10.19010178584974 -9.970194369624355 1.764000220383974 14.36504949353054
5244 7 0.009229994958030594 0.007310238573072293 0.001002845590375127 1.182975286874317 -0.1783036148906125 -0.1914490611888703 -0.02935717133229747 0.2632617815441382
5245 7 -0.006314276866104407 0.008367770296024483 0.000499395166421551 1.18276905665332 -3.372177763158066 -3.81343433625622 0.1585910896043198 5.093035974443686
5246 7 0.008334382865442079 -0.004315483582708285 0.001023636710113332 1.182964027898772 -0.9121667804609741 0.3674930940066447 0.06366635031587581 0.9854708588698396
5247 7 -0.008635374540444453 0.002957016002522299 0.003497685331042665 1.182573668516196 7.286657721040708 -8.506263255647152 4.597439453509225 12.10736737885897
5248 7 0.004217099733752371 0.001278865195212529 0.0004172896491165465 1.182909895278829 -3.067923842322693 -0.4815169919311868 0.2507716515676325 3.115590110563399
5249 7 0.01068342254739817 -0.00498849755915127 0.003011869165850686 1.18297225192536 -0.2916231542332129 0.05342237243252496 -0.02347286125139983 0.2974037477513946
5250 7 -0.01024323465314349 -0.005242414987721742 0.0004907098937988948 1.182652511907297 -1.167591533882354 2.887997369775303 0.7229716935013686 3.197887875993631
5251 7 0.004707983928991397 -0.008456528329904104 0.0005663142828427598 1.182963798292308 -0.6555600716004178 0.8314799276535821 -0.378510570882688 1.124450145554479
5252 7 0.003396693018350745 -0.01112431982509913 0.002511528933688722 1.18297685679104 -0.1267259693305343 0.1213426908706638 -0.830291330747076 0.8486266634063812
5253 7 -0.001953186557595466 0.01000920210408089 0.003486777160558845 1.182939816939108 -7.391606847973747 -0.9692362511477599 -3.107476253556124 8.076613112683221
5254 7 0.002530490560424815 0.003835979603110152 0.000448376604785651 1.182893415092397 -3.767859400001268 -2.559499265546927 -0.6692082477124442 4.603872351327688
5255 7 0.0004979736007387212 0.007930534952791213 0.0004867414926955115 1.182934055150244 -3.041931203116419 -3.480372080436344 -2.62229786766108 5.314393791347603
5256 7 0.003045961917633503 0.0003502099899331924 0.0004172896491165465 1.182881618727126 -4.508535154409754 -0.1169231602251891 -0.5566998488774753 4.544279369238409
5257 7 -0.01195137193646947 -0.002004795447302828 0.002505935477679234 1.18260159989688 0.8224345725103243 1.327510966108891 0.4906669029670936 1.636898897570317
5258 7 -0.002215908235067972 -0.005790431663655434 0.001009357385403422 1.182797618479929 -7.877027285939707 5.327010223653113 -0.3321746053055207 9.514984853101625
5259 7 0.006699805329041863 0.003671109435184535 0.0004988886172633515 1.182952751629701 -1.870352959463399 -0.606745894207083 0.1359022110145873 1.970997256230789
5260 7 -0.008725113325385942 -0.005066880063710027 0.003490709893798895 1.182646522360677 -0.7243916648843366 5.512108185297393 0.5720506230284149 5.588856935535532
5261 7 0.00265010550549937 -0.008601501877535046 0.001003518555904883 1.182956686816858 -1.357104266061406 1.734409609891528 -0.8462529228360707 2.359248332256429
5262 7 -0.003857897901423103 0.01151294946271965 0.002473154276900621 1.182879983414087 -4.05265273259439 -1.954236277827153 -0.8287195044781511 4.574910886310575
5263 7 0.005436211285008387 0.000453731961369773 0.0004803003784608457 1.182929214823574 -3.206444736251966 -0.3068551271414434 0.06695871001537256 3.221790090080025
5264 7 0.003864310758511603 -0.00299290632179593 0.0004819969320133665 1.182909888592901 -3.870128262437738 0.6720158517292091 -0.5241703084187649 3.962859142705239
5265 7 0.008431805202286334 -0.00364972382318547 0.003535793001244682 1.182962789252278 -1.159451400226926 0.5575926075086383 0.1170031587022497 1.291869499826807
5266 7 0.002546822971387297 -0.003147104374963941 0.00151791579228504 1.182883181351709 -4.01477496342375 1.762138566667728 -0.093883305528157 4.385471971194076
5267 7 0.0008704348563853948 -0.001455314226172368 0.002493388186275113 1.182809324710154 -7.791691337860392 0.2619564806119385 0.6637386348907307 7.824297034090019
5268 7 -0.001729633602182391 0.01219467743593558 0.0009844185721666311 1.182930104723167 -4.156987306875887 -1.178798963862923 -0.5185105370032631 4.351891961401956
5269 7 0.000192889668571591 -0.01230000070874866 0.0009834835357633094 1.182956357692745 -2.13545601887976 0.2913842906935826 -0.506748945032036 2.214017097206766
5270 7 0.008209869726513034 -0.008697049218994985 0.003491916785255549 1.18297227655875 -0.06048584542374075 0.1648703932490373 0.02141047807119943 0.1769157783747797
5271 7 0.001621486171184113 -9.871865587902593e-05 0.00050876305567354 1.182836848064061 -6.600337257047919 -0.4263147915818565 -0.06991473540314359 6.61446024090574
5272 7 -0.00855340243332565 -0.005648090652254948 0.002991966703941269 1.182666436196939 -0.7551953747105964 5.677619649928961 0.6220705098743839 5.761306853700739
5273 7 -0.005074474204201886 0.00210219596953174 0.002486391383149687 1.182507181536961 -2.056987881985958 -7.546068701065688 17.5058875344584 19.17369162047169
5274 7 -0.007896373527729206 0.001471031629323784 0.002972447538796778 1.182497166866617 14.13649843953162 3.038846823101969 6.655098407505489 15.9174593751245
5275 7 0.005881173573823151 -0.0005675297821927169 0.002966263191877584 1.182938913589386 -1.678791534719136 -0.01791995929624761 -0.1027965656039374 1.682031294561958
5276 7 0.008441711884464142 0.003834710806708592 0.002990260252809102 1.182964920380676 -0.9523065273952801 -0.6201490192584439 0.005706175449999453 1.136444054340175
5277 7 -0.007537472591072384 -0.001337192198602613 0.0004361541442220083 1.182569676850365 0.9373822440298994 2.645903356233355 1.409009575767188 3.140827602170023
5278 7 0.007707260872518467 0.007072703739616121 0.0009927735499497723 1.182972373560967 -0.5721786272250284 -0.4892420314466445 -0.1395389170573763 0.7656482587720701
5279 7 -0.007166921291575066 0.007512754250771643 0.003499395166421551 1.18273223381572 -2.412055154855838 -4.69338088662549 0.5237301590228813 5.302841454963388
5280 7 -0.006245257740582084 0.003507859951526293 0.0005210971994120068 1.182616023728105 -2.322523174655058 -6.616261666162175 3.529513521417615 7.850254647449766
5281 7 0.003443561078610325 0.009185760532223971 0.002985412431622735 1.182979073155879 0.5069187310264671 -0.7855171355644593 -0.8516610136525642 1.26464629533581
5282 7 -0.005848625306764302 -0.008369332576903633 0.0005141520114740618 1.182777256953265 -3.193824991204526 4.045464856852949 -0.2046383891705383 5.158311821981796
5283 7 -0.0121097386544636 1.574442436496043e-05 0.001500116368927886 1.182595751692638 1.322065233937664 -0.01193987674781767 0.2041855061274755 1.33779324424813
5284 7 0.002799416058988847 -0.004469369729266485 0.002526046125315255 1.18290495568318 -4.207941869419065 2.603525073748314 -0.121669210446759 4.949739486358541
5285 7 0.005451577932427435 -0.01109588785470774 0.002996434792886709 1.182976027475808 0.1869844736890678 0.07319364109481655 -0.1503616720881294 0.2508568016431539
5286 7 0.006303527558785544 0.007672424214549202 0.0009747722387832892 1.182969928121948 -0.6168912626427866 -0.7967360255153265 0.04353613083630242 1.008582430427561
5287 7 -0.007215548021843118 -0.00178094654136824 0.0009059557059031016 1.182564869527156 2.32334511255438 0.8007504403073895 3.162992521758723 4.005453216851298
5288 7 0.005640430549788177 0.01021823972151313 0.0004913511061056695 1.182977144314121 -0.2062709922537194 -0.3555232133027503 -0.1697075224964473 0.4446854176092679
5289 7 0.0002822125808947931 0.006503520061765306 0.003547510077209633 1.182920812088267 -6.291078050177544 -11.5914930998312 -1.55212771337538 13.27966399256728
5290 7 -0.006307058080928823 0.005280812584245132 0.0009807155233448283 1.182682106013908 -1.925716513141446 -6.620456198060517 0.9802030867864442 6.964167032084257
5291 7 0.01101441470732666 -0.003987164744548848 0.001007165408212824 1.182972453321925 -0.2770664393994167 0.05357271321778487 0.004896266264168385 0.2822407144022905
5292 7 -0.004526727698303726 0.001498369218085697 0.003494510583437191 1.182391130655955 -5.954326248712943 -8.762384011616648 15.57269322425056 18.83459978071651
5293 7 0.007058063774993351 0.00995449511705826 0.00101464527792764 1.182977715106863 0.02340607324213827 -0.4423593174369873 -0.1793019311353146 0.4778899376391877
5294 7 0.005383821303387012 -0.008451339707946077 0.001076956543475806 1.182966366003065 -0.2816610173770153 0.893960908372697 -0.2322858107958675 0.9656374745759853
5295 7 0.0030762829707562 0.0009229136203157699 0.003417289649116547 1.182895747295862 -4.789837666642611 -0.05681024096148265 -1.016720869910448 4.896886112988323
5296 7 0.01115566052584853 0.001609806134596915 0.0008337488330213208 1.182973217637597 -0.2715005426809122 -0.07783302083693329 0.03658474727731599 0.2847963615321961
5297 7 -0.001230158093442179 -0.001660606647196334 0.001502784684526874 1.182706263915235 -9.899767460641957 3.673501342598133 1.51423851149661 10.66737672338214
5298 7 -0.0009059348869416732 -0.006314712177823122 0.001008576661457806 1.182856171231124 -5.021015870462328 4.665010566871748 -0.5685973866612042 6.877225236138307
5299 7 -0.004186364161378106 -0.001525259120469349 0.003475493913933231 1.182414776596969 -8.192261424849812 12.55933396839044 17.76216506873061 23.24531189103476
5300 7 -0.006917120991653477 -0.006169463964952938 0.003063240107357785 1.182697983292111 -2.756867647356183 5.951422931811989 0.6566191070007849 6.591729878416995
5301 7 0.005782530445113807 0.00501427424969972 0.003473499115198168 1.182953235446108 -1.348219222002675 -1.092191771784404 -0.1511743661370588 1.741674948406847
5302 7 0.003211548806532219 -0.0008315262692713375 0.003490382347750167 1.182897741963443 -4.807496456612764 -0.2173980497656687 -1.243795940678478 4.970544480681614
5303 7 0.003650228048204371 0.007539537177993065 0.0004863504289526245 1.182955970060873 -1.160563958993164 -2.291349753213374 -0.2671139799442938 2.58235208148435
5304 7 0.004443868582131837 0.008037457041203183 0.003486350428952624 1.182970709634686 -0.3368172730341747 -2.376134349624172 -0.4644827361904371 2.44442314976295
5305 7 -0.004914079527991421 0.004968544384439461 0.00049515430380515 1.182696889419668 -5.249788422171044 -6.575098263066654 0.8468596471170385 8.456321121413168
5306 7 -0.007419980546611229 0.007492822136711508 0.000499395166421551 1.182729720028689 -2.479361795726425 -4.452757815304017 -0.3587556162945991 5.109108793917163
5307 7 -0.01012088678052487 0.005664036786421337 0.001001983796410115 1.182658967143896 -1.208939289649192 -3.620852449190582 0.5460836394331012 3.856204611547918
5308 7 0.001907337198932577 -0.01209816574159811 0.003000820467835794 1.182980899999772 -0.4088171217763201 -1.097181379258955 -1.22429114846085 1.694056443643376
5309 7 -0.007522806550311212 -0.007022586967029032 0.000501256810142374 1.182716463630403 -2.651773638541969 4.425861730071825 0.2208267685926336 5.164195963120256
5310 7 -0.009413786495150143 -0.0006350711897469644 0.000938351420629003 1.182579524829441 2.560893128874088 0.8655198098777185 1.20635441746693 2.960167079633725
5311 7 -0.003140756113246682 0.009387382542242952 0.000488743033681845 1.182867304616388 -4.870854615301433 -2.774548776589368 -0.4916057472625278 5.627168187269542
5312 7 -0.004088514724439267 -0.002060256115766684 0.002958870133594878 1.182491110511318 -5.996770694263875 7.258484472513187 14.94597630431345 17.6643444057909
5313 7 0.008583411100595611 0.008078928759668629 0.0009768337237954581 1.182975480811735 -0.1968685523283664 -0.2276681455176566 0.001487630671217693 0.3009854222787701
5314 7 0.009826292673050064 -0.007349549007083866 0.001014562073425484 1.182972382814317 -0.1736785198507461 0.07714308934368468 -0.06862175667927993 0.2020500680048983
5315 7 -0.002535297557533235 0.00730294584871798 0.0004849179433211965 1.182841591780072 -5.386890333533702 -4.678268583328924 -1.023574293206372 7.207807484734465
5316 7 0.00796186794710866 0.006997107412564584 0.002992773549949772 1.182973021587888 -0.5413071910989957 -0.4456938014757827 0.129760234551976 0.7130877633786762
5317 7 0.0008953652929537274 -0.007031363720124945 0.000484699105247369 1.182911511854121 -2.497560235490958 3.099732245302557 -0.1255648033379985 3.98270180183144
5318 7 -0.003334434956771058 -0.002653692722799292 0.003002232665698549 1.182570717029886 -11.7273346067329 23.45801283560422 7.683336060860649 27.32841737455298
5319 7 0.001019115656468354 -0.003593632722944326 0.003543865021362802 1.182843909412395 -7.961923779036818 4.269267518265201 -1.385254180378699 9.1399017801048
5320 7 -0.0121097386544636 1.574442436496043e-05 0.002500116368927886 1.182593450703102 1.319996745719759 -0.02282084890892379 0.6447335594591845 1.469215288018944
5321 7 -0.01115403905644536 9.850951517384053e-05 0.003502197276406995 1.182584115732095 1.148193078885132 -0.2085764124706684 0.4398371645979823 1.247119961190762
5322 7 -0.001472538893588065 0.01020086356126308 0.0004867771605588453 1.182923097144049 -4.127279844208743 -1.354172582637794 -1.359858562089353 4.55164119904759
5323 7 0.005380461682990312 -0.007749024170880966 0.001559423604983966 1.182963208000108 -0.2360474630558282 1.043242144452162 -0.1819344474842832 1.084975907547098
5324 7 0.009765653922213173 0.00660914760820122 0.003020312925136194 1.182975176028827 -0.1871868295371364 -0.1787285939057402 0.02028607736981355 0.2596042071437634
5325 7 -0.01161669894297879 0.0005534092406023123 0.003007382326951919 1.182588974213838 1.203724193166434 -0.30748013691996 0.4991235811403777 1.338887716376879
5326 7 0.0038262829707562 0.0009804895573885374 0.003417289649116547 1.182911052444454 -2.793144091313754 -0.01712878212488333 -1.098382074282245 3.00139808941143
5327 7 0.002240933092224921 0.001858615947463244 0.003490803720623934 1.182876207241654 -4.48557854861381 -0.8666755195725198 -1.719819753493351 4.881528588108094
5328 7 -0.002836999148391029 -0.006594793699359254 0.001011215664094502 1.182807066439731 -5.590876001264014 5.505002090103257 -0.4990499038597154 7.862060371180922
5329 7 0.005655391178254876 0.0001383772897580715 0.003480300378460846 1.18293737472861 -1.640136564101212 -0.06557536086620426 -0.1230486868742685 1.646052567871374
5330 7 0.002746049235469867 0.008334424885983162 0.001495259388772364 1.182963528816269 -0.8148042603654436 -2.740532060718676 -0.4339462892779878 2.891838747322327
5331 7 -0.00106964191565176 0.00538260442701353 0.003500851209436649 1.182828977833401 -5.72373384825278 -7.618845130125217 -0.2044489995586251 9.531512454793722
5332 7 0.01011877683441748 -0.005236696679350812 0.0004878437088686505 1.182971562059957 -0.2402967361355093 0.09123839806114607 0.05614124016773801 0.2630946702723458
5333 7 -0.004019375327923829 -0.007028641715749302 0.003487338107884064 1.182787245389608 -5.562158297788041 6.590499700664704 -0.06410936042200616 8.624175395028074
5334 7 -0.01149791931056529 -0.00242316056618231 0.001013201435703267 1.182606663105771 0.478634932914315 2.136879690073634 0.6433810383863084 2.282385894061328
5335 7 -0.005777342352933142 0.001952521825098327 0.002991880799712496 1.182454733979415 1.279167602072049 -6.095460232590159 15.87095253270309 17.04928266809467
5336 7 -0.004594768953257709 -0.007831272710370773 0.001001490119358126 1.18279292673118 -4.617538896317687 4.554075860264777 0.1523857570737975 6.487256262782601
5337 7 0.01030027161255599 -0.005849448105629761 0.0009792237388680917 1.182972114726037 -0.2489122045564661 0.1578253181301546 0.02210624507305672 0.2955584590081539
5338 7 0.003126708967647548 0.002701386325048806 0.003448376604785651 1.182902879262288 -3.760261966702702 -0.1412773394006287 -0.09455584434698694 3.764102835013832
5339 7 -0.003857897901423103 0.01151294946271965 0.001473154276900621 1.182877036101508 -4.01352125563267 -1.954373541088523 -0.251518954228758 4.471150924746163
5340 7 0.003309637975475575 0.008902720605214203 0.0009854124316227351 1.182970127976075 -0.1861654147270242 -1.801804731932257 -0.8400311970822986 1.996699843673424
5341 7 0.002410358670871976 -0.00522877263208037 0.003500184171939087 1.182911151122 -3.755616254122998 3.73397162654468 -0.7706163243758059 5.351733090828433
5342 7 -0.01080536656350185 0.005474642949603252 0.001525626872220285 1.182651572296008 -0.4489325855922395 -3.04932809179874 0.1166335799045374 3.084403616552287
5343 7 0.01210352679040767 0.001107172269849563 0.001946025042517321 1.182974351523122 -0.2688849886456331 -0.007119543037693001 0.001724435720824429 0.2689847554984912
5344 7 -0.01007036152123966 -0.005181310779661106 0.003490709893798895 1.182646629411643 -1.18923794925648 3.711105412101639 0.05888374893172104 3.897442440315198
5345 7 0.006602400302596611 -0.009154657253071958 0.0005106422606330468 1.182970671925606 -0.1951262134831472 0.247535509112189 -0.02770428941048752 0.3164104851477609
5346 7 0.000247688034082779 0.01204271595081201 0.003510920252056628 1.18298502993081 -2.577406387095483 1.048082614448654 -1.890089238224102 3.363619803039678
5347 7 0.001800822252775068 0.007834450777902492 0.0005098469571496295 1.182945095209297 -1.727841858162884 -3.238541588751458 -0.9913334779545001 3.802148231382616
5348 7 -0.003756396327556077 -0.002934400053294492 0.000483376219661647 1.182644687816574 -6.507112466678716 6.480611753617866 3.010230241197869 9.664487956439171
5349 7 -0.0106659549884763 -0.004967560699518475 0.002967527850372857 1.182640762692694 -0.5738961388619027 3.284193532537586 0.4913245039833011 3.369967908686482
5350 7 -0.005726089617497257 0.002843181063419502 0.0005210971994120068 1.182599418048229 -2.507929876752003 -6.389152251682424 3.56599238350288 7.734809657715208
5351 7 0.001864821753789402 -0.007474451911508947 0.003687459334259444 1.182956078399308 -0.2772106999693043 4.692920308415898 -1.591711811137705 4.963254303683735
5352 7 0.006732746567099056 -0.009316882319843791 0.003510642260633047 1.182972623568129 0.09884155760238721 0.3208582788005433 -0.2242025035869195 0.4037158049900398
5353 7 0.002345053122350711 -0.003158461553793853 0.00251791579228504 1.182880596851854 -4.064835131973615 1.724465700251604 -0.5443768457467952 4.448933889333088
5354 7 -0.007023230759889658 -0.002594191202250225 0.003469801561681093 1.182502266281151 9.409068374313026 19.93344011600591 11.97129669328063 25.08355132451231
5355 7 0.00235442164628124 0.007160450127193798 0.0005098469571496295 1.182940753278294 -2.353368206124394 -2.505094775108983 -0.9638753549160901 3.569719519190562
5356 7 0.01152642691066156 0.002114991862513385 0.001303218623700881 1.182973913912318 -0.2763375562410824 -0.0900354475891104 0.03034349675596631 0.2922149116784497
5357 7 -0.002606268003590776 -0.006100008298801052 0.001009357385403422 1.182795456972123 -4.601713731106742 8.005232681286 -0.4947683941942869 9.246854346667268
5358 7 0.00895041373590115 -0.004403228433876317 0.0004878437088686505 1.18296700855371 -0.7496732771821117 0.3844666849913868 -0.02272420634328162 0.8428173253695996
5359 7 0.01017077738534683 0.001083836578917106 0.00351419864220469 1.182969849752189 -0.6936299899930376 -0.06630520570686224 0.1036969141780102 0.7044657502899714
5360 7 0.01202711602901597 -0.000876689523715873 0.00191964430225104 1.182973684659829 -0.343952876224331 -0.05047735240340298 0.00127342896777782 0.3476394192118945
5361 7 0.002592304480876766 -0.003806834195632241 0.003025861953376168 1.18289345012512 -4.048989955680712 1.670277235735158 -0.5160592785229113 4.410267892585207
5362 7 0.009531529417472775 0.003114267821157217 0.0004913716355457505 1.182969761856178 -0.6778335393961405 -0.2899861702485278 -0.01517409226979263 0.7374147673744536
5363 7 0.008748874620686097 -0.001352453353167087 0.0005075933896495858 1.182962636015573 -1.197984691018941 -0.00625778390587232 -0.07376651166842374 1.200269960475096
5364 7 0.001407749313633053 -0.001180461953786266 0.003000816894582412 1.182834410018845 -9.709742624733799 -0.6914722452719496 -0.5954981619477655 9.752530633914308
5365 7 -0.001703620520865699 -0.006748818283357388 0.003523877556210437 1.182864179253758 -9.721984008403167 11.8158658421166 -1.882411195551924 15.41671594626054
5366 7 0.01122792870338873 0.001673919433482301 0.003126474851700691 1.182973217579961 -0.2680281293914801 -0.06322201425494661 -0.02128727010273489 0.276205085217444
5367 7 0.002312580828550801 -0.007219829041439479 0.000493387427409996 1.182934887999379 -2.400587863798491 3.112352165330356 -0.642062310076023 3.982687798820454
5368 7 -0.01195137193646947 -0.002004795447302828 0.001505935477679234 1.182603528729787 0.8124661295878838 1.308539020923814 0.2264568280470439 1.55681028901305
5369 7 -0.01178736388586513 0.003643749162407324 0.003016326776496474 1.182617468999252 0.1818151854570818 -2.574625354368639 0.8886277110028645 2.729727401368647
5370 7 0.0002459516088545344 -0.01206762320879458 0.003506777707585291 1.182977065683426 -1.95974808907485 -0.8124702070894704 -1.665193662572274 2.696959462786083
5371 7 -0.01080536656350185 0.005474642949603252 0.002525626872220285 1.182650378227284 -0.4428922401987646 -3.037499515349403 0.3277542358935487 3.087066517152214
5372 7 0.01157870147223452 -0.003671010188337463 0.002477057878126513 1.182973199393128 -0.2892089734273353 0.04415148316911954 0.01465280197668208 0.2929264214486192
5373 7 -0.008699816076567437 0.004946563575126477 0.003509300095723848 1.182641648525897 -0.9299280908779313 -6.773694337413958 1.690137698330122 7.043029651381175
5374 7 0.0009359134523784065 0.002363922562130485 0.003490803720623934 1.182824119376758 -8.215931108596259 -2.800009599586966 0.2332527616266239 8.683086121292668
5375 7 -0.01076785924717986 -0.005029908853724697 0.0009675278503728563 1.18264570195353 -0.6435469222273903 2.613298091509264 0.3111821153407422 2.709301361071198
5376 7 0.002316755743332006 -0.004760408618183707 0.003044049193301889 1.182899512189225 -3.654651050746522 3.014353654936051 -0.3969609906495766 4.753985726508493
5377 7 0.009482148912070013 -0.003112233515705077 0.0004831399512307885 1.182967710015836 -0.9035543547223582 0.06948100137518461 0.008151106522998252 0.9062585293542813
5378 7 -0.01008485742644791 -0.000524251809227781 0.0005021972764069947 1.182587811223789 1.099418313171239 0.7516676381774924 0.5176458371882983 1.428874409588889
5379 7 -0.0009980281401216842 -0.007920250017422782 0.0004794771961427927 1.182896647194439 -5.028560284719351 4.645893800335164 -2.168425698339993 7.181421708148795
5380 7 -0.008043722836481575 0.006303058516264853 0.0004855612195396782 1.182691967080169 -2.11382784521647 -3.921253028428825 0.710204998361905 4.510973798624081
5381 7 0.0014891703090652 0.009572622427834637 0.00349906200267011 1.183031932136677 9.474484763254489 1.772213285836977 -2.182958820548441 9.882910030545093
5382 7 0.003880694640597254 -0.00400680069457553 0.003481996932013366 1.182921413025457 -2.714512823595451 0.721184082693763 -0.5833139602160564 2.868613171338711
5383 7 0.001259366384896237 0.001072668616593631 0.002999566776297474 1.182830695523198 -9.832387852183826 -0.3292519137240483 -0.1985206877782006 9.839901837007266
5384 7 -0.009743585948265836 -0.002282496618927982 0.003488482383418866 1.182581316847978 3.372698788149616 5.08178421028366 1.401647141797476 6.258134113742149
5385 7 -0.006948799091383713 0.005726855032929795 0.003485561219539678 1.182678753839634 -1.223410763768147 -7.396420348213526 0.6955721186568806 7.529116046165293
5386 7 0.007284050158224151 -0.009217783577792385 0.001002559045888596 1.182971553878919 -0.1966231439727276 0.2472582809487864 -0.02833363618669282 0.3171752089666354
5387 7 0.009634153554247961 0.004510461005746835 0.0004913716355457505 1.182972019318888 -0.5360418661365562 -0.3434877020231267 -0.08129729740916852 0.6418207960625183
5388 7 0.003594900045138195 -0.009990850726717973 0.003510131128494887 1.182976695855338 0.6887186525205583 0.8128620650716413 -0.7992328084290724 1.331860053170636
5389 7 0.01023951658677934 -0.005840843229993833 0.002979223738868092 1.182972072004929 -0.2449169523529947 0.1611229389798028 -0.03024554714061966 0.2947197111446803
5390 7 0.001088881742635251 0.003985616681569394 0.0004744222377414007 1.182858087543786 -5.894787956648369 -2.874135910753119 -0.6237295751972756 6.587732604645021
5391 7 0.005180080544476086 -0.007143860356780895 0.003048781344350919 1.182959400137783 -0.6930607332916209 1.425328957291656 0.1335900908498644 1.590516308906675
5392 7 -0.006962241180839374 0.0004477481625664463 0.003474762207754114 1.182383288519159 10.0658806223638 -4.443369338264938 12.51803461806155 16.6663335643716
5393 7 0.009820149054179467 0.007175310147509151 0.001513765807246601 1.182975820316727 -0.1860312186217901 -0.1869509635939975 -0.03355415345215455 0.2658649249233963
5394 7 0.008924847808519884 0.0008649656331512254 0.003474896871125994 1.18296294852002 -1.320657621929837 -0.1364057802755453 0.1363078343373874 1.33466209841881
5395 7 -0.003344935181422562 0.005561010111938685 0.003503171674414813 1.182746310268952 -6.903147842225791 -10.225078290025 0.5745717612921653 12.35053880920349
5396 7 0.01157870147223452 -0.003671010188337463 0.001477057878126513 1.182973233443961 -0.2895632499551203 0.04239018366634472 -0.002150314516538734 0.2926575255283178
5397 7 -0.004015206930894595 0.001772332320454264 0.003494510583437191 1.18242940607324 -10.70695025460489 -11.38348630917524 13.29314737813788 20.51658625411785
5398 7 -0.009124938540827547 -0.002062694156050489 0.00142354788252167 1.182587551326616 1.874327765693432 3.600026715393224 1.008991008077339 4.182267301258396
5399 7 0.008271389558747186 -7.612021394607082e-06 0.000474896871125994 1.182959333698641 -1.212690891079327 0.01435237547522283 -0.02132831415256604 1.212963348569586
5400 7 -0.0007135524722418449 0.007398843094920487 0.003684724317412645 1.182943411747551 -12.84133416460914 -16.56049498016213 -6.654944798234632 21.98722691434013
5401 7 0.006485611953060309 -0.00978321455873405 0.0009997220085764236 1.182971641951466 -0.1647649153687674 0.3135274865349242 -0.06323714510795607 0.3597859067150753
5402 7 -0.009878862047382878 -0.002551055514599121 0.0004884823834188663 1.182605315545467 0.6034223535232418 3.057222793628248 0.3010920029029201 3.13071655389365
5403 7 0.01167501719970464 0.001688046728918071 0.0003195501908166308 1.182973948287243 -0.2033126174664423 -0.06854172209099646 -0.05985220292747369 0.2227471083617626
5404 7 0.01006482790094112 -0.007070614169358849 0.003014562073425484 1.182972606677024 -0.1662622477652328 0.0810236050295893 0.04877489041111371 0.1912771537287052
5405 7 0.006537872487445281 -0.003972568258400486 0.003037875598471871 1.182951238465904 -1.530220346418521 0.5175466894367442 -0.148602877269347 1.62219348398176
5406 7 -0.000253185487912784 -0.004694287995360882 0.003493567053292282 1.182828854011901 -7.091656011254247 7.159558116819092 0.428010948605531 10.08632989655776
5407 7 -3.653765978440516e-05 0.008610515268334092 0.0004867414926955115 1.18293624913655 -3.540106052190339 -2.877521681501011 -2.668434976710373 5.285170490456705
5408 7 0.006456022989570707 -0.001457314396113053 0.0004859628134167387 1.182943584272277 -1.804957325865979 0.3978045234962401 0.003795811877453108 1.848278603268227
5409 7 0.004989767972919204 0.01069650808506957 0.003523294185131161 1.1829831355503 0.65201840395222 -0.3389024081571381 -0.2363516769790078 0.7719099407041582
5410 7 0.007335055380226767 -0.009339142255654569 0.003002559045888596 1.182972428477197 -0.1764347957374313 0.291137499234952 -0.08564534817597304 0.3510347650473873
5411 7 -0.0117516110022725 -0.003610480412945509 0.001001537008858362 1.182621601011269 -0.4597876848662598 2.479313754215077 0.01513932074232371 2.521632527952333
5412 7 -0.0008345920202969103 -0.006821260260302535 0.001008576661457806 1.182870901989508 -5.020815851776634 4.663436098306087 -0.5686757949212342 6.87601775886051
5413 7 0.005733830805387283 0.01084756494083776 0.00301464529123683 1.182981438021622 0.1410715968348733 -0.3127103733263273 0.01188985895700802 0.3432642448106845
5414 7 -0.008024165744323816 0.002461506609290276 0.0004976853310426649 1.182590765830941 1.20118540014337 -3.810738079795876 1.119303109576609 4.149386765466894
5415 7 -0.001400691456406521 0.005434801433225741 0.0005008512094366488 1.182817870209091 -5.444107749242589 -5.997001967857875 0.05586185303100821 8.099719892346801
5416 7 0.003163057158199679 -0.003547762632260108 0.003481996932013366 1.182905177596361 -4.154085091816144 1.601881814649046 -0.5781951849131707 4.489627820878836
5417 7 0.004112718385176546 -0.01121238017986594 0.003507355044943333 1.182979295792855 0.7030043915966935 0.08216146946163456 -0.07440894676172535 0.7116898011258286
5418 7 -0.0009384604757051828 -0.002255290619185669 0.003011427737729603 1.182720473322099 -10.54941499054475 6.712699833761288 1.634139407950733 12.61034921425757
5419 7 -0.004610036115898426 -0.003060705070257528 0.000483376219661647 1.182626134449926 -3.503733647712709 6.924871929133949 3.127592463083814 8.367307531348434
5420 7 -0.001393822709012587 0.007922587042745611 0.003684724317412645 1.182939178869182 -14.57066057222127 -15.72353109302476 -6.828600448883813 22.49807466506181
5421 7 0.005652737650035891 0.007576150522697516 0.0004913913970982377 1.182966780572761 -0.8986339416033626 -0.8898028062537339 -0.1167001011170456 1.270004294724764
5422 7 -0.004823596409039224 -0.009180899410962305 0.0005141520114740618 1.18281648811726 -4.150062117490242 3.05829937036324 0.120223484648953 5.156613646963763
5423 7 0.00302148622238154 0.003461142490303287 0.003448376604785651 1.182904859466361 -3.760268261276015 -1.791878472350526 -0.2886518445424828 4.175376120038861
5424 7 0.007947789831723598 0.008721873186834529 0.003006675013507022 1.182976297886327 -0.03591110976838199 -0.4014121681169069 -0.09894553789801967 0.4149838020779139
5425 7 -0.008289499670632628 -0.006165089112215459 0.003501256810142374 1.182680480664217 -0.6539631222918614 5.133797381647693 0.8802992961286087 5.24961619281781
5426 7 0.01061682759367365 -0.004959290694570111 0.001011869165850686 1.182972105784277 -0.2938108918666063 0.05017566881024983 0.01682949227426419 0.2985392264514263
5427 7 0.01204578358451767 0.002193232456834541 0.0007890199814961905 1.182974644561964 -0.1964879155179352 -0.04915897381017796 -0.04859200074317746 0.2082913540857564
5428 7 0.009820149054179467 0.007175310147509151 0.002513765807246601 1.182975849332685 -0.1864466360216974 -0.1847963103536917 0.02306387654376504 0.2635222320893842
5429 7 -0.005844004225429984 -0.006238629461038987 0.0005619832972154113 1.18272100585978 -2.752859506928581 5.973617749534697 0.2046368732036608 6.580594253737091
5430 7 6.943499618148391e-05 0.006135715126231146 0.003547510077209633 1.182894117750246 -4.581038340756673 -9.058385645652258 -1.265620924676538 10.2294701284974
5431 7 -0.00390443924100396 -0.0007864844209316841 0.003475493913933231 1.182396168161533 -12.96889325697498 4.825936575864845 16.1520252898461 21.26898627365463
5432 7 0.007984510813624918 0.008754326596911652 0.001006675013507022 1.182975994212129 -0.09098468607306527 -0.3795371990735011 0.01351038862864499 0.390524300372294
5433 7 0.001313937464327964 -0.01183949567018372 0.003506777707585291 1.182984282098179 -0.5310825719422542 -1.119156467351447 -1.161684262633581 1.698255052306896
5434 7 0.002814825512083901 0.005438227613533082 0.003488285932918712 1.182926548413133 -1.719311502361437 -2.771064224890332 -0.38949989072915 3.284286702694729
5435 7 0.008521433978756543 0.005816333934932296 0.003509392708264721 1.182971391663461 -0.5381214915427874 -0.4605383976870384 0.1316060942411319 0.7204099662315788
5436 7 -0.001710013934252304 0.007446870375829541 0.0004849179433211965 1.182868928217574 -5.221708083927486 -4.661174010985434 -1.037559062004311 7.075966879627614
5437 7 -0.003235659835767002 0.006145099521547666 0.0005031716744148134 1.18278438407134 -5.780060929744078 -5.710460040556776 0.319844561711607 8.131467196638388
5438 7 -0.008537632252668011 -0.003264815430533078 0.003498911354880796 1.182583757841424 6.365826837340632 9.372597993844925 2.306961537128784 11.56250042209832
5439 7 0.01079832237181215 -0.00557204212084906 0.002503249195850127 1.182972676407681 -0.297285421959584 0.1121589120394335 0.003232622599650719 0.3177557135732245
5440 7 0.008528495830598748 0.008699175968081214 0.002500127895617428 1.182976535059803 -0.1834484473974525 -0.3229907764583458 -0.01440656145204691 0.3717309827584628
5441 7 0.0103562937367825 -0.0002568734058410185 0.0005003241664634497 1.18297048168197 -0.7192512790254404 -0.06368593629253166 -0.08639424002004625 0.7272154189577045
5442 7 0.009429443766203277 -0.007253234197884949 0.003523182043426043 1.182972025357868 -0.1491880896947124 0.08968788529477405 0.0397033112442171 0.1785423081489687
5443 7 -0.002885309385916219 -0.00462390001069249 0.003485479829192984 1.182719087785515 -8.864703136009812 9.239178344258121 1.202477411706898 12.86045606081898
5444 7 0.0002869542308438223 0.009930614872419063 0.0005031635976452445 1.182956375725781 -3.04407250851056 -1.713194482507739 -1.921259387414742 3.986558717201341
5445 7 0.005789058269329492 0.004250645067980639 0.003473499115198168 1.182949181838465 -1.332102969550463 -0.9167048286356172 -0.1764134044730855 1.626643093492485
5446 7 -0.002074621849449148 -0.001545538259168775 0.003010213392834173 1.182602700819268 -23.368730567617 7.503598738185584 7.852475614240845 25.76941861272435
5447 7 0.007531000373294386 -0.00709848525570971 0.0004871712423444145 1.182967841229018 -0.6155105008144554 0.6031376458032536 -0.1460967278249805 0.8740551757635894
5448 7 0.002538510805716838 0.009644175759319785 0.00349906200267011 1.182995874710268 3.875017957622416 -2.54156415464684 -2.667287741823128 5.346937106583715
5449 7 -0.005492675021944454 0.00496622402373572 0.00349515430380515 1.182657162863602 -0.8673423713754158 -12.76577323746129 2.164133441518368 12.97693040330278
5450 7 -0.001577503333152953 0.005312890868064172 0.003500851209436649 1.182805588241896 -8.525431796729782 -8.327666546079602 0.3664869429723661 11.92339423581867
5451 7 0.004186225692966103 0.00157881915115368 0.002914116876967146 1.182915951009336 -3.032347149304747 -1.188235953743085 -0.8880702097704497 3.375752155171658
5452 7 0.007665548098153607 0.007493485052239676 0.003483380841685051 1.182973547317182 -0.3702994070414224 -0.6337886371207717 -0.03374486891641023 0.7348118150770441
5453 7 -0.004514746779977827 -0.003245387936193929 0.003483376219661647 1.182547540542891 -12.65115900940559 24.12623616779991 8.00063162460315 28.39255540275162
5454 7 -0.009129144016687865 0.001601304343699273 0.0004976853310426649 1.182585792243761 2.269300071749629 -1.275807753649229 0.3966682689723935 2.63339210060407
5455 7 -0.003807455262061939 0.00217878537918653 0.0004945105834371912 1.182617629527893 -6.114889229537203 -3.469486886871922 4.679645700991422 8.445607937531426
5456 7 -0.008480905709686353 -0.002149391081890911 0.000935065499102804 1.182585813566205 1.687796577057552 3.620481509346489 1.104067190461894 4.144334446699668
5457 7 0.004810880490749137 0.004399191672619185 0.0004734991151981682 1.18293720869036 -2.738670294218086 -1.305730834963695 0.07524992022136716 3.03494819466509
5458 7 0.007706126539885116 -0.001854320232048908 0.003507593389649586 1.18295488414792 -1.44944972132713 0.1444593565271554 0.09846465088055008 1.45995489239105
5459 7 0.002871522416995097 -0.005531833715175709 0.003500184171939087 1.182923368558428 -2.133162269278814 2.584195474085642 -0.3217796590833267 3.366302075625305
5460 7 0.002703640234031795 -0.005896307954923889 0.000500184171939087 1.182920250278498 -2.730849381460267 2.235815374407091 -0.3444698473344129 3.546134262599153
5461 7 -0.00628755651708759 -0.002534778913429199 0.003469801561681093 1.182468338718905 5.230106719554121 19.90475512265664 11.70030674407053 23.67383514972159
5462 7 -0.0004841244426604262 -0.006497817940933574 0.000484699105247369 1.182870647343309 -5.020452096398721 4.664273185127312 -0.5691939940004391 6.876362803149508
5463 7 0.005445459438364731 -0.004543495554881751 0.0005020825972271893 1.182942453359887 -1.938645866870128 1.349471749263615 -0.08443928618431112 2.363588752775014
5464 7 0.007781821942665879 0.004534910537561531 0.0004988886172633515 1.182963599359676 -1.199328727597146 -0.5464161887649696 -0.05623355351442165 1.3191369378215
5465 7 0.007634020017980646 -0.004165178707025327 0.000535793001244682 1.182959680629462 -1.241348198317703 0.3331084377147975 -0.0154285749914568 1.285357779635564
5466 7 -0.009369815636211382 0.003913134934921179 0.003509300095723848 1.182614201125955 1.889009866023708 -4.339069384025917 1.259604381593826 4.897191500386351
5467 7 0.008797949245223652 -0.008558672414162631 0.003015098828681592 1.182972523061334 -0.1072846247520845 0.1447721808237936 0.04438516731432131 0.1855775259189352
5468 7 -0.006518739077428995 0.007741591524910236 0.003499395166421551 1.18274898896562 -3.889074590824427 -5.285725961136561 0.3760886792099159 6.573069511564522
5469 7 0.006564952995560138 -0.0098240809476437 0.002999722008576424 1.182973089521357 0.1171593375717903 0.3616348703403723 -0.2010290934095028 0.430021843890988
5470 7 -0.001548344914831448 -0.01029779756150284 0.0005720303182787963 1.182918898374679 -3.940035829085768 1.433249010165037 -1.551059618032647 4.470332314080265
5471 7 -0.008115135276333896 -0.003481628495567629 0.0004989113548807958 1.182616529507905 -0.8233406817667583 5.427313220598722 0.8670847098598047 5.557468359497019
5472 7 -0.008264890822447288 0.0004621363978731648 0.0004747622077541135 1.182559304810876 1.966719666996199 -0.9406962618577861 4.19306526754012 4.725959378102413
5473 7 0.003852811463076478 0.01159610216579728 0.003016747077487462 1.182985822302768 0.09299343559128298 -0.01559170140136457 -0.332684456908405 0.3457887043905567
5474 7 0.006984135060822667 0.007594848119531926 0.003483380841685051 1.182972519278191 -0.375019080156116 -0.6342383512629871 -0.03340805816193374 0.7375728405005724
5475 7 -0.000157859648172503 0.01239661263949488 0.003018981900033425 1.18297314439172 -2.27997275703962 0.8883344694185802 -1.735172996953375 2.999706524271365
5476 7 0.002438038736969477 -0.0115661209043193 0.003494042760250503 1.18298436941012 1.634528239114368 -0.7299775046135972 -0.2015258262441292 1.801433423789952
5477 7 0.01079832237181215 -0.00557204212084906 0.001503249195850127 1.182972658450357 -0.2965534500475842 0.1127340318464 -0.009660632777376568 0.3174054796268165
5478 7 -0.006745156895499182 0.005665205375093089 0.0004855612195396782 1.182690501282536 -2.886731977100087 -5.389658479041727 0.05708232632203332 6.114319129739377
5479 7 -0.001512908880840467 -0.009075821183028685 0.001549729524102381 1.182913993316874 -6.047159482588948 2.569132197024739 -0.8432650345419203 6.624173455770583
5480 7 -0.01023489488722851 -0.005801818754552365 0.002998793108283816 1.182657479652129 -1.179572876862093 3.344628181016638 -0.04962934124600203 3.54688495902981
5481 7 -0.003260704558562636 -0.005327776553044394 0.003485479829192984 1.182739189023494 -8.231571467193426 10.6457375986984 1.169071779444393 13.50767288119412
5482 7 2.487700793798764e-05 -0.004347291959419213 0.0004935670532922815 1.182828525445808 -5.608606344428597 4.782466321493519 0.2025679701913492 7.373566506483271
5483 7 0.005022572893991376 0.007062436958818072 0.003491391397098238 1.182962933442786 -0.4936493820222047 -1.626165576853127 0.1241836315260329 1.703973523870592
5484 7 0.003161496208932824 0.0114052340533575 0.003493452892356301 1.182990886997659 1.806518873185827 -0.2605260625973649 -1.175451998447604 2.170961001290337
5485 7 0.01155727595177297 0.002185025413083459 0.00259594464238025 1.182973888228686 -0.2735026809775198 -0.09916562663311326 -0.003183867401408406 0.2909427349480629
5486 7 -0.002191259173692549 -0.009431553701020768 0.001070252327959589 1.182896068676084 -5.529628807938795 3.012559585575589 -0.7015410404653749 6.335966369993391
5487 7 0.008649801817101 0.006230581751895025 0.0005093927082647207 1.182972607006498 -0.6292628040696773 -0.524909215953264 -0.1524775714129852 0.8335171092199041
5488 7 0.000981566366978456 0.0005643480967032653 0.00350876305567354 1.182809125716415 -10.81135323882561 -3.10395697581327 1.877493974998665 11.40372269868577
5489 7 -0.0001967738237280836 0.0105213869389385 0.0005031635976452445 1.182952871135476 -3.413002313459609 -1.283866069123441 -1.88420716643301 4.104525980081577
5490 7 0.004802731608352667 -0.007351470095502074 0.00356631428284276 1.182959957451278 -0.3882994976367701 1.707840639555527 -0.2286378061825158 1.766287461428166
5491 7 0.0003555378206415284 0.01045961440828018 0.003503163597645245 1.183025815076697 -0.07951960818758684 10.32901885181144 -6.472463953513763 12.18965723220704
5492 7 -0.00864836095556284 -0.002782853707388472 0.0004989113548807958 1.182601093011503 1.480474163290644 3.161597765992342 0.8163195328887234 3.585231061155551
5493 7 -0.004998303266616808 -0.008387483554099899 0.0005141520114740618 1.182796191806816 -4.784446623223828 4.311276533160116 -0.05070860419306039 6.440543936531619
5494 7 -0.007568857270419832 -0.006416855553198 0.003501256810142374 1.182694809767279 -2.711921770872176 5.99077021912107 0.6335227229139058 6.606451282654451
5495 7 0.002937503757613316 0.009420981571493771 0.0004990620026701105 1.182971496029913 -0.5118717143172137 -1.489881390583764 -1.150074584789515 1.950495003968128
5496 7 -0.006886934846839667 0.002750950684637789 0.003521097199412007 1.182509811906002 7.337427136422348 -20.86352166339526 9.694721821909273 24.14771219775228
5497 7 -0.001303878044938398 -0.001628448793313284 0.002502784684526874 1.182689188712828 -9.833848402793368 3.741402601764183 3.082661176766185 10.96382541672162
5498 7 0.005644174023038936 0.00143043969180091 0.002977127606311445 1.182936953115309 -1.679508233823949 0.0958998043722229 -0.1967032903114808 1.693705070069885
5499 7 0.002580605147533382 -0.009219076249098694 0.0005101311284948868 1.18295996073022 -1.328183174923485 1.82502642990386 -0.77848169480322 2.38764020847806
5500 7 -0.009363027545381822 -0.004751707721911009 0.003490709893798895 1.182637943671662 0.7648932844848252 4.739104873022217 0.28569021494288 4.8089287406934
5501 7 0.009522804984912767 0.004012550985411856 0.003491371635545751 1.18297052979849 -0.6328953113641438 -0.3465174824508293 0.09644129800306175 0.7279641232583463
5502 7 0.005836123843049826 -0.004954435564921055 0.003502082597227189 1.182949444783697 -1.556376563211957 1.026289744144506 -0.06739712739811225 1.865508246626955
5503 7 -0.002149770812166989 -0.0009101097342312917 0.003491356946797271 1.182544040404831 -23.62831775483292 8.810746793062142 8.45966375088266 26.59873248395129
5504 7 -0.01030586376042877 -0.005800574808406777 0.0009987931082838159 1.182659834069963 -1.18416649128711 3.377883462259444 0.5759386203535654 3.625472694436939
5505 7 0.0005527941084481914 0.00466171001790747 0.0004744222377414007 1.182856346746337 -4.604992489233358 -4.50048757290038 -0.4700343529931663 6.456103818304047
5506 7 -0.0001747675458072618 -0.002318187226220326 0.0004925712916927011 1.182777522841024 -7.200448271626199 3.990399188248409 0.5861446123168338 8.253078607434096
5507 7 -0.0001510689303151063 -0.01240422158644055 0.00298348353576331 1.182966370154687 -2.062383623537372 -0.8686654784468091 -1.718196433271953 2.821383509448658
5508 7 0.006801851737144744 0.008071777389198096 0.0004833808416850515 1.182972857576868 -0.315124581254166 -0.6970545854715211 -0.1071932741656616 0.7724499950571831
5509 7 0.003717018782451954 -0.0008080396458898524 0.0004903823477501665 1.182898025680057 -4.716259516562266 0.1449118368518474 -0.3457296889171357 4.731134355080465
5510 7 0.007167261808687849 -0.00984634088345448 0.001491638793831973 1.182972523904779 -0.1641062280804675 0.3136154536274319 -0.06293269456504794 0.3595080400964017
5511 7 0.003717073392857596 -0.01167348168343942 0.003001397805193835 1.182978654105546 -0.004443279823238851 -0.2858989622223007 -0.4741650711308815 0.5537061260415402
5512 7 -0.01014060682216112 -0.001738266661431332 0.003488482383418866 1.182579340132142 4.714123383730167 2.764125125675174 1.077689026857462 5.569987488857524
5513 7 0.002734663414507152 0.005142084664160928 0.0004882859329187122 1.182914888324477 -3.674309227875408 -2.322895021640061 -0.6281418607254706 4.392146602836274
5514 7 0.008215398919714515 -0.006495946093795651 0.003487171242344414 1.182968836410688 -0.5854321872685042 0.458866903588281 0.06125605503789153 0.7463524538564116
5515 7 -0.005658018403350886 -0.01043808734063125 0.0005059572285865033 1.182817900273717 -4.46813327787708 2.753247782327489 -0.3618872092300583 5.260755714910943
5516 7 0.01226206656160833 0.0006049660290890444 0.003112276209496001 1.182974356901154 -0.1911355326192213 -0.02323096528109558 0.07350954729988461 0.2060973632091367
5517 7 0.005603988319707946 -0.00156565602319863 0.0004859628134167387 1.182933163440932 -2.792795999306823 0.2490858881077738 -0.09135483636784193 2.805369668961014
5518 7 -0.002135462958543905 -0.01003780113431632 0.0005720303182787963 1.18290284922375 -4.846029396386365 1.732515775220328 -1.329304320006323 5.315323301288038
5519 7 0.005628002824623735 -0.006560681379967246 0.0004824670615081595 1.182956445740704 -1.25391442372554 1.278705824425251 -0.1617898711379492 1.79821187012233
5520 7 -0.00190705624638807 -0.01037553951564857 0.003572030318278796 1.182931889211162 -6.191061501497996 -0.5710254153797896 -2.116453448408247 6.567700338750196
5521 7 0.00708270112855818 0.003628042751705756 0.003498888617263351 1.182956069231146 -1.367879642946586 -0.8980038309908238 -0.0003183102922645036 1.636308558733138
5522 7 0.00564030908574091 -0.008472707393154342 0.003076956543475807 1.182968426739181 -0.2647413610152531 0.8748182496827199 -0.04891269506463351 0.9153072762458693
5523 7 -0.006048364939528688 -0.004298318755586472 0.003488932541432266 1.182618818732987 -0.130535262483862 11.48409840550626 3.180098418311048 11.91698710212642
5524 7 -0.007803362157454051 -0.002288229532078876 0.001404867060783897 1.182574135066752 3.865802491501555 3.635642314850833 2.007429561716075 5.673808014912484
5525 7 0.004924410451942494 0.002393560819853565 0.0004968272278505997 1.182927003101659 -3.21801182855604 -0.8608068635889526 -0.2294627351575554 3.339048027799903
5526 7 -0.0006852134164458481 0.001244401296569929 0.003472879509169025 1.182707686302992 -14.73455361381577 -2.093207055833178 4.227231120879265 15.47120127612369
5527 7 -0.001803533909747786 0.009486985853289496 0.0004867771605588453 1.182906823110959 -4.760822145770464 -2.757789196282873 -1.68462285942563 5.754023195407924
5528 7 -0.003889409477364077 -0.0009250735195507529 0.0004754939139332312 1.182584705684794 -5.81951121581587 2.283595804065415 5.981191129402647 8.651945903309658
5529 7 0.01226811167262432 -0.0006047510688758419 0.003112276209496207 1.182974172998086 -0.1850492058047438 -0.03919128946270976 0.07350953587255583 0.2029355010906542
5530 7 0.01184430607709336 -0.001700373611438301 0.0003070439262913835 1.182973610162425 -0.1811048075411615 0.004909864645206831 -0.07550186555307023 0.1962742718426165
5531 7 0.001370060860752497 -7.274449011442103e-05 0.00350876305567354 1.182829156017131 -12.92332910689341 -0.1502174140723861 1.141695052019146 12.97453151633515
5532 7 0.002080126471979343 -0.002037920809439321 0.0004920538389088719 1.182858821924282 -6.128132233611818 0.9369385526495371 -0.5108204091542636 6.220353367332254
5533 7 0.00990333490127897 0.003744834754844747 0.0004913716355457505 1.182971825100385 -0.5840246390438578 -0.1585824698718576 -0.05632451766720277 0.6077874875739135
5534 7 -0.001628246634893316 -0.0005690793442828514 0.000491356946797271 1.182683626284212 -9.655081342122406 0.5566245796229662 3.16189595029734 10.17487162799351
5535 7 0.002353661765960781 0.005135166530437743 0.003488285932918712 1.182914521947353 -3.665526874631235 -4.1545287823256 -0.4433698783103483 5.558126799633902
5536 7 0.0001696399989899486 -0.01050750771224732 0.0004909654977707615 1.182951705006416 -2.640317424437343 0.867028689304818 -1.834585249851344 3.329972655869293
5537 7 0.001509825249137843 0.001888372651826572 0.0004908037206239333 1.182842849684796 -6.812461801060495 -1.637744551494675 -0.1905273725438252 7.009147144021685
5538 7 -0.005385980635891734 -0.008789019662027966 0.003514152011474062 1.18279788161058 -5.16256521120841 4.065817557057084 -0.2405813556315478 6.575776102934959
5539 7 0.003545682813753979 -0.003792537003017106 0.0004819969320133665 1.182909590442826 -3.32167315741708 2.056529571953058 -0.286843961517784 3.91728297462435
5540 7 0.008528495830598748 0.008699175968081214 0.001500127895617428 1.182976392644995 -0.1833477561946286 -0.3209113292886939 -0.03778577400802497 0.3715215278887982
5541 7 -0.00337348583340786 -0.0005594358620552118 0.003475493913933231 1.182428558879252 -13.58215354911477 4.649584679180102 16.27356518240004 21.70074783196238
5542 7 -0.01083048835446514 -0.005588068674409733 0.002475611064857778 1.18265161293318 -0.6189808946264442 2.834856632294259 0.3056052498784673 2.917694987884885
5543 7 -0.005463733427135989 -0.0110566656323904 0.0009984338772510253 1.182831341559793 -4.091565376593607 2.295668366777772 -0.08976303285770069 4.692446897220204
5544 7 0.007329413980094372 -0.006899747350303739 0.003487171242344414 1.182967189862655 -0.5378252705346633 0.4909668077892709 0.05857075874353211 0.730571667775492
5545 7 0.01010049435584599 -0.0008610365751401911 0.00350032416646345 1.182969195225152 -0.6951943070041523 -0.001076907275973384 0.1007971810857387 0.7024644873124163
5546 7 0.007167261808687849 -0.009846340883454478 0.002491638793831973 1.182972894430425 -0.1643177980301208 0.3140093812604453 -0.07374073513751275 0.3619943732817626
5547 7 0.001420375849605463 0.01185432110275415 0.003510920252056628 1.182993759861893 -0.3505304778976265 1.065900184205473 -1.426173749520607 1.814658750962855
5548 7 0.002011628717963984 0.01213065043243862 0.003004373144412929 1.182989996372497 -0.5815806477644455 1.049946208482535 -1.310329272091033 1.776959732762557
5549 7 -0.004034583919488902 -0.002643264197861808 0.003483376219661647 1.182502562783033 -12.84341558157333 23.78767750316761 8.018302886954084 28.19751950052776
5550 7 -0.005750686024994444 0.004830796882115688 0.00049515430380515 1.182675314895617 -2.192524124612358 -6.278678605489184 1.124858798293374 6.744944357378555
5551 7 -0.003330951376275557 -0.006978961941268806 0.0004873381078840642 1.182801836213723 -5.630228782068412 5.405438543949726 -0.5609630357862169 7.825146741011786
5552 7 -0.00351030822546866 0.009917617094277771 0.003488743033681845 1.182879397497038 -6.794768980816491 -2.638757442621842 -0.9601098850226857 7.352124681680555
5553 7 -0.005301779108320029 0.0008312477618520525 0.0004707836003004895 1.182553282947777 -2.440090456115668 -2.547942259841516 6.167430037520834 7.10515618837667
5554 7 -0.002441596215750397 -0.008176936244550449 0.0004982220096807925 1.182860520659138 -4.965539795095471 4.65157786597168 -0.7807597965867568 6.848601898186272
5555 7 -0.002157601925735207 0.00332065257170633 0.0004680799906554873 1.182720179283155 -8.595453925015551 -5.49134034489254 1.319742755026241 10.28486110260873
5556 7 0.001637341894910168 -0.001893942403821437 0.003492053838908872 1.18284887687292 -10.21484632210404 0.5956590516772411 -1.233214853163805 10.30624635665727
5557 7 0.005557608422844381 -0.007729525467179581 0.002559423604983966 1.182964191691979 -0.2296490671460242 1.047997805918403 -0.1390976776296982 1.081843916271105
5558 7 -0.001456285819504918 -0.002589803249952245 0.003518856446036902 1.182700270867272 -9.989932038467131 7.043482219169527 1.138652836284065 12.2762337134207
5559 7 0.003782531000717356 0.002255877886594814 0.001362493481752797 1.182907326121011 -3.243119523500527 -1.101894495269551 -0.1946174181636758 3.430724655501855
5560 7 0.002330741508107554 -0.0102869209147902 0.003510131128494887 1.182990865709955 2.336785447359159 -4.028279919536983 -2.808605624069262 5.438370241964766
5561 7 -0.00759354457768667 0.0009065064453856994 0.003474762207754114 1.18244322472483 16.32826671580329 -7.037348477132642 12.01612518763388 21.45981901265479
5562 7 0.01175230389193088 -0.001752960762571271 0.003612276209496207 1.18297325367433 -0.2033187105181812 -0.03653425881239884 0.05423133287329984 0.2135750162799056
5563 7 0.006047592733378503 -0.008493075492691304 0.0005106422606330468 1.182967624502807 -0.6026852334333884 0.8403184141489447 -0.09265627516584685 1.038243571173963
5564 7 -0.001525408817372803 -0.01180753607473802 0.000476705828178019 1.182925875874423 -3.891567497315242 1.033093240931852 -0.5066498761425093 4.058112039805543
5565 7 0.007829641102888134 -0.006320014355417179 0.0004871712423444145 1.182966830440128 -0.702235934576205 0.3774287869147786 -0.1379322989332905 0.8090816498296696
5566 7 0.003736132556996653 0.008117569654312784 0.003486350428952624 1.182972533536488 1.24027493850216 -2.373071267362735 -0.5157523085600062 2.726857093219975
5567 7 0.007124125044878382 -0.003622497813007654 0.003535793001244682 1.182954620691345 -1.199920678134358 0.688652959017742 0.06603945120794036 1.385068135830926
5568 7 0.01174728537724484 0.001752160027803456 0.003612276209496001 1.182973879059316 -0.1901483762436846 -0.05215908325721375 0.06198567118625878 0.2066862317300158
5569 7 -0.006654717015154543 0.007598326889888925 0.000499395166421551 1.182745215169222 -3.600434912657071 -4.478746307205961 -0.02320977977190678 5.746550159745238
5570 7 0.005558660802475418 -0.006588083272404883 0.00348246706150816 1.182957176833153 -1.161010918629316 0.9915397901852222 0.02691204047440839 1.527030375146329
5571 7 -0.01083048835446514 -0.005588068674409733 0.001475611064857778 1.182653024116196 -0.6174068296551326 2.829157350668907 0.214285953825685 2.903659928117564
5572 7 -0.009683998819417618 -0.004755718899490152 0.0004907098937988948 1.182644675095035 0.2812723684429536 3.931513979946814 0.2553986563635041 3.949828451140509
5573 7 0.002420546968028961 0.01012676591901422 0.00349906200267011 1.182998309788912 2.93699278196352 2.111999096814047 -3.716414128548289 5.186347535705885
5574 7 0.00211554880966725 0.009219173502726217 0.0004990620026701105 1.182966169308669 -1.119602694595744 -1.60157180928583 -1.276317499676455 2.33399417609074
5575 7 0.003185037111115734 -0.009752774454247892 0.0005101311284948868 1.182967231985955 -0.4072625272970221 1.068141515834618 -0.799476962110076 1.394974005827559
5576 7 -0.0007665353016753559 0.001551545879642076 0.0004728795091690252 1.182745183996917 -8.060602497525611 -2.822706953401956 0.560835680511412 8.55894408373104
5577 7 0.005991142885864905 -0.001092003360402793 0.003485962813416739 1.18294011163724 -1.663634135035455 -0.03660979014010197 -0.09282531093221663 1.666623937887288
5578 7 0.009457434806788194 -0.004946236353154488 0.00348784370886865 1.182969866784501 -0.5938119987342243 0.2776489235682726 0.05250244875911213 0.6576154816646717
5579 7 -0.003673420256129915 0.009918955603465122 0.000488743033681845 1.182861758959274 -4.667405290842862 -2.95830627146556 -0.4269025548164327 5.542426719054498
5580 7 -0.0004922953317413414 0.001938696101656756 0.003472879509169025 1.182738162753655 -14.90711304696287 -5.794947132113489 4.320787474448124 16.5672157002397
5581 7 -0.002718714644851895 -0.005590626427409985 0.0004854798291929843 1.182775027263774 -5.523362411279094 5.675132316508971 0.863097189618788 7.966153142825158
5582 7 -0.009355358837160212 0.004634548116138308 0.003509300095723848 1.182633264952263 1.821354825360318 -5.362636960530165 0.9589231237155006 5.744104989248004
5583 7 0.008442232899564136 -0.001914662974218175 0.003507593389649586 1.18296022002608 -1.207846069857347 0.1444600081116331 0.132618902191644 1.223661961340619
5584 7 0.005845889358339849 -0.004223192074227544 0.003502082597227189 1.182946635117919 -1.511233513591942 0.5273771896945144 -0.1588032317091297 1.608468805794752
5585 7 0.002374033919229402 -0.001884039946513361 0.003492053838908872 1.18287834468068 -4.502034919241809 0.5956738906434841 -1.114537449388197 4.676038871112568
5586 7 -0.002067530429114397 -0.0121645998929418 0.0009840074329032114 1.182918411501575 -3.67703397755334 1.08286737268559 -0.6149349768592123 3.882180527058675
5587 7 0.002827840901226244 -0.007843568335105661 0.000493387427409996 1.182948454159577 -1.345548708556316 1.770567710072127 -0.856354668285785 2.38301377690992
5588 7 -0.006153772853376332 -0.004284410605296477 0.000488932541432266 1.182650957805455 -1.470492509763274 6.869783515291333 1.02982489144037 7.100479777822665
5589 7 0.01024615796306083 -0.002977555589701563 0.0004831399512307885 1.182970680420263 -0.5279203159118554 0.1601849820879903 -0.05629966276540739 0.5545527391209077
5590 7 0.01003592206945804 -0.001002508859083651 0.0005003241664634497 1.182969288162486 -0.6584834751504971 0.06406897279770475 -0.0717150410316021 0.6654685322626404
5591 7 0.004706778410721958 0.01119960643568957 0.0005232941851311605 1.182979178155813 -0.08730207483142376 -0.4632668734006906 -0.3617645768332562 0.5942318211873779
5592 7 0.008514777895624274 0.006514780961820781 0.003509392708264721 1.182973098876167 -0.536199652823847 -0.4513117377935697 0.1324447766564591 0.7132558946284603
5593 7 0.00467879437496039 0.008636012497497047 0.0004863504289526245 1.182969802346555 -0.5269218495209481 -1.195518537442425 -0.4698632394119646 1.388410124070606
5594 7 0.00551644966833472 0.006736098693036879 0.003491391397098238 1.182962618651104 -1.154491476954025 -1.133446966578835 0.0296780023414902 1.618157402797772
5595 7 -0.0103566758803283 0.006365864581272805 0.000492683700686266 1.182671656139939 -1.181352597666519 -3.188238744068769 0.352927106094084 3.418335529378381
5596 7 0.01217298218140122 -0.002186538534408145 0.0007769363962050724 1.182974012251591 -0.1589143159977692 -0.04115086432872359 -0.04701011335574674 0.1707545144989145
5597 7 0.006276853519942385 0.0005782627854892117 0.0004803003784608457 1.182941291354571 -2.018088221674677 -0.1360636666530436 -0.1382340737753382 2.027387987287499
5598 7 -0.007804785768455851 -0.006346527561912121 0.000501256810142374 1.182696247437678 -2.644295356148089 4.409383462398145 0.2247311720729313 5.146403069010226
5599 7 -0.005750079933957486 0.003299489396469889 0.003521097199412007 1.182531769673002 5.698290652311644 -23.40758557233633 10.22017707381124 26.16940194395981
5600 7 -0.001060021398448766 -0.01013548717766001 0.003572030318278796 1.182991780864977 -11.32586129809346 -10.00225805461339 -5.481200913767939 16.07370099858213
5601 7 -0.009092094192032565 -0.005034336906382848 0.0004907098937988948 1.182652623761563 -1.315948908454903 4.401807818445056 0.2786944958737194 4.602749637142778
5602 7 0.002792191884497366 -0.01180561350653348 0.0004940427602505031 1.182969815990964 -0.5436096786200184 0.1159220321767327 -0.5351449262563051 0.7715759796230112
5603 7 0.0003696119093778784 -0.006371608563390161 0.000484699105247369 1.182888065800626 -3.924936998444385 4.818645998299776 -0.8331078099713515 6.270450408202215
5604 7 -0.0004357322138965887 -0.008621686813999805 0.0004794771961427927 1.182923949748171 -3.305022160045819 2.913633179181081 -2.700088886839115 5.167485827561686
5605 7 0.007447662005464734 0.007601534789368336 0.0004833808416850515 1.182972738030872 -0.558613385832206 -0.56629616714134 -0.1015422407021961 0.8019046641569784
5606 7 0.01044832976397737 0.001734351151128783 0.00351419864220469 1.182971259621715 -0.7303657816214406 -0.1288977848788712 0.08884491440611504 0.7469553083859888
5607 7 0.001488958966173351 0.001859188166558459 0.003490803720623934 1.182846302635999 -10.02215526030352 -0.8666536095588555 -0.3872798616043465 10.06700900127715
5608 7 0.0009968484687107916 -0.0007191673151449693 0.00350876305567354 1.182808581269418 -11.19302773027392 3.089780582428709 1.741106743350227 11.74146781752495
5609 7 -0.0002084998396075677 -0.00404893891587706 0.003493567053292282 1.182809717970675 -6.74741503328153 5.001087656358688 0.2642649886569389 8.40287589829617
5610 7 -0.01177210483609465 0.002818062831810456 0.0004926837006863033 1.182612814422149 0.472729022442317 -2.049572867022532 0.2820386610666671 2.12220815949579
5611 7 -0.009222577563294821 0.004479295845386417 0.0005093000957238485 1.182640451339345 0.06132764958500288 -4.362787458745425 0.4058987895367177 4.382057658011514
5612 7 0.005430752468232639 0.00667237896586846 0.0004913913970982377 1.182959978291246 -1.074430580780773 -1.4063406596222 -0.2119551714425782 1.782447788442838
5613 7 0.003066693182894194 0.003159856632536719 0.000448376604785651 1.182897655799162 -4.478576803906415 -1.663346349601333 -0.3759719432620907 4.792256897260512
5614 7 -0.01217819851329357 -0.0009575694459667744 0.003492734041975967 1.182592854086015 1.606132079947171 0.842716356730017 0.215255046640346 1.826517410604092
5615 7 -0.006581817562729048 -0.002268006669433313 0.0004698015616810932 1.182578229413393 -0.6482500563507191 4.756889198425441 4.413927624906006 6.521578034460963
5616 7 -0.00325491766499402 -0.004914503197722852 0.0004854798291929843 1.182735970390989 -6.120389371618782 6.427994327616026 0.7135498037039558 8.90434896320073
5617 7 0.01024271090227136 0.001778912707000248 0.00051419864220469 1.182970883078284 -0.7469376707434269 -0.1426162632403495 -0.03393244321426492 0.7611876859347805
5618 7 0.005081764252921345 -0.008573736617342499 0.00356631428284276 1.18296917335407 0.1180122812420311 0.8562722902493199 -0.3751603140428024 0.9422708712495882
5619 7 0.0009032151850559089 0.012185686787013 0.000510920252056628 1.18296836234843 -1.851047267538151 0.3316662306751166 -1.026739603459919 2.142562178454508
5620 7 0.0028297701077919 0.01183311049473571 0.0004934528923563015 1.182978694981595 -0.4507952033923843 -0.1900792158669407 -0.6107151940019073 0.7825084484470181
5621 7 -0.006376262224538146 -0.01041927946426209 0.0005059572285865033 1.182802520368096 -3.51460541492574 2.694331605736634 0.06226174765899459 4.428967210255482
5622 7 0.008434303993396152 -0.002110726804004423 0.0005075933896495858 1.182961285572034 -1.067593753787956 0.2912666397334877 -0.02044171660891055 1.106801943586392
5623 7 -0.005538775880047305 -0.006434243552895294 0.003561983297215411 1.182726487199885 -3.392534334997017 7.663820837049453 0.9202518417907496 8.431506537318601
5624 7 -0.003978500132085351 0.002477855289735283 0.003494510583437191 1.182496712273311 -15.78950381051193 -23.65303266162666 11.4809539206799 30.66898576091038
5625 7 0.007562069440155429 0.003798220313662993 0.0004988886172633515 1.182960158104307 -1.176291217670337 -0.4787582054287218 -0.03666237233359573 1.270517444814837
5626 7 0.005617622967358218 0.002042486481313306 0.0034968272278506 1.182938081487637 -1.570181695870556 -0.4393823591057421 -0.5101817268090192 1.708453338522915
5627 7 -0.01214781868834218 0.001028353948704518 0.003505185050544924 1.182592498694173 1.338478270576846 -0.5474968032092256 0.3809578857801049 1.495461715012709
5628 7 -0.01044569251089805 0.006389905623751812 0.003492683700686266 1.182667756451446 -1.091990341521665 -3.278131784131655 0.07518531746350728 3.456044521135814
5629 7 -0.01051077250109452 8.94522275766226e-05 0.0005021972764069947 1.182589516830443 1.643232835137264 -0.01100063998479933 0.6877439868096578 1.781383438776214
5630 7 0.008574999228004429 0.0007856346332817244 0.000474896871125994 1.182961754040161 -1.305087068637589 -0.1775493042322467 0.02358882645797513 1.317320175542785
5631 7 0.007733679780436823 0.004015090900838711 0.003498888617263351 1.182961849596861 -0.9566491183829049 -0.6184524995831394 0.007592345107820975 1.139174558023334
5632 7 -0.01038247773280416 -0.001806773508582376 0.0004884823834188663 1.182598322494517 1.539047988141895 1.713584833196302 0.4625103718915746 2.349246163021511
5633 7 0.003099668405520138 -0.009645131510221797 0.003510131128494887 1.182980310287194 2.36120118641949 -0.2533071427307843 -1.560727989624138 2.841708536937496
5634 7 0.002552242250274245 -0.009857586032012051 0.003510131128494887 1.18299023697573 4.764114048362803 0.6900583190119205 -1.832697556002061 5.15089734718343
5635 7 0.01207553305028076 -0.002264590674511413 0.003082168679409896 1.182973686382878 -0.2073990858301658 -0.02500280765641346 0.05734888784850334 0.2166296750940468
5636 7 0.01207663262562908 0.002263266007404614 0.00308174600017556 1.182974549708041 -0.1918250021190899 -0.05691726734365014 0.06327235903708847 0.2098566133767902
5637 7 -0.008787795919834872 -0.0007629242206566996 0.0004361541442220083 1.182574213304238 2.80923395364806 0.8848639197744762 1.070168875597975 3.133694462634542
5638 7 -0.007947363958688693 -0.009277996832440124 0.0004926449535114375 1.182754969481284 -3.188663310213419 3.099844419006586 -0.0607174225972136 4.447504438823453
5639 7 0.00101227745325419 -0.007452534459677759 0.003687459334259444 1.182971349090147 -0.3792696210480063 16.79155950072732 -8.174025379227528 18.67926676323703
5640 7 -0.004399880233395263 0.007885317143006205 0.000496703183449469 1.182802312380807 -4.524173369151713 -4.558180357950844 -0.2910644732353015 6.428831260604854
5641 7 0.002109644165219925 -0.004097873084549464 0.003543865021362802 1.182888006631164 -3.514881153218825 2.018069920232852 -0.7964420994276293 4.130534558860659
5642 7 0.009363897506415296 -0.005095562302199971 0.0004878437088686505 1.182969668489815 -0.6289516580042674 0.1699410251542004 -0.06664419494942908 0.6549057862450408
5643 7 -0.009330786521627452 -0.007955351414040858 0.0005109202168714585 1.182709742085904 -2.214789843911832 3.188055914995529 0.1224509316554637 3.883811118025215
5644 7 -0.008675163341947543 0.002290638765554871 0.003497685331042665 1.182552369915628 7.596063874092692 -4.408346207939298 3.542261380441494 9.470022088449221
5645 7 -0.01132776713326292 -0.004670494785642324 0.003476817956573962 1.182633296448036 -0.1290390455535758 2.975552680885535 0.2687277256228124 2.990448030399606
5646 7 -0.002919910128043358 0.01188502836775462 0.003476356924189834 1.182915391585953 -5.147988293142474 -0.6409703439089798 -1.160865358882388 5.316035630952438
5647 7 0.004344582231913275 0.002042486481313306 0.0034968272278506 1.182922812801034 -2.885629086689007 -0.4698094153533698 -0.4783597309306748 2.962499644704852
5648 7 -0.002865394023048529 0.01185085252172102 0.0004763569241898338 1.182901391845145 -3.90423022119386 -1.293407420197916 -0.400516298080609 4.1323515919794
5649 7 -0.007506190613901032 0.0005630855838845674 0.0004747622077541135 1.182551738085808 1.966854108934251 -0.9406687023603695 4.192992877867293 4.72594561619976
5650 7 0.00299906605333325 -0.01187593668358529 0.003494042760250503 1.182980893807697 0.4381592611329183 -0.05562868623047178 -0.7148591605424622 0.8402985828024149
5651 7 0.007953320555176295 -0.00930278894581181 0.0004919167852555493 1.182972214386794 -0.1598557290091323 0.2540728769211118 -0.04550457757215525 0.3036075550180394
5652 7 0.006351238156418227 -0.01045210161078426 0.0004890797479433767 1.182972428209018 -0.1749046137690452 0.2914889159852149 -0.07379012113571386 0.3478539837879651
5653 7 -0.007650191291282705 0.005606169147760689 0.0004855612195396782 1.182678206188719 -1.489224244145805 -5.20561819941482 0.2686219101435164 5.421107582223359
5654 7 -0.005896182169427975 -0.005913675327715882 0.003561983297215411 1.182699307201738 -3.027200645895412 7.178167173232945 0.9194419315901357 7.844450342946588
5655 7 0.004981102599635746 0.002405966113590834 0.0034968272278506 1.182931827818621 -2.200983689298332 -0.08292886942007703 -0.2804731393037082 2.220331412157083
5656 7 -0.01044573154991846 -0.006389842059564357 0.003508083214484921 1.182667178682348 -1.182508602170043 3.455489932984662 -0.09817562235990514 3.653542900253156
5657 7 -0.00796712445117285 -0.009347690953550543 0.003492644953511438 1.182755394163687 -2.998968456002328 2.93703005491623 0.1058122789021021 4.198946722922866
5658 7 0.005641800631114273 0.004511427421970884 0.0004734991151981682 1.182947475110969 -1.487203000728297 -1.083404728603958 -0.08380898058090851 1.841891016472657
5659 7 0.01194373490541361 -0.002859343192280897 0.003469892469913689 1.182973522920738 -0.2347342375585272 0.05224999333886968 0.0257168852992018 0.2418503303193678
5660 7 -0.002831470787161191 -0.002751012071778163 0.003518856446036902 1.182590722356175 -10.35275426137567 23.05091312637308 8.585115845549863 26.6876063152457
5661 7 0.0119448344807619 0.002858018525174336 0.00346946979067956 1.182974478740923 -0.1940921763930342 -0.06335180250957509 0.06064236509795473 0.2129852583228956
5662 7 -0.007962330451755947 0.009351778208146873 0.003492083020370654 1.182757212595897 -2.990294268765504 -3.098492446360776 0.01784801073020969 4.306139083384747
5663 7 -0.01130751915122061 0.004683727789229017 0.0005236430758101707 1.182639110818374 -0.4059918726841194 -2.787611977881009 0.2383307881177864 2.827085337317583
5664 7 0.009364210443216781 -0.007935702513415802 0.0005231820434260428 1.182972172305375 -0.1580115617477687 0.1426067706670838 -0.0395419436192078 0.2164899766530722
5665 7 0.003363448313571893 0.001152575078722931 0.0004172896491165465 1.182891414969698 -4.75124075151813 -0.7290603498097225 -0.3326001060045879 4.818344166107845
5666 7 0.007785888803599292 -0.004002855334539158 0.003535793001244682 1.182960032161964 -1.066911041051471 0.5969470150916079 0.08131667935463179 1.225258058812746
5667 7 0.00193613956849011 0.009338100783719973 0.00349906200267011 1.183012883982224 8.546019756992626 2.313449495306577 -2.489453097652843 9.196949438789794
5668 7 0.006437580347869872 0.01036907136279001 0.0004913511061056695 1.182977976393238 -0.04976194413176917 -0.3473211641091638 -0.2369585807297738 0.423388251021904
5669 7 -0.004712507551160771 -0.0113760046891177 0.003492476648664522 1.182856229756322 -4.477134170858854 2.115815002922637 -0.3817646901920012 4.966603244586979
5670 7 0.0104946574328197 0.006396958560909435 0.0005109202168714735 1.182975486467663 -0.1618061811541528 -0.1939251905800985 -0.04293959969004084 0.2561874880292927
5671 7 0.006355085737735015 -0.008635801855761753 0.003510642260633047 1.182970189311555 -0.1867346043733563 0.8710396807689827 -0.03290176574871431 0.8914384241965279
5672 7 -0.002211298567468381 -0.002277010592621809 0.003518856446036902 1.182610815890573 -24.73199353204327 14.33896947672791 4.372264852154144 28.92048149082147
5673 7 -0.009321871416745266 0.007968473009015931 0.003505185050544919 1.182710382344949 -2.390718950244413 -3.662334395247349 0.1566561610893906 4.376387948351561
5674 7 0.009372482364662536 0.008008566661223203 0.003493452882110407 1.182976444756638 -0.1400921132678227 -0.2635019608754214 -0.02143080776532998 0.2991961950067399
5675 7 -0.009321672724157086 -0.007968705757729098 0.003510920216871459 1.182709345841761 -2.212799392557399 3.491544919994023 -0.09368501178789328 4.134748355277762
5676 7 0.01130754970681478 -0.004683654018875465 0.0005240254569820352 1.182973128024937 -0.2781967445636649 0.06215706359845673 0.008540517550876474 0.2851839225500633
5677 7 0.006041911545977347 0.0008321100980357675 0.003480300378460846 1.182941066389776 -1.645248649986244 -0.07186703743059795 -0.1237132249967473 1.651457826706364
5678 7 -0.004184592422900259 -0.00710526554983291 0.0004873381078840642 1.182782963992197 -4.015528408025236 5.429832958634647 -0.3026822255300693 6.760116188645326
5679 7 0.002743304398208824 0.01198506955914725 0.003493452892356301 1.182992651575344 0.9480705435673963 1.155547856228865 -0.5807410799187148 1.603555052226289
5680 7 0.004688373358791546 -0.01133626613527986 0.0005073550449433327 1.182972744799029 -0.208056457454345 0.2230014328748186 -0.3248342215718205 0.4455719920022403
5681 7 -0.008872070527222883 0.002390147555791642 0.0004976853310426649 1.182594508254435 1.078467592488306 -3.82731270633626 1.093897914666436 4.124078993889677
5682 7 0.005862302763290747 -0.001842063943155717 0.003485962813416739 1.182939992631749 -1.548424195564536 0.5248841911620061 -0.14175222833589 1.641101641513915
5683 7 -0.006427624445071492 -0.01048722075702259 0.003505957228586504 1.182803530165088 -4.03582457276788 2.826078319396183 -0.1449839159832736 4.929058630754156
5684 7 0.000938800338606096 -0.01227070838664401 0.0005067777075852905 1.182961550821024 -1.33129401790709 -0.1161051278826353 -0.894568658667155 1.608128492349228
5685 7 -0.006429969353921604 0.01048341800478447 0.003510761436187152 1.182807032809869 -4.103776000987642 -2.884253431995797 0.02918061636368852 5.016048926658613
5686 7 0.001494752367328209 -0.004031807627920351 0.003543865021362802 1.182871006185317 -6.338468554375337 2.511537962270781 -0.6387385342008903 6.847772883631973
5687 7 -0.0122364572343528 0.0009484568871560945 0.0005051850505449243 1.18260082168822 0.8560548462288072 -0.5023476952775889 0.4550359108076789 1.091897791383015
5688 7 -0.004719022404207738 0.01132967232585139 0.003508054319028943 1.182860003042358 -4.645755156418872 -2.502155439997547 -0.4599319521640339 5.296731088126268
5689 7 -0.001494567616758281 -0.01006011789299744 0.003572030318278796 1.182963439052058 -16.68286329219052 -8.673317177514468 -4.972197224567061 19.44909004883462
5690 7 -0.001587676148908032 -0.0004077284055044998 0.003491356946797271 1.182603360551782 -28.43153238916957 4.200025144245656 7.669626537651789 29.74584704518845
5691 7 0.003918583602644264 0.008415345897469314 0.0004863504289526245 1.182965638713119 -0.7767940419565412 -1.236158151118382 -0.543249590237275 1.557759954385965
5692 7 0.009344978329709559 0.007967193745355493 0.0004934528821104065 1.182976099093494 -0.1713669180953153 -0.2349208260440346 -0.009960830474004236 0.2909529743282064
5693 7 -0.0009884445719398629 0.01228240293867296 0.0005080616479767973 1.18294252193996 -2.936533269793068 -0.2144811298793829 -1.153435193681447 3.162221141175749
5694 7 -0.0009452712741162961 -0.01220625356158814 0.000476705828178019 1.182937919119446 -3.044499314460408 0.4124049218801532 -0.9845115716708165 3.226192326891658
5695 7 0.004552581270001781 0.01133788409542581 0.003523294185131161 1.182985244617362 0.5157906406160224 -0.07602707923177768 -0.1141710647916363 0.5337182156899443
5696 7 -0.01198995685153134 0.002925408691150916 0.003492683700686303 1.1826070637175 0.7199196933014346 -2.054759273063609 0.5784484468877344 2.252758895388265
5697 7 0.004621714653901397 -0.008038164430088916 0.00356631428284276 1.182965495620362 -0.4024064676873447 1.512900857504821 -0.1491907308638481 1.572595893435792
5698 7 -0.01051670042311873 -0.00638859811341877 0.000508083214484921 1.182669944207417 -1.17230794195825 3.026984019914127 0.4265182147982739 3.273966394932694
5699 7 -0.0009051771069665043 0.007853442905005224 0.003684724317412645 1.182969966885036 -13.11644644980792 -15.94435752014662 -6.48295936810027 21.6400662283962
5700 7 0.008043667261627009 0.009345002363710372 0.0005232941718219705 1.182976899758883 -0.1429331616237573 -0.2276617163334368 -0.05380986962510682 0.2741445747132712
5701 7 -0.01033714488219573 9.850951517386016e-05 0.003502197276406995 1.182569051472352 6.711117534272351 -0.5600682089852244 1.371664847962352 6.872717032780361
5702 7 -0.009364688835622317 0.008021802961783814 0.0005051850505449193 1.182712323620451 -2.175176266698458 -3.14077539061057 -0.0144570820137706 3.82048044788788
5703 7 -0.01190100258663528 -0.002857172166955984 0.003524719052284401 1.182608148672508 0.5019099796849735 2.012391863496918 0.1055431855697719 2.076721937091286
5704 7 -0.007984906843002515 0.009338436213642349 0.000492083020370654 1.182756598252971 -3.199127622619478 -3.162965196322395 -0.04162689684073582 4.498944229204705
5705 7 0.01140383508317309 0.004733446067549713 0.0005077384188985893 1.182975042008053 -0.1496145317904198 -0.09317644078266354 -0.02442405127072787 0.1779406966387029
5706 7 0.01201853801629594 0.001836867839169031 0.001915494833196881 1.182974421965878 -0.2779771158481208 -0.08834503438901768 0.02475336092120552 0.2927265804694404
5707 7 -0.006431043952074792 0.01049442999968768 0.0005107614361871515 1.182805752058097 -3.652840067682546 -2.812192889520801 -0.1556061474738536 4.612578745243276
5708 7 0.003961548806532219 -0.0008887387098265619 0.003490382347750167 1.182913235512739 -2.907586131018479 -0.2551478700482659 -0.8351008617653541 3.035877302231171
5709 7 -0.00291333200031588 -0.01194372930666018 0.003507301604725193 1.182908312140498 -4.778125846912775 1.129514587835738 -0.542576369169398 4.939704336238223
5710 7 0.006430579198918056 -0.01049296799969391 0.003489079747943377 1.182974768846149 0.07155086560134237 0.260107632748758 -0.1549403322084438 0.3110980770228692
5711 7 -0.01134521580586882 0.004673036291102395 0.003523643075810171 1.182633084360104 -0.4545908608965203 -3.260802329922878 0.4364651536668886 3.321142351060336
5712 7 0.006384887742454342 0.0104829349316874 0.00349135110610567 1.182980317933995 0.1305007743387603 -0.3121682141534372 0.007239721117191156 0.3384255598985056
5713 7 0.001381424833104066 -0.007706912540223639 0.003687459334259444 1.1829776237265 10.44068000144618 9.811564472555498 -4.790122349421306 15.10694768688026
5714 7 0.01046451897792292 0.00646245858689019 0.003510920216871474 1.18297558624869 -0.1494051847304146 -0.2000012165255287 0.03997775573681739 0.2528252692864646
5715 7 -0.01224897143121778 -0.0009622190918989036 0.000492734041975967 1.182601274985779 0.9295659689398165 0.6511081932979219 0.5556359287294674 1.263632088578698
5716 7 -0.004732227225475064 0.01140864395691339 0.0005080543190289428 1.182855250947889 -4.017194867105026 -2.066925108517427 -0.2718057409974203 4.525915638338159
5717 7 -0.01195407348463623 -0.002892455004102912 0.0005247190522844008 1.182613981515102 0.3029618321967074 1.714925490878987 0.4630431049563612 1.80198896447291
5718 7 0.0008965298647875691 0.01228693024890312 0.003510920252056628 1.182988491616881 -0.9606346768486831 1.715801266794782 -1.07886211342119 2.242930321983808
5719 7 -0.0002618218304647293 -0.002016284919278733 0.003492571291692701 1.182750881100992 -12.76571135419154 5.401818322022656 0.9715300779728976 13.89557117412165
5720 7 -0.0008971154582284725 -0.01237493996485532 0.003476705828178019 1.18295844675272 -3.741100353230726 -1.787763997300029 -0.9358573607497773 4.25061889172092
5721 7 0.01047926321782382 -0.006450295773187329 0.003491380029999441 1.182972756840384 -0.2342425180502852 0.04652671924821938 0.01620065202630936 0.239367403780503
5722 7 0.001337014589102714 -0.008202461953448755 0.003687459334259444 1.18300346743022 10.3086082373412 7.489188667194586 -5.456326027473373 13.86098280793603
5723 7 0.01136938430301669 0.004709166750378062 0.003507738418898589 1.182974854698436 -0.1537496257111731 -0.1242640671160659 0.03989310428894891 0.201672917250584
5724 7 0.01190481762498486 0.002872004415677751 0.0004694697906795598 1.182974636384696 -0.2031152239058853 -0.06798081985226559 -0.03989792563974961 0.2178738867337687
5725 7 -0.006153016898701812 0.002696736820267867 0.003521097199412007 1.18247438172049 7.396183700750655 -20.86329342691132 9.715094411016699 24.1736138251528
5726 7 0.008004325777178909 -0.009424147623673995 0.003491916785255549 1.182973135089458 -0.04540956800766816 0.3052840692658295 -0.02956013342339686 0.3100551455824525
5727 7 0.004774069582402071 -0.01140817862846801 0.003507355044943333 1.182977706966561 0.2993151148570182 0.2419257067441253 -0.2378552183614442 0.4524297630210515
5728 7 -0.008334891373145518 -0.001436945085600312 0.0004361541442220083 1.182575851030829 1.265358690581288 2.685469009322272 1.521359896080805 3.335777622873404
5729 7 0.01219072572123473 0.001023546266202977 0.0003195501908166308 1.182974344364094 -0.2206493281492713 -0.04200100099336905 -0.04237458670025855 0.2285734361101209
5730 7 0.008006946279725688 0.009312548953633249 0.00352329417182197 1.182977637872979 -0.07137001954740796 -0.3105882912372989 -0.05306467765717941 0.3230706213179448
5731 7 0.003918129555428457 -0.008198897982013283 0.00356631428284276 1.18296717700813 1.152036782006029 1.562340649702029 0.2147253327983346 1.952998725383998
5732 7 0.0008938358235512802 -0.0123047070102126 0.003506777707585291 1.182979687856993 -0.7249778240430234 -1.339287254252166 -1.051386461192455 1.850593603559479
5733 7 -0.000903992351570857 0.01236733780835596 0.003508061647976797 1.182965644239142 -3.454933621203812 1.519407767123866 -1.138918372163896 3.94237255319348
5734 7 -0.002799428142723081 -0.01201900152868471 0.0005073016047251925 1.182900860889523 -3.895150869585692 1.032220712077782 -0.7153452975198946 4.092602935780645
5735 7 0.0113741446605393 -0.004712860883456624 0.003524025456982035 1.182973240115187 -0.2584724425655247 0.0748586256180529 -0.006001829823300772 0.2691613630453675
5736 7 0.01222297704299789 0.001101645455591779 0.003612276209496001 1.182974221488776 -0.1996400755336694 -0.03935134398959141 0.05796277608872865 0.2115759235943175
5737 7 0.01222902215401388 -0.001101430495378572 0.003612276209496207 1.182973870006456 -0.1934631898948496 -0.02345972401521661 0.0583447190403528 0.2034268191145368
5738 7 0.01054001824360047 -0.006458900648823257 0.0004913800299994412 1.182972741402412 -0.2320785041514546 0.02771907707983456 -0.03130772177196766 0.2358155057791694
5739 7 -0.00275903469775047 -0.008979362725985176 0.0004982220096807925 1.182869285867061 -5.578867771504509 3.104923011874734 -0.7422861458561113 6.427697973919657
5740 7 0.009299965510185857 -0.008014550991601904 0.003523182043426043 1.182972371450302 -0.1473051610564965 0.1275848954358348 0.02355497669097529 0.196294556583125
5741 7 -0.01142967139196648 -0.004732842939848547 0.0004768179565739615 1.182639509448411 -0.8612721391630386 2.727410249634527 0.2091978019441515 2.867807540238398
5742 7 0.01223348348455532 -0.001035033293579214 0.0003070439262913835 1.182974066097918 -0.2030466355282565 -0.02760258994816928 -0.05227975958406903 0.2114781606534336
5743 7 0.01203127576003465 -0.002873153242947285 0.000469892469913689 1.182973837184376 -0.1958769076609217 0.03557210824568094 -0.01252957734682759 0.1994746303376392
5744 7 -0.004785894806924386 -0.01136915877408272 0.000492476648664522 1.182849457824657 -3.94808554151385 2.121292142860652 -0.1925626504660697 4.486016069167337
5745 7 -0.002819596424412424 0.000427823868079612 0.003491356946797271 1.182461637652311 -17.75938369800494 -7.945117135454256 15.0544331487526 24.59992994013019
5746 7 -0.003183670013922757 0.00101943975075462 0.002985867530234462 1.182498171614694 -16.77757460519026 -8.424367951077645 16.34396636641124 24.8914085899985
5747 7 0.00479513071382133 0.005905175453149758 0.002964890512296406 1.182951763805162 -1.575477149739006 -1.292246016772321 -0.1695310537060331 2.04469283643885
5748 7 0.004257183797529041 0.005655696037877009 0.002453176445215118 1.182942748694581 -2.159269016583721 -1.25534152078075 -0.7140642259461116 2.597732229955692
5749 7 -0.004519631294929808 0.006469013174571558 0.002495029161669433 1.182753899517818 -5.651620327539563 -6.19700808413595 -0.09083924305126972 8.387608317606565
5750 7 -0.004708625301800584 0.0059344531959737 0.002998325978219963 1.18272807921266 -5.035526348219321 -7.445394536796906 1.091670761274518 9.054400613138228
5751 7 -0.004492322726890315 -0.01020120385234376 0.001006628660138584 1.182840820107542 -4.644426297476871 2.754037764529674 0.1563572308928712 5.401839244627963
5752 7 -0.003980282130454127 -0.009783802098688465 0.001504850669819376 1.182849665670231 -5.338163949614183 2.653004577520792 -0.5427916189677008 5.985737246399006
5753 7 0.0008539571867160437 0.007703991364868695 0.002996588449845141 1.182976278624215 -4.571049723810355 -11.71412725310291 -7.34417730499533 14.56201267567927
5754 7 0.0007306608634768189 0.007300294755254125 0.002544098527054774 1.18294352949598 -1.776727625227832 -5.755299819295849 -4.126123561076874 7.301036413106584
5755 7 0.009119645660436913 0.001783404465332803 0.002989095513330684 1.182965043182818 -0.9905248993807956 -0.07948048750463577 -0.04511327173264429 0.9947320903005659
5756 7 0.009173279648003341 0.002321923544262362 0.002480467148876435 1.182966178978431 -0.9058059961091959 -0.2823709796000299 0.2008821520420442 0.9698306613614028
5757 7 0.009349770674158592 0.00242767140231446 0.00351419864220469 1.182966907573495 -1.085398215862837 -0.1958216861254233 -0.08611643919618503 1.106278202286868
5758 7 0.009403404661725019 0.002966190481244018 0.003005570277750441 1.182968043369107 -1.06036323948576 -0.3407707434278082 0.04458601295200192 1.114667130483371
5759 7 -0.007316309588494862 0.003315244304771389 0.003521097199412007 1.182568709489111 -0.1356685695234171 -11.62471537699393 3.121366387199529 12.03724809414572
5760 7 -0.007805399975413668 0.002961805778561713 0.003018782530454672 1.182568337424609 3.29168772557654 -10.18470326296587 6.522834791688597 12.53438320608725
5761 7 -0.001110247908096728 -0.005752178688163669 0.003523877556210437 1.182836670059401 -6.197473721398937 7.660065321272427 -1.165444333834336 9.921871887343507
5762 7 -0.0008256144613427636 -0.005298710689346698 0.003017444609502719 1.182829676654082 -7.546992088862647 6.904734702393522 0.2257742438363687 10.23149182225997
5763 7 0.002578469986858704 0.006595371061335668 0.00350984695714963 1.182944079650313 -1.660810559967631 -3.910715817752485 -1.048720345237497 4.376277446167523
5764 7 0.002562048263013577 0.006141452677188665 0.002998132890068342 1.182934263432393 -1.709473865446539 -2.962856415366901 -0.3275088332027904 3.436288851442991
5765 7 0.004681261396686477 -0.005924299734611772 0.00348246706150816 1.182946736087916 -1.504180019946228 1.330614918251168 -0.1408542588409284 2.01318988555765
5766 7 0.0041901072198517 -0.005762441716396843 0.002982651233447247 1.182939532118889 -1.836246529298041 1.717019426995619 -0.5714940219675813 2.57809279239211
5767 7 -0.0009571060572093035 0.01000915248885479 0.00298994075820409 1.182978601543115 -8.954433016999152 9.334645029115231 -8.281439115551583 15.35902673674664
5768 7 -0.0006341957580638185 0.01018302030735678 0.003503163597645245 1.183011030572993 -10.7313522046764 8.773081735410623 -9.816209865739813 16.98490092421078
5769 7 0.003642358278506919 -0.007330748151318412 0.003059701710252756 1.18295385437505 -0.5981540796057525 2.538293723653649 -0.6339293936868756 2.683764111591912
5770 7 0.003345215576588405 -0.006890776209427691 0.002559885882191843 1.182944486910438 -0.5200354330877125 2.755102163592666 -0.8633832070343734 2.933676080566611
5771 7 0.003208941535562466 -0.007066944609262939 0.003493387427409996 1.182950200950965 -0.6680681965019828 2.51465628898162 -0.5797040691723678 2.665683434826279
5772 7 0.002911798833643952 -0.006626972667372217 0.002993571599349083 1.182940833486353 -1.080232044681337 2.820169209418917 -0.6545338784380424 3.090092270165098
5773 7 -0.001421718922671807 0.0008573087097522427 0.003472879509169025 1.182618480317268 -26.80355961773052 -6.011749405711321 0.5485511557911953 27.4749494534353
5774 7 -0.001481059744071516 0.000320432833036378 0.002964236455966296 1.182622408336909 -28.59568694403286 5.226687801772204 7.34515451617322 29.98304307512474
5775 7 0.003532181412404644 0.007180572158094544 0.003486350428952624 1.182958058265885 -0.06582979011805518 -2.656825232721876 -0.6004274711040817 2.724622364026082
5776 7 0.003038065648904869 0.007190106307226803 0.002996197386102254 1.182954370072306 -0.6717475940236654 -3.133169738857123 -1.251206483419045 3.439987660837818
5777 7 -0.004280124429622798 -0.004896652798042295 0.003485479829192984 1.182679898844913 -5.338557991120981 11.84520694788134 1.939224550166763 13.13657949843366
5778 7 -0.004831021321750712 -0.004790881214847885 0.00297441237062525 1.182671946272382 -2.898563079914621 11.98809656747606 4.31015403547064 13.06497436081906
5779 7 0.004197929204876127 -0.006959891986087052 0.00356631428284276 1.182953325896129 -1.258724527014541 2.315038586522168 -0.7025317188696601 2.727149043967435
5780 7 0.004575278140999546 -0.006752282247365873 0.003048781344350919 1.182952768582635 -1.37878061920783 1.833558280258768 -0.1649448822222981 2.300038864275981
5781 7 -0.008925387640688209 -0.005861452145230256 0.0004907098937988948 1.182673203346679 -1.293588312385682 4.252789025116403 0.3216480583573339 4.456797357692674
5782 7 -0.008466465082078687 -0.006027268543355765 0.0009919667039412689 1.182680586228542 -1.794195291728301 4.310822958706238 0.00219012144460266 4.669297176535324
5783 7 -0.009114559981247298 0.006994153949109861 0.001483429970770864 1.182693827785498 -1.568683317236618 -3.721568103179111 0.5642161199375755 4.077888709414967
5784 7 -0.008949108773213527 0.006336570130238787 0.0009782449202259441 1.182682713940446 -1.653121255961569 -4.037539518601614 0.3410085717883554 4.37616522736686
5785 7 -0.002233417529517523 -0.009232247504252897 0.003070252327959589 1.182906965994382 -9.845607063633798 -0.8775164951684092 -2.791608819045641 10.2712751617967
5786 7 -0.002101567781283248 -0.009541508112292815 0.003572030318278796 1.182921411385286 -10.00472004500124 0.1878682063757388 -3.512041034100915 10.60491159166473
5787 7 -0.001400581972529701 0.00907154506433446 0.00317150147797149 1.182961260990834 -18.6878059884355 -9.149944207071485 -6.005564400376536 21.65692442201793
5788 7 -0.001289686652742377 0.008805159241805402 0.003684724317412645 1.182983956561511 -19.75923690172738 -3.710216370626861 -13.49118951207989 24.21167782096704
5789 7 0.003391794585647962 0.004491031546348712 0.002936662537704363 1.182920689122891 -2.607740413532627 -2.225441444947263 -0.01779964053723116 3.428296445242671
5790 7 0.003984845508134771 0.004468348814874021 0.002410161652902532 1.182928002849051 -2.40110576086836 -2.161789617155857 -0.2348052230924941 3.239409933384413
5791 7 0.001844058524979451 -0.0115175149834139 0.00151095159633068 1.18296900755143 -0.5827573809806743 0.06232578438075848 -0.8477160294285985 1.030588732247893
5792 7 0.001185860526685153 -0.01104384795475445 0.001507874333850939 1.182967369035488 -0.3487156232627273 -0.07564360222300553 -0.9747515422181068 1.038010168313087
5793 7 0.001519952624368859 -0.01019702663648079 0.0005101311284948868 1.182960704266323 -1.574227192194758 1.116360680891557 -0.6079185704445659 2.023367838722712
5794 7 0.001029749185705391 -0.01024781001643979 0.001001096626265648 1.182961320520214 -0.6765312767741979 1.32630069387224 -1.564872882116465 2.159998897268979
5795 7 -0.008484464251528104 -0.004716934930306498 0.0004907098937988948 1.182648999761509 -1.13178284474927 4.495719007078878 0.3736649425828393 4.651026476767734
5796 7 -0.008553510136759411 -0.004161291921523959 0.0009896212486796905 1.182631778182765 -0.8769484379757732 5.265464892528945 0.9268513627318007 5.41786051370103
5797 7 -0.006800907294194482 -0.005556170117417145 0.002552172648790051 1.182679042062125 -2.786697818035222 6.923739698450349 0.1821973367241866 7.465725149672266
5798 7 -0.006421412643614144 -0.00523250400011452 0.003050915838647677 1.18266984280331 -1.602199391516874 7.238192682617935 1.298371717442151 7.526237128707449
5799 7 -0.008219833296248803 -0.008189255554066729 0.00250482198052527 1.182728940298315 -2.375887235714178 3.790729590698261 -0.7190610822534651 4.531172014681907
5800 7 -0.008251430469489236 -0.00757041176271077 0.003012177027013833 1.182716300769758 -2.816778404281874 4.239507186465929 -0.1066440102200279 5.091074023017226
5801 7 -0.00731656952246414 -0.001188368930724024 0.002380717913657215 1.182497560520426 2.135906326627345 2.192963169003851 15.10158066169332 15.40872875283239
5802 7 -0.007534693930982506 -0.0006384962754491731 0.002910916351976122 1.182453461645921 3.700377519945157 1.474167739799539 13.80866039597352 14.37167583291902
5803 7 0.005965916901456113 -0.007306044067812012 0.0009931093221412063 1.182962622879212 -0.8765619988066323 0.8137163661689514 0.03596511528252537 1.196573755286471
5804 7 0.006359739342004235 -0.007739902690822977 0.0005106422606330468 1.18296583359359 -0.6952189758908149 0.5902578457055928 -0.1686452958144679 0.9274561901545703
5805 7 0.007900503620296194 -0.007914784382298465 0.0009790880275999639 1.182970514091547 -0.3175758479680121 0.2632499346487418 0.05404321999160405 0.4160235773754051
5806 7 0.008539588361009426 -0.007897766255328294 0.001502270071026007 1.182971264666764 -0.2439282685162745 0.277642455026502 0.08338166568861269 0.37886519395096
5807 7 -0.007960562243120604 0.004850200559716368 0.0004855612195396782 1.182655736979343 -1.227280257757229 -4.681581639420304 0.02784622878508283 4.839855255076902
5808 7 -0.008550226738222083 0.004862957107358003 0.0009948613152635268 1.182652022612404 -1.24107587591163 -4.68498024056187 0.03926575916907144 4.846736116611684
5809 7 -0.01012218824185548 0.003522098075823754 0.001499669127452817 1.182618034326499 0.7418586111698194 -4.37910420779609 0.1520612257352535 4.444100637707964
5810 7 -0.01032007034747259 0.002950938729761765 0.0009903690317289683 1.182608800281011 0.989219695011169 -3.119604069718022 1.198025646249574 3.485075408921727
5811 7 -0.01164204808464416 0.002226846627276415 0.003492683700686303 1.182598127110698 0.679073672575668 -1.977160400849576 0.6127003338928071 2.178464138475871
5812 7 -0.01205868664085601 0.001775377361756682 0.002997868751231227 1.182597867564919 0.9050681966474975 -1.487183633305454 0.8767799733491244 1.949257992524452
5813 7 -0.009628601461638414 -0.0008113609237632667 0.002426833804047869 1.182568611632946 3.095800417523691 1.25718834304179 3.242568359787142 4.656044708001921
5814 7 -0.009240202774608311 -0.001215555483178677 0.002924636527640875 1.18255801026908 2.70638784978522 2.03007109119218 2.625481694654497 4.282391616576551
5815 7 0.00876070423747537 -0.00571240955416262 0.000975014951213065 1.182968893238227 -0.5444390367095894 0.3288879413850718 -0.1249669390244179 0.6482267184642334
5816 7 0.008567828969773048 -0.006218325995602863 0.0004871712423444145 1.182969069916753 -0.5045493894968001 0.4039109232364442 -0.05669528867010947 0.6487900092546874
5817 7 0.003597753336043666 -0.01151077699864025 0.001511528933688723 1.182974086629288 -0.13599530111403 0.1073029861790004 -0.3383619581803265 0.3801282250920753
5818 7 0.003907702104752091 -0.01097776300187863 0.001017486173438219 1.182972836085857 -0.05836937780092921 0.2004817193370084 -0.3899179372075344 0.4423074742861229
5819 7 0.01147902515319922 -0.001963710083752266 0.002582492845873345 1.182972752381142 -0.3134095929019342 0.02977265404460645 -0.02908311641489937 0.3161610531235916
5820 7 0.01086343328390491 -0.002322264206727737 0.002453356587607927 1.182971816012014 -0.2901625520351063 0.05294706360018756 -0.01533840863261593 0.2953522725945903
5821 7 0.001094345494092162 0.01011580467209751 0.0005031635976452445 1.182967388432909 -1.327335880137342 -1.400079492436656 -1.589393023768067 2.499642636027049
5822 7 0.001484589204542755 0.00977526788523749 0.001002225600315355 1.182970889103502 -1.053986693441628 -1.665228124990737 -1.296275079813541 2.358856023744939
5823 7 0.001700516293883088 0.01006501328168567 0.00349906200267011 1.183019009683543 9.233349797230321 0.1253249697925959 -1.940709258367963 9.435931710837137
5824 7 0.001345850628039696 0.01020556004082426 0.003002225600315355 1.183007610346365 3.515235639003781 7.708959616903304 -7.860604039511614 11.55742340830146
5825 8 -0.0008783930958530049 -0.009518235313456639 0.02063232018306722 3.999999999949457 1.010356993721197e-09 -3.362030142717509e-10 -3.081903218889499e-09 3.260671889682892e-09
5826 8 -0.0008665598456237609 -0.009466702489174274 0.01986780509472117 3.999999999831246 2.493731822176016e-09 1.563215774027772e-09 -1.333196011968626e-08 1.365296680542392e-08
5827 8 -0.0004146776710537587 -0.009597462925118316 0.0207145463185766 3.999999999958709 -1.466193252362676e-09 -1.330798556182839e-09 -4.629317506809753e-09 5.035010231297195e-09
5828 8 -0.0003960581638075131 -0.009843837620647718 0.005425644812673458 3.09886561085185 7.908709006605061 4.855241633643543 -45.86300862963586 46.79248454649822
5829 8 -0.0003653226879844915 -0.008816797907511975 0.07775377682752729 4 0 0 0 0
5830 8 -0.0006658745339508345 -0.009235103245822213 0.00605996399583488 3.569082882520747 -4.406361891460922 -1.675094149302314 -30.17778842693313 30.54375353273211
5831 8 -0.0006999887304039965 -0.009166386516747111 0.07811446145910597 4 0 0 0 0
5832 8 -0.0005854664460854491 -0.008174581171131845 0.005379506751025698 3.045675819131934 0.4362216798052134 3.964014737052834 -43.15984411503538 43.34369442287607
5833 8 -0.0006907628899835814 -0.00949089741751305 0.04193738946098741 4 0 0 0 0
5834 8 -0.0005801609456366108 -0.008619836489563276 0.00650796005328865 3.786386042905239 -3.157381962788048 0.3559024101280677 -23.09556466062066 23.31310434878599
5835 8 -0.001018003297901195 -0.008896804152607128 0.006241011439389215 3.634238036829351 -8.550141142664176 -0.380648058419384 -28.29532046793895 29.56137626848963
5836 8 -0.0004837812981693689 -0.009337289562263028 0.06004337439700731 4 0 0 0 0
5837 8 -0.0001072001133385337 -0.009335394294980167 0.04205781370222531 4 0 0 0 0
5838 8 -8.626471747225076e-05 -0.009249575121936136 0.07797081132760736 4 0 0 0 0
5839 8 -0.0004508855124711469 -0.009580839032752701 0.07169999027232438 4 0 0 0 0
5840 8 -0.0007477784651416471 -0.008878643347836382 0.05981387016603917 4 0 0 0 0
5841 8 4.742242617193292e-05 -0.009396643437836694 0.03481783689070388 4 0 0 0 0
5842 8 -0.0003983314278593416 -0.00929888936755803 0.07921659412216303 4 0 0 0 0
5843 8 6.657397172493817e-05 -0.00939522413896614 0.03513905305191456 4 0 0 0 0
5844 8 -0.0007915748320062493 -0.008917056020844243 0.0790359624503347 4 0 0 0 0
5845 8 -0.0007432206641671549 -0.009579914841870122 0.05373903546497454 4 0 0 0 0
5846 8 -0.0001541828637106016 -0.008958481195587589 0.07817695710099598 4 0 0 0 0
5847 8 -0.0007652423505397259 -0.008637344397443519 0.04259202340657715 4 0 0 0 0
5848 8 -0.0007737695334939369 -0.009235372464931672 0.06098244384608004 4 0 0 0 0
5849 8 -0.0001168252481340474 -0.009030895789103394 0.005914285300749019 3.545475815661697 -5.038454413366993 -1.915548106189916 -28.64419658196227 29.146961166626
5850 8 -0.0002925644608637337 -0.009568303214775711 0.06596989782434087 4 0 0 0 0
5851 8 -0.0003609835524966228 -0.009195946407364139 0.006808204028199708 3.875262299607302 -1.724217712428186 -1.070900366329521 -12.55007047768458 12.71314372251434
5852 8 0.000116559344024072 -0.009603818385878345 0.005650524821358071 3.305644415182274 -0.8411392932013025 -5.608043734933813 -50.17613210402465 50.49556319880026
5853 8 -0.0005028910679863949 -0.009135312065991028 0.07863417653474149 4 0 0 0 0
5854 8 -0.0003695415278372993 -0.00897942761836564 0.02081095611534734 3.999999999972662 -6.489393760748805e-10 -2.688249071418993e-10 -2.650729869089113e-09 2.74221771261902e-09
5855 8 -0.0008012544131088693 -0.00926685846224121 0.02501118074724144 3.999999999999922 1.340461490401491e-12 -1.252733781615815e-12 -4.081436340237616e-12 4.474852124290039e-12
5856 8 0.0002833703086036236 -0.009724438532869126 0.0214196000639545 3.999999999985682 -8.61060433275656e-11 6.380216372914534e-11 -1.101142383384806e-09 1.106345115811707e-09
5857 8 -0.0001910682908338416 -0.009337802627241615 0.02172449201646068 3.999999999990745 6.224318254522144e-12 2.066705580421135e-11 -1.342083712755103e-09 1.342257263484117e-09
5858 8 -4.10109868106838e-05 -0.009244337119225223 0.006166408635989686 3.676119269889307 -5.270424705484787 -1.952072982566541 -32.24330698229107 32.72947922988862
5859 8 -7.812588300459644e-05 -0.008418903509403107 0.005646708275758651 3.309871409159972 -1.09893198217617 5.755581848827815 -47.73918990586532 48.09744927528153
5860 8 -0.0004121330417693864 -0.008993399463078389 0.09366974030795699 4 0 0 0 0
5861 8 0.000155258709153523 -0.008991826106178057 0.005382947796367702 3.070040008680549 0.3391506836981156 -1.014704122066073 -53.142532910334 53.15330141926768
5862 8 -0.0001073270303203689 -0.008297369450418986 0.0775662724694173 4 0 0 0 0
5863 8 -0.0008439801272747645 -0.00859279171273813 0.02111584806785351 3.999999999977725 -9.938539084854868e-10 1.596821887392906e-10 -1.731859798922758e-09 2.003143119184754e-09
5864 8 -0.0003568330069178593 -0.008782820125414611 0.007078144135157623 3.922378175686141 -2.088624572286079 -0.1524645336210849 -9.270171034260416 9.50377130629785
5865 8 -0.0004677552361977123 -0.00910048059013099 0.06347034692403916 4 0 0 0 0
5866 8 0.0005901154302659418 -0.009185296730111743 0.03457439075817038 4 0 0 0 0
5867 8 -0.0003585095857358158 -0.00867086988337913 0.03737185895632937 4 0 0 0 0
5868 8 -0.0001122968052713863 -0.008335322443793283 0.07835920649301903 4 0 0 0 0
5869 8 -0.0007168070159828132 -0.008824206233999248 0.06179541845918655 4 0 0 0 0
5870 8 -0.0006019999824954264 -0.009210181915013551 0.0376504426701534 4 0 0 0 0
5871 8 -0.0001493700946545037 -0.008712321222923869 0.04235189941546397 4 0 0 0 0
5872 8 0.0001033826331780907 -0.009188239319670949 0.05994111689139654 4 0 0 0 0
5873 8 0.0006092669758189469 -0.009183877431241189 0.03539560691938107 4 0 0 0 0
5874 8 -0.0001606145337941876 -0.008729593105244302 0.0597116126604284 4 0 0 0 0
5875 8 -0.0001096476638394871 -0.009517145412704814 0.07881480820656983 4 0 0 0 0
5876 8 -0.0003971331918891933 -0.008790927778339164 0.06125860569047387 4 0 0 0 0
5877 8 1.95585330611412e-05 -0.008648835953151333 0.03817766860047277 4 0 0 0 0
5878 8 6.554973299689142e-05 -0.008471353946203275 0.0797076538379765 4 0 0 0 0
5879 8 -0.0001966741251155194 -0.009399739285528071 0.07751300032233178 4 0 0 0 0
5880 8 -0.0004389745197229641 -0.009093896932301235 0.06567161115503256 4 0 0 0 0
5881 8 0.0001083894355952003 -0.009212519644451217 0.03343765984070103 4 0 0 0 0
5882 8 -0.000337563968129327 -0.009336625249304033 0.03997992305549899 4 0 0 0 0
5883 8 -0.0001589353914484031 -0.009402028491000265 0.0668436898372539 4 0 0 0 0
5884 8 -0.0004519121165934532 -0.009154169396396733 0.0929064064411973 4 0 0 0 0
5885 8 -0.0005242971423580084 -0.009061812627348863 0.01308442193265539 3.999999981718331 1.751964314694906e-06 -8.154637463493665e-07 -9.27853371628687e-07 2.143658545761722e-06
5886 8 4.35375513322237e-05 -0.008648327637036454 0.006321748215215625 3.75264741584894 -3.518930240088722 0.6152433561831581 -22.20732445986122 22.49281338755756
5887 8 -0.0003938360206622541 -0.009244321593667396 0.0615551488713082 4 0 0 0 0
5888 8 -0.0001698893107518762 -0.008728047729624341 0.05939164417454476 4 0 0 0 0
5889 8 -0.0007231890240817068 -0.009324475587772985 0.01106780308507353 3.999999081898867 1.784831916574576e-05 5.813808571564732e-06 -7.511978329513605e-05 7.742961132187949e-05
5890 8 -0.0001459591512650683 -0.0100190489454029 0.01348495246219825 3.999999982187705 2.943591633351397e-07 -2.168719368494786e-06 -2.275269006179677e-06 3.157030260673096e-06
5891 8 -0.0001772754808583415 -0.009292099792714684 0.02540710295870304 3.999999999999944 7.336111373544556e-13 -1.338184717171147e-12 -5.767536820038137e-12 5.966020835415892e-12
5892 8 -0.0006691837644808194 -0.009184245365504249 0.06663761355208647 4 0 0 0 0
5893 8 -0.0004596841633878229 -0.008365404963327012 0.08066828642745749 4 0 0 0 0
5894 8 -0.0005500881920731505 -0.009026669730986663 0.07082119572779799 4 0 0 0 0
5895 8 -1.685104728527096e-05 -0.009415783454044761 0.04117643535913751 4 0 0 0 0
5896 8 -0.0002270904870487934 -0.008678902787706054 0.04544043514141952 4 0 0 0 0
5897 8 0.0001781664063293042 -0.009820447037026087 0.006466652610900743 3.764995526591369 0.08865702721779041 -6.542457232688017 -18.6702543815555 19.78357918532487
5898 8 -0.000800786794225908 -0.008648305007833406 0.07023692797914746 4 0 0 0 0
5899 8 -0.0001029342142528319 -0.009767766256294641 0.02850760668932869 4 1.867002744819547e-14 4.986596305598677e-14 -1.228254340400541e-16 5.324658939786338e-14
5900 8 0.0002627657694755483 -0.008718974249231888 0.03753031140699806 4 0 0 0 0
5901 8 1.92753727159377e-05 -0.00925828628086631 0.03780889512082209 4 0 0 0 0
5902 8 -0.0004799743647983119 -0.009586804552147084 0.04069426065818596 4 0 0 0 0
5903 8 -0.0005205226791652436 -0.009150834297614745 0.02392317760007077 3.999999999999658 -4.93195719457809e-12 9.232053066951429e-12 -4.32836455286851e-11 4.453121350079088e-11
5904 8 -0.0002439851388501028 -0.008715277963520425 0.0214519533470247 3.999999999986747 -4.75304438169076e-11 -1.261208519885862e-10 -1.045977907284785e-09 1.054625713190996e-09
5905 8 5.742726184890483e-05 -0.009162921840389616 0.0451627665357294 4 0 0 0 0
5906 8 -0.000461368642763849 -0.009146771838936311 0.04328658443781775 4 0 0 0 0
5907 8 -0.0004960335391420726 -0.009093353472080769 0.07050712951607949 4 0 0 0 0
5908 8 -0.0008536272412339877 -0.008647938998990558 0.02574490892158518 3.99999999999997 4.08716260089596e-13 -1.084111949766561e-12 -2.065996723727594e-12 2.368689545580306e-12
5909 8 -0.0006017111343930493 -0.008802448202502932 0.01134487991828166 3.999999306118622 2.033501456765155e-05 8.206540947398933e-06 -7.261029616692081e-05 7.584929295145664e-05
5910 8 -8.880183205382873e-05 -0.008834710441936958 0.08066251737362494 4 0 0 0 0
5911 8 0.0001187066789126108 -0.0091866781422208 0.0593425092989881 4 0 0 0 0
5912 8 -0.0009245585005362299 -0.00888453514730507 0.05614770690292542 4 0 0 0 0
5913 8 -0.0005305704208270076 -0.008997271015820485 0.01914941187926597 3.999999999797737 -1.288460636189427e-08 1.0164294074047e-09 -1.088500203965955e-08 1.689761756120063e-08
5914 8 -0.0001245833075809937 -0.008509189655131881 0.04716072659951104 4 0 0 0 0
5915 8 -0.0007343947754362251 -0.00961842054047608 0.0152027796714631 3.999999991033195 -2.465963078952395e-07 -6.616410076778813e-08 4.612842112582492e-08 2.594518424169219e-07
5916 8 -0.0007309890942956499 -0.008670143161360741 0.09270673003057017 4 0 0 0 0
5917 8 -0.0001277716086884395 -0.009530741601655759 0.06310579668086062 4 0 0 0 0
5918 8 -0.0005034633741174843 -0.008292867879860468 0.07976397756561197 4 0 0 0 0
5919 8 -0.0002801232346979538 -0.008678793906550922 0.09315633112789692 4 0 0 0 0
5920 8 0.0001391011098151835 -0.009081952502329229 0.07949337803954704 4 0 0 0 0
5921 8 0.0004676222562936737 -0.009001059979581068 0.004989392436522507 2.545780112794792 31.77300078292113 -1.738917085198954 -73.13973516443232 79.7619475144884
5922 8 -0.0007165976360002644 -0.009559409769480024 0.06793143714471002 4 0 0 0 0
5923 8 -0.0001999107915563506 -0.009515269585464824 0.0243600938514447 3.999999999999856 7.306701718031337e-13 -2.843146395628083e-12 -6.405899259517222e-12 7.046481792357025e-12
5924 8 0.0002304534605873624 -0.009101913869147937 0.02114706139451852 3.999999999981683 -7.448846690641672e-11 -9.715507377591369e-11 -9.904702701500059e-10 9.980075130546349e-10
5925 8 -8.324529605201395e-05 -0.009458239401532328 0.08100500835165456 4 0 0 0 0
5926 8 -8.812894495117512e-05 -0.009417010037885728 0.07105144892786758 4 0 0 0 0
5927 8 -0.0001144281476095854 -0.009399685681484742 0.06971716388157602 4 0 0 0 0
5928 8 -0.0004258096984115178 -0.00897764454816964 0.04688818213214836 4 0 0 0 0
5929 8 -0.0005860670758426547 -0.009134810645346957 0.08965733766189496 4 0 0 0 0
5930 8 -0.000777657876617693 -0.009084914515619713 0.02850645920078227 4 0 0 0 0
5931 8 -0.0004367249373757449 -0.00908470412317804 0.06906828742515668 4 0 0 0 0
5932 8 -0.0001346776898322845 -0.009402308927153036 0.02205029398371242 3.999999999994754 -6.893195652337421e-11 -6.146684341909684e-11 -4.28920272659586e-10 4.387509404758259e-10
5933 8 -0.0007084266869966171 -0.00957378840546059 0.02186112898374669 3.999999999990878 -4.022758156309001e-10 -2.788945526849041e-10 -7.688858168881535e-10 9.114786902449129e-10
5934 8 -0.0008528695499676947 -0.008577519081167606 0.07117053093203241 4 0 0 0 0
5935 8 -0.0007466945504468382 -0.009651721095092788 0.03419296028305616 4 0 0 0 0
5936 8 -0.00015930762809865 -0.009388104827426885 0.0853618127471842 4 0 0 0 0
5937 8 -2.864080082749262e-05 -0.008483074726154389 0.06098690398248315 4 0 0 0 0
5938 8 -0.0002050105464405768 -0.008815916612920818 0.03362215683369563 4 0 0 0 0
5939 8 -0.0005376323290477741 -0.0096981082731026 0.08751810749829286 4 0 0 0 0
5940 8 0.0001456997682665751 -0.009223380609192752 0.08334426241597653 4 0 0 0 0
5941 8 -0.0004096745257639352 -0.009041623625709374 0.04755043084418125 4 0 0 0 0
5942 8 -0.0009222112729901253 -0.00881479183189952 0.0120198009730588 3.99999984187994 8.722129522337439e-06 6.991965389165738e-06 -1.375489568952377e-05 1.772456709873055e-05
5943 8 -0.0006556671336515887 -0.009697288507430016 0.01608883653428096 3.999999992061535 1.347961482955865e-07 6.174570689414669e-08 -2.901886633660478e-07 3.25871131371524e-07
5944 8 -0.0005338679842775765 -0.008449811675127176 0.03839928204438812 4 0 0 0 0
5945 8 -0.0007687727052093354 -0.009654014860072077 0.07834690103652647 4 0 0 0 0
5946 8 -0.0002040015463528293 -0.009440374387367837 0.03394951415052266 4 0 0 0 0
5947 8 -0.0008265173377806521 -0.008757323912013391 0.04358360003523372 4 0 0 0 0
5948 8 0.0001951581144732139 -0.00984339522255083 0.04242024717372504 4 0 0 0 0
5949 8 -0.0004628841227279783 -0.009145345325014181 0.04295445687807688 4 0 0 0 0
5950 8 -0.0005279189677719017 -0.009073370797998286 0.08722873950343105 4 0 0 0 0
5951 8 6.318146517896374e-05 -0.008877004288273999 0.06370640329893357 4 0 0 0 0
5952 8 -0.0001668274517035685 -0.009293205259916058 0.05015266468059118 4 0 0 0 0
5953 8 -0.0007895094365355979 -0.009381040961286075 0.0955253010845494 4 0 0 0 0
5954 8 3.45414696881301e-05 -0.008918375200762229 0.07841096045212548 4 0 0 0 0
5955 8 -0.0001292733375860382 -0.009530896279960512 0.04919832606702211 4 0 0 0 0
5956 8 0.0001529881331572439 -0.009220322150494533 0.0427143328869637 4 0 0 0 0
5957 8 0.0002627149444722117 -0.009224437554837317 0.006621992190126684 3.841523672551003 -0.6130418322988102 -1.803349265823097 -14.83208331695823 14.95388191687642
5958 8 -0.0001305834293765867 -0.009468237380655406 0.01586575483602761 3.999999990585754 1.192015420116517e-08 2.036851998215824e-08 -1.272282650321997e-07 1.293986016367518e-07
5959 8 -0.0006677188075838023 -0.009685988060394246 0.04321688805109202 4 0 0 0 0
5960 8 -0.0005655020737109514 -0.009192347769503471 0.05636584235396619 4 0 0 0 0
5961 8 5.988997281876955e-05 -0.009807932014246751 0.0596211484055129 4 0 0 0 0
5962 8 -0.0005096690425749413 -0.009177851772291528 0.01784568079021679 3.999999998189634 3.599710759577942e-08 1.90642554659078e-08 -5.312502687187879e-08 6.694405180349753e-08
5963 8 0.0002107150389403091 -0.009030009827728421 0.09383675480798828 4 0 0 0 0
5964 8 -0.0002060083994868653 -0.009974375529231961 0.07986773528031495 4 0 0 0 0
5965 8 -0.0001576408789090795 -0.01001774176443439 0.04549078268273575 4 0 0 0 0
5966 8 -0.0007406471514898591 -0.009566592551611802 0.07065142856255874 4 0 0 0 0
5967 8 -0.0004854352610642467 -0.009157759948501874 0.03101088435025821 4 0 0 0 0
5968 8 -0.0002378554297034831 -0.009314148365700669 0.09222038721003677 4 0 0 0 0
5969 8 -0.0005408743119006862 -0.009205313235995679 0.02630265653762004 3.999999999999987 -2.785894817466638e-13 -4.254351832350491e-13 -1.888055485606041e-12 1.955341584276563e-12
5970 8 3.155310619297445e-05 -0.009857085223787136 0.0656917322264419 4 0 0 0 0
5971 8 0.0005667117293597767 -0.009260280331511878 0.04129685960037541 4 0 0 0 0
5972 8 3.277962989008412e-05 -0.009521649576981279 0.0877528669017284 4 0 0 0 0
5973 8 -0.0006945401819587701 -0.008614041100932349 0.05863505310061543 4 0 0 0 0
5974 8 -0.0005688563740153044 -0.009189164542264807 0.05663898576256186 4 0 0 0 0
5975 8 -0.0007190799898108613 -0.009272975284031201 0.00732978547719095 3.946885199030282 -1.985637207659844 -0.06823397381490393 -9.421148446582484 9.628366894139903
5976 8 0.0001093984356829478 -0.009836977418898237 0.03376501715752807 4 0 0 0 0
5977 8 -0.0004723013960716678 -0.009157613682945754 0.08310858476600015 4 0 0 0 0
5978 8 -0.0004733511998756089 -0.009156636046967294 0.08282976489936958 4 0 0 0 0
5979 8 -0.0003371009907505849 -0.008980703720254193 0.04081470096010119 4 0 0 0 0
5980 8 -0.0005374917132731629 -0.008970892177395639 0.09173074927629483 4 0 0 0 0
5981 8 -0.0001520825535357717 -0.008783705233215837 0.04807944185174843 4 0 0 0 0
5982 8 0.0001922600319294023 -0.009232771841351795 0.08398150760825347 4 0 0 0 0
5983 8 -0.0001781114390512056 -0.009438082819767518 0.01233663630413678 3.999999838679846 1.167026336428893e-05 7.333636271665807e-06 -1.301303397022848e-05 1.895564087725015e-05
5984 8 1.012776894781226e-05 -0.009397138732819998 0.08467702774502826 4 0 0 0 0
5985 8 -0.0005050839860412466 -0.009126951550721463 0.03450530044235513 4 0 0 0 0
5986 8 -0.0005803923904567153 -0.008781167312138155 0.02483476677938286 3.999999999999921 5.491512085429413e-13 -1.735659377801261e-12 -3.441474091762489e-12 3.893305080502436e-12
5987 8 -0.0002009295569490608 -0.009541710485630763 0.05564009028021679 4 0 0 0 0
5988 8 -3.8386831531977e-05 -0.00977326353032016 0.03964215827788276 4 0 0 0 0
5989 8 5.335209441738943e-05 -0.009451748579424222 0.06877653319851333 4 0 0 0 0
5990 8 -0.0006430674463022566 -0.009625384714625426 0.06938868157119714 4 0 0 0 0
5991 8 0.0003865169967548078 -0.009315867671214458 0.06043968298274402 4 0 0 0 0
5992 8 -0.0007114962911829801 -0.008470094135950063 0.0601688016233103 4 0 0 0 0
5993 8 -0.0004972513689198141 -0.009078684376728922 0.08136139309406916 4 0 0 0 0
5994 8 8.238384539672132e-05 -0.009832516499952232 0.07773003482241186 4 0 0 0 0
5995 8 -0.000193221055062515 -0.00956270932255761 0.01835192817997002 3.999999998736535 2.954982453511557e-08 3.286817547242975e-08 -9.151821621864509e-08 1.016321454500751e-07
5996 8 6.132153254860315e-05 -0.008880310828435083 0.07732549596422181 4 0 0 0 0
5997 8 0.0004379902538014248 -0.008696591533184141 0.04739674260450526 4 0 0 0 0
5998 8 0.0001962284546734422 -0.009846084052902224 0.08364981306359959 4 0 0 0 0
5999 8 -0.000455191649000314 -0.009218829633283715 0.07468622730927782 4 0 0 0 0
6000 8 -0.0002170892656915503 -0.008827400248158111 0.08224609789030732 4 0 0 0 0
6001 8 -0.0007842535209626778 -0.008618089063681684 0.09551744507933799 4 0 0 0 0
6002 8 -0.0004454790867894995 -0.009125062783125602 0.0769165762672277 4 0 0 0 0
6003 8 -0.0005844245689077206 -0.008569192808336307 0.05697452553165315 4 0 0 0 0
6004 8 4.249299116595655e-05 -0.008896912101876967 0.08746349890686658 4 0 0 0 0
6005 8 0.0001035884118467358 -0.009431301429614201 0.04031468489942387 4 0 0 0 0
6006 8 -0.0001766070510080475 -0.009451041724701027 0.08187492752176573 4 0 0 0 0
6007 8 0.0001446499644626341 -0.00922240297321429 0.08256544254934597 4 0 0 0 0
6008 8 0.000427784873835038 -0.009300208547476015 0.07859159212395384 4 0 0 0 0
6009 8 -0.0005383868942730928 -0.009048615682382202 0.01515864931814691 3.999999991433776 -1.407770928902362e-07 5.09353310330783e-08 -5.302530389288328e-08 1.588215372139689e-07
6010 8 -0.0002537233002137986 -0.009613082349564444 0.06815980315217851 4 0 0 0 0
6011 8 0.0001728794166045603 -0.009844237921659692 0.01055558285620755 3.999999139591377 -2.737628036730189e-05 -5.212671754781992e-05 -3.36998640168e-05 6.784052066287616e-05
6012 8 -0.000424224656411435 -0.009172727634905948 0.03707079593027217 4 0 0 0 0
6013 8 -0.0009790467009162373 -0.008733609302322949 0.07789742695902591 4 0 0 0 0
6014 8 0.0001970506987999291 -0.009220832000758707 0.03672924838094085 4 0 0 0 0
6015 8 -0.0001860053890529722 -0.009445084271907329 0.07356114450334883 4 0 0 0 0
6016 8 0.0005979010095091428 -0.009249216817503627 0.08446107840186839 4 0 0 0 0
6017 8 0.0002599185449101563 -0.009723431099546462 0.04549470374364203 4 0 0 0 0
6018 8 -0.0008350904300297933 -0.008761633321911115 0.08251042024033092 4 0 0 0 0
6019 8 9.191436131692632e-05 -0.008859005090037352 0.06939676973553555 4 0 0 0 0
6020 8 -9.85135134180988e-05 -0.009338712881824722 0.01067102774202687 3.999999130097323 -3.771414883027646e-05 4.098923427211567e-06 8.802215421271007e-06 3.894402639143579e-05
6021 8 -0.0007987231774068278 -0.008815577715676669 0.07405517295542842 4 0 0 0 0
6022 8 -0.0004904797157141065 -0.00914386854445046 0.03539385516036324 4 0 0 0 0
6023 8 -0.0005250160846733934 -0.009065411725298582 0.08681005749615475 4 0 0 0 0
6024 8 -0.0005561887862925283 -0.009079343281227076 0.04475664162705238 4 0 0 0 0
6025 8 -0.000708100073806997 -0.00974480076382709 0.005819518440765132 3.386684769947946 -10.48085089511555 -10.52694717868935 -34.51861489317179 37.57924462428245
6026 8 9.288096698938107e-05 -0.009799103385355393 0.02563366022849603 3.999999999999948 7.06522229567741e-13 -1.774703359968256e-12 -5.189818520587595e-12 5.530186430256217e-12
6027 8 -2.751540147356592e-05 -0.00950780809500882 0.08623988902265095 4 0 0 0 0
6028 8 -0.0003028892282307448 -0.008930039114847438 0.05598938182414485 4 0 0 0 0
6029 8 9.153091676163222e-05 -0.009798353870706551 0.05037127549515679 4 0 0 0 0
6030 8 0.0004017376942561905 -0.009307492656526951 0.04936511092214613 4 0 0 0 0
6031 8 -0.0005187162229826099 -0.009061981188567525 0.09095580886168859 4 0 0 0 0
6032 8 -0.0002032060350862367 -0.009371455689859191 0.06403992477572179 4 0 0 0 0
6033 8 -0.000101258356082254 -0.00900420617325871 0.06627390233947086 4 0 0 0 0
6034 8 -0.0008753593124505549 -0.008841224814290224 0.02667606728898439 3.999999999999992 -6.555287469030833e-13 -8.097603254832165e-15 -7.28599102321043e-13 9.801225235131722e-13
6035 8 -0.000206432863597818 -0.008783266527495477 0.0700656307377793 4 0 0 0 0
6036 8 -0.0005024423293736845 -0.009143783080204205 0.03171802899743051 4 0 0 0 0
6037 8 -9.13588014086179e-05 -0.008714279838897547 0.05210998820832308 4 0 0 0 0
6038 8 -0.0004374251521438008 -0.009085821020696612 0.0488781720200641 4 0 0 0 0
6039 8 -0.0001081410135859545 -0.008706753526010773 0.09237374453060146 4 0 0 0 0
6040 8 -0.0002641949842162749 -0.008715673818858814 0.07235368254120235 4 0 0 0 0
6041 8 6.031485804338901e-05 -0.008898154099873762 0.01616295480490867 3.999999991414529 2.169822733138852e-08 -2.933538140930441e-09 -2.182175032664381e-07 2.19313240473955e-07
6042 8 -9.180728528091311e-05 -0.008823795976470376 0.06195374826531217 4 0 0 0 0
6043 8 7.384930576871601e-05 -0.008243194317277399 0.04833545791465453 4 0 0 0 0
6044 8 -0.0001244471950384378 -0.009335686573395447 0.05160998820832308 4 0 0 0 0
6045 8 -0.0007146561149181902 -0.008596303355163577 0.0478434258467542 4 0 0 0 0
6046 8 0.000168084315225505 -0.009845522162351185 0.05733817422448286 4 0 0 0 0
6047 8 0.0001528990356184833 -0.009229025503761631 0.04778644684917547 4 0 0 0 0
6048 8 3.760901805276227e-05 -0.008915604842996513 0.03426185430982163 4 0 0 0 0
6049 8 0.0001391145540979052 -0.008237188522391675 0.0596191033614402 4 0 0 0 0
6050 8 -0.0007888933343003576 -0.008620088993254497 0.004409456526723265 1.858577580367485 1.603667954476873 3.337403792872223 -48.85366228277057 48.99377851752092
6051 8 0.0001809831171199218 -0.009235817937587459 0.03845210591450221 4 0 0 0 0
6052 8 -0.0001059441922947625 -0.008760421613608908 0.05833591822505875 4 0 0 0 0
6053 8 -4.076239359865296e-05 -0.008774454562484726 0.0849747192440336 4 0 0 0 0
6054 8 1.405181300513433e-05 -0.009413313991606109 0.04664183046887944 4 0 0 0 0
6055 8 -0.0006561364896530434 -0.009605919754345429 0.05780985065537771 4 0 0 0 0
6056 8 -0.0001399119308145489 -0.009480832977470793 0.02364641618347453 3.999999999999539 -4.502737553763214e-12 8.197926102205787e-12 -4.499748863197159e-11 4.595927132842414e-11
6057 8 -0.0003290172157848756 -0.00883725830096452 0.09008803461014646 4 0 0 0 0
6058 8 0.0004089900169501624 -0.009221989298754726 0.06647997862463831 4 0 0 0 0
6059 8 0.0004031650926882365 -0.009307265299798768 0.06334185305575503 4 0 0 0 0
6060 8 -0.0002975357623265173 -0.008829029125951258 0.01212302563001213 3.999999754474173 1.203797011898351e-05 6.509064381151481e-06 -1.124275327360631e-05 1.771101761262464e-05
6061 8 0.0007004926241826967 -0.009303244313539448 0.004751805066994186 2.181486163226526 0.002124674922767527 5.785987547926807 -45.07170694788754 45.44157153549227
6062 8 -0.0008231554014461001 -0.008521633089272639 0.07936907009535417 4 0 0 0 0
6063 8 -0.0004531402685841568 -0.00860129806577839 0.07499844505351071 4 0 0 0 0
6064 8 -0.0001974455561441857 -0.008749121693277066 0.06430855506382373 4 0 0 0 0
6065 8 -0.0003863316734230361 -0.008612677448268212 0.08931043508783942 4 0 0 0 0
6066 8 4.122154799871364e-05 -0.009798174600736663 0.09242006362066388 4 0 0 0 0
6067 8 0.0007046296321109769 -0.008697815666041621 0.004737587369528321 2.178677321709543 0.002121595917680348 -7.584113000234142 -45.00639059635652 45.64092427869202
6068 8 -0.0005811123067493014 -0.009069931944235039 0.07291747491956535 4 0 0 0 0
6069 8 4.358654179381249e-05 -0.008806408642611627 0.02523068899084447 3.999999999999942 3.849767927010026e-14 -1.887847221720526e-12 -4.246872422192708e-12 4.647727893739913e-12
6070 8 -0.0001737758369331466 -0.008821314389880725 0.07391155000911981 4 0 0 0 0
6071 8 0.0001695108219546123 -0.009241523254655049 0.0585598623126901 4 0 0 0 0
6072 8 -0.0007506275720096316 -0.008519804195877318 0.04109657000709807 4 0 0 0 0
6073 8 -0.0007232305353896247 -0.009686101565980728 0.007059845370233036 3.899769322951443 -3.03418836403054 -1.81340158036882 -10.7774344584554 11.34230213961894
6074 8 0.0004284656124626806 -0.009240182912110513 0.08564586340402433 4 0 0 0 0
6075 8 -0.0005409836517987481 -0.009263648248907252 0.09516514635218393 4 0 0 0 0
6076 8 -0.0009018364453539836 -0.009442985173389495 0.04592711792596593 4 0 0 0 0
6077 8 -0.0005110204613248948 -0.009112498670378444 0.0891003348590598 4 0 0 0 0
6078 8 -0.0006913842578691674 -0.008591865126190484 0.0524112607161403 4 0 0 0 0
6079 8 0.0001417313455225352 -0.00861006839764232 0.08367595696063042 4 0 0 0 0
6080 8 0.000154403412519716 -0.009035024749204382 0.05535690422327526 4 0 0 0 0
6081 8 -0.0006978384835457973 -0.009516608883349618 0.04998587982546718 4 0 0 0 0
6082 8 -0.000758934970152347 -0.009598266254171376 0.01265927380774884 3.999999972388065 1.248048492357642e-06 -1.19181160292278e-06 -1.47829741127568e-06 2.272312296389281e-06
6083 8 -0.0007941702790510922 -0.009375607903243606 0.004451778042771604 1.916005097809542 2.17968364544804 -4.531355348842994 -49.75728875002746 50.01071870954596
6084 8 -0.0004540207622296976 -0.009219930108325143 0.07435478419558972 4 0 0 0 0
6085 8 -0.0001749263663555785 -0.009471897403656081 0.0360749086877431 4 0 0 0 0
6086 8 -0.0006714166794473575 -0.009639540481714283 0.0527407625997695 4 0 0 0 0
6087 8 -0.0005569082291870599 -0.009105484320250597 0.08841103730348507 4 0 0 0 0
6088 8 0.0001553891716324111 -0.009245478718676982 0.07659108030300579 4 0 0 0 0
6089 8 -0.0005749837708816861 -0.009174061438261315 0.01885310011798115 3.999999999617947 -2.34600028819539e-08 -2.885023400424341e-09 -4.772316628443071e-08 5.325594516534004e-08
6090 8 -0.0007107558637445132 -0.009634631867457189 0.08944723743311533 4 0 0 0 0
6091 8 9.832039148601743e-05 -0.00922831499174284 0.07033583227471132 4 0 0 0 0
6092 8 -0.000721929140201091 -0.008645520865153689 0.07667873335362463 4 0 0 0 0
6093 8 0.0001545036131213732 -0.009221748664416662 0.04354646044670456 4 0 0 0 0
6094 8 0.0001089062693060431 -0.009213075470871183 0.03262553040471579 4 0 0 0 0
6095 8 -0.0006693384845454006 -0.009697882206737615 0.08294330534343479 4 0 0 0 0
6096 8 5.652638874313285e-05 -0.008901629192945005 0.01276178442904332 3.999999848010113 1.030958676328167e-05 6.408091676491701e-06 -1.730139248094399e-05 2.113502779614022e-05
6097 8 -0.0004700247103713506 -0.00832406414185646 0.08473396463507656 4 0 0 0 0
6098 8 -0.0007644188392008434 -0.009609237514429235 0.07324340565137002 4 0 0 0 0
6099 8 -0.000209477798522281 -0.009516643695215403 0.08880727550922105 4 0 0 0 0
6100 8 5.114153932025989e-05 -0.00883858525554671 0.01933480245889643 3.99999999986874 -5.96698717525811e-09 2.157583274969242e-09 -1.283695312716798e-09 6.473636937148455e-09
6101 8 -1.489600670552131e-05 -0.008651641431637698 0.05451704745919247 4 0 0 0 0
6102 8 -9.356404268504338e-05 -0.008915960488599418 0.07497159391362029 4 0 0 0 0
6103 8 -0.0001414220416303775 -0.009427273081581856 0.06221037796388168 4 0 0 0 0
6104 8 5.221328837990227e-05 -0.008932521836725509 0.03565040902782974 4 0 0 0 0
6105 8 0.0004889046753703101 -0.00866941749465883 0.08043280531060405 4 0 0 0 0
6106 8 0.0005005882297038211 -0.008708207525463946 0.06078946322622382 4 0 0 0 0
6107 8 -0.0002293978794656639 -0.008669871965308721 0.02569339712081455 3.999999999999971 -6.753364921167667e-13 -9.786615108792768e-13 -1.11448836669006e-12 1.629706123799185e-12
6108 8 -8.350583077108714e-05 -0.008688881668774552 0.0503934524463746 4 0 0 0 0
6109 8 -0.0004464268837026938 -0.009110238467500252 0.06273033765189362 4 0 0 0 0
6110 8 -0.0002286965674205618 -0.008923708967769202 0.0569304422470366 4 0 0 0 0
6111 8 -0.0005561331294663054 -0.00882554644952749 0.01640670741515544 3.99999999323362 1.301753956951771e-07 3.472838826781576e-08 -3.587568657578e-07 3.832208023117171e-07
6112 8 -0.0001988321738129221 -0.008780636393580916 0.02226952748750723 3.999999999996419 -6.50089699834126e-11 -2.714441477405396e-11 -3.547881014043277e-10 3.617147803585273e-10
6113 8 -0.0007341427364629127 -0.009594931991716182 0.06380386840082738 4 0 0 0 0
6114 8 -0.0006812444529314712 -0.009564880442977932 0.06497696703392181 4 0 0 0 0
6115 8 0.0003427248460117417 -0.008715404271200954 0.09332334562792818 4 0 0 0 0
6116 8 -0.0008756013125007073 -0.009001625943894516 0.09576044477908816 4 0 0 0 0
6117 8 -0.0007109009165944593 -0.009510078518747132 0.04727788637681857 4 0 0 0 0
6118 8 2.896122300239655e-05 -0.009165358588266543 0.07260031435330846 4 0 0 0 0
6119 8 -0.0001775283745592176 -0.008850057812365107 0.03640376755879061 4 0 0 0 0
6120 8 -0.0001586912485738995 -0.009146024710313129 0.02821183361547238 4 4.672307990204748e-14 -1.476034243356834e-14 2.641192553921174e-16 4.899983329839379e-14
6121 8 -0.0001268503300443148 -0.009380841965565418 0.05804272330968839 4 0 0 0 0
6122 8 -0.0002854806290228135 -0.008989137910215864 0.0684534798137643 4 0 0 0 0
6123 8 -0.0007831644248093934 -0.009366763425030511 0.01642487811154101 3.999999993890993 4.782879764777489e-08 -3.285026380968433e-08 -3.664538838923289e-07 3.710191137078656e-07
6124 8 -0.0001907079476404053 -0.009441156772187424 0.0902622489056356 4 0 0 0 0
6125 8 -0.0002106450818954299 -0.008832300737493743 0.04384347604412053 4 0 0 0 0
6126 8 0.0002022725272928817 -0.00920004179459024 0.05461113998424717 4 0 0 0 0
6127 8 -0.0008969042791129036 -0.009489613488037615 0.07198070097890785 4 0 0 0 0
6128 8 -0.000149515949258863 -0.009471071932222635 0.01762057406860511 3.999999996990095 1.063650200378274e-07 -1.386969523719888e-07 -2.671089768411917e-07 3.192139840202391e-07
6129 8 -0.0007343566178564749 -0.008584624095855269 0.04925121880832529 4 0 0 0 0
6130 8 0.0001709359641162423 -0.009190779761046767 0.09257342094122856 4 0 0 0 0
6131 8 4.539587426446481e-05 -0.008888953029177263 0.08654481689959029 4 0 0 0 0
6132 8 8.64770687150931e-05 -0.009789874197875616 0.05435722187296727 4 0 0 0 0
6133 8 -0.0005357277362258298 -0.008771873688251336 0.09515729034697253 4 0 0 0 0
6134 8 -0.0001323459796060599 -0.009402928313201489 0.04828894081228201 4 0 0 0 0
6135 8 -0.0001210608817791806 -0.00876593680070507 0.07635323738940274 4 0 0 0 0
6136 8 0.0004041466814361001 -0.00930775608917293 0.016628329796899 3.999999992462421 5.607412776757901e-08 -2.178292834553777e-08 -1.395006180436349e-07 1.519184854017368e-07
6137 8 -0.0008283127182477001 -0.009456962915887782 0.09206338462717702 4 0 0 0 0
6138 8 0.0002311637100396459 -0.009243911336138524 0.06171347867743383 4 0 0 0 0
6139 8 -0.0001403011182267296 -0.01002599510053248 0.06706635054118903 4 0 0 0 0
6140 8 -0.0007645301092414242 -0.008567895438765532 0.06458672058474249 4 0 0 0 0
6141 8 -0.0001781500116370335 -0.009456267341880386 0.04425869824669188 4 0 0 0 0
6142 8 9.358587969842786e-05 -0.008862417397263051 0.04854495687518812 4 0 0 0 0
6143 8 -0.0007598335213815509 -0.009690767093335226 0.02610699665721466 3.999999999999974 -7.885122210227355e-13 -9.268658550702358e-13 -2.514938758008941e-12 2.793877018147514e-12
6144 8 -0.0007089239231053828 -0.008493521026752836 0.04648103835485905 4 0 0 0 0
6145 8 -0.0009402732398633654 -0.008745600851311952 0.08992046195484703 4 0 0 0 0
6146 8 0.0001979708822071687 -0.008814546308711143 0.05131356056198606 4 0 0 0 0
6147 8 -1.036789535191437e-05 -0.00889840614144285 0.08816015405133724 4 0 0 0 0
6148 8 -0.001027707952735687 -0.009105229239338293 0.04222801427544803 4 0 0 0 0
6149 8 -0.0003736627980399738 -0.00898920593702167 0.05097806753216994 4 0 0 0 0
6150 8 -0.0001189129439364225 -0.009388805381943482 0.07606031611559258 4 0 0 0 0
6151 8 -0.0005814339088520968 -0.009181867326462173 0.03027163798992426 4 0 0 0 0
6152 8 -0.0006460156900110418 -0.009615965922921075 0.07588574316637273 4 0 0 0 0
6153 8 0.0005819913931100606 -0.009226049546283536 0.0691050155088922 4 0 0 0 0
6154 8 -0.0003448104052976225 -0.0086123580613469 0.02408138185101202 3.999999999999689 -4.790770786222822e-12 1.175303360610106e-11 -4.304858633141072e-11 4.488057562916488e-11
6155 8 0.0002464617858944627 -0.008825200597721308 0.04043512520133909 4 0 0 0 0
6156 8 0.0002208945635052563 -0.009683569387517892 0.07981915285702496 4 0 0 0 0
6157 8 -0.0008551825460969007 -0.008700586181310619 0.01899870533012864 3.999999999578571 -3.799480584883468e-08 7.911767157732846e-09 -3.76505756665739e-08 5.407187049726714e-08
6158 8 -0.0003724434002187958 -0.009036793659563305 0.03867371935841757 4 0 0 0 0
6159 8 5.244374123803189e-05 -0.008423353378421056 0.05570619576720333 4 0 0 0 0
6160 8 0.0001748525376941136 -0.009194030279565045 0.05061206326094021 4 0 0 0 0
6161 8 0.0001913694470655812 -0.009228093103221842 0.05235894900776222 4 0 0 0 0
6162 8 -0.0004730819351364546 -0.00917742903702462 0.02294549246410297 3.999999999998637 -4.902899323595406e-11 -4.350963011517387e-11 -1.615878749038862e-10 1.743776688869434e-10
6163 8 0.0001475299524735226 -0.009229614424954737 0.02263240871547691 3.999999999997939 -1.621740513701882e-11 -5.113963519128106e-11 -2.114872410264834e-10 2.181859748789308e-10
6164 8 -0.0004086560093949683 -0.009105678390514779 0.05266022151557945 4 0 0 0 0
6165 8 -0.0007709923996456221 -0.009690745515318368 0.02470072813315084 3.999999999999884 -3.442395253524122e-13 -3.549826554289207e-12 -5.653787990036246e-12 6.684690572691434e-12
6166 8 0.0001996527070035682 -0.009842671592049681 0.03640038950989334 4 0 0 0 0
6167 8 0.000102680417460523 -0.009183549943610569 0.06455895577207106 4 0 0 0 0
6168 8 0.0002749159984788725 -0.009387383316423758 0.06798828546255739 4 0 0 0 0
6169 8 0.0003370625353128645 -0.009309565516407653 0.08855639225707321 4 0 0 0 0
6170 8 0.000122101589497482 -0.00983676717999534 0.03233230652099953 4 0 0 0 0
6171 8 0.00070691497644436 -0.009007556921587546 0.03894608985159294 4 0 0 0 0
6172 8 -0.0004644041356367156 -0.009002323689099034 0.06483712129298984 4 0 0 0 0
6173 8 8.450981767398221e-05 -0.008886762165643261 0.06246639402678801 4 0 0 0 0
6174 8 2.518894823583516e-05 -0.009226468094999524 0.08982491031719439 4 0 0 0 0
6175 8 -0.0004025348048313498 -0.009062608149342203 0.07572365241401793 4 0 0 0 0
6176 8 0.000491857567284549 -0.009255432762961412 0.0707313666532427 4 0 0 0 0
6177 8 -0.0002476684149414843 -0.008529799890784232 0.06597561567016257 4 0 0 0 0
6178 8 -0.0007238240701351867 -0.009669275319513513 0.03189945234696087 4 0 0 0 0
6179 8 0.0001732631038622028 -0.009223130438632566 0.05733115070310851 4 0 0 0 0
6180 8 -0.0007864105112119666 -0.008679977455975483 0.06309488789507217 4 0 0 0 0
6181 8 -0.0008404139733087197 -0.008618763399389148 0.01492321539948459 3.999999990566983 -9.657650458442513e-08 -3.644244348167574e-09 4.42863947117617e-10 9.664625126247938e-08
6182 8 -2.419851768872964e-05 -0.008976793349196979 0.02451829810238595 3.999999999999886 1.026086563098754e-12 -1.893369681081835e-12 -4.865128853707718e-12 5.320449336981899e-12
6183 8 -0.0007579199118738512 -0.008699762538073428 0.05740128990009373 4 0 0 0 0
6184 8 0.000177707425966123 -0.009881304044533485 0.01570694309876694 3.999999991465753 -1.166755043571422e-07 1.763186282373834e-07 1.182472894501604e-07 2.42247504513083e-07
6185 8 -9.22716661123283e-05 -0.01003049300682592 0.02099987347020172 3.999999999966788 -1.312421105581137e-09 -4.238454869367143e-09 -2.800039824861083e-09 5.246634336300267e-09
6186 8 0.0004309069579563346 -0.009311239770080616 0.05332184483954101 4 0 0 0 0
6187 8 -0.0007569173125704208 -0.009619845991017884 0.04457696256613451 4 0 0 0 0
6188 8 9.551706983445083e-05 -0.008195430541901373 0.06567288436754658 4 0 0 0 0
6189 8 -0.0007777890264328747 -0.00858862316539194 0.0810366682419186 4 0 0 0 0
6190 8 5.29655752710541e-05 -0.008828077627208528 0.09188775185915457 4 0 0 0 0
6191 8 0.0002116844364541601 -0.009851286958526858 0.0224131752116821 3.999999999996274 1.122400619307031e-11 -1.560362685960618e-10 -2.887508785477909e-10 3.284057936372705e-10
6192 8 7.983307759185286e-05 -0.009778025985054051 0.009618121731161382 3.99999964485776 -9.157886258843813e-06 -5.34378447429987e-05 7.773331020236837e-05 9.477308503221988e-05
6193 8 -0.0006960808752855803 -0.009510346201705974 0.05127449517850695 4 0 0 0 0
6194 8 0.0007241903535354094 -0.008993706333748054 0.0370547487210275 4 0 0 0 0
6195 8 9.691993851847193e-05 -0.009805883940192696 0.06429032548396912 4 0 0 0 0
6196 8 -0.0001341055968304227 -0.008332277989682385 0.05370717998276243 4 0 0 0 0
6197 8 -0.0005459311261617045 -0.008315424020697681 0.004232798475267048 1.550158407781872 -0.001791036480667755 0.00213919578991182 -37.20557181059589 37.20557191520348
6198 8 6.728189265581434e-06 -0.00901537567798754 0.01853849069761161 3.999999999006476 1.981367969061147e-08 -1.250869899941779e-08 -1.598772880907248e-07 1.615852613971484e-07
6199 8 0.00019032510747425 -0.009844734145732104 0.06998736541850806 4 0 0 0 0
6200 8 0.0006621897909705137 -0.009000726763986463 0.0769999999999999 4 0 0 0 0
6201 8 0.0008891064301801356 -0.008873088855584721 0.03499703344134335 4 0 0 0 0
6202 8 0.0006500000000007913 -0.008999999999999814 0.033 4 0 0 0 0
6203 8 6.758297181074387e-05 -0.01001968191341308 0.0349664103687416 4 0 0 0 0
6204 8 -0.0002517260173138264 -0.008856653499600563 0.0285004431378744 4 6.227223944134034e-14 1.142903449307285e-14 5.649085418244322e-14 8.485087648778611e-14
6205 8 -0.0007078097563176301 -0.009505578422152144 0.03879542463831011 4 0 0 0 0
6206 8 -0.0005203555209834815 -0.009172603265783735 0.0274266423803287 3.999999999999997 9.9060570710982e-14 -4.245605833051798e-14 -4.055522233178506e-13 4.196285493106988e-13
6207 8 0.000689857653907805 -0.008995832761191135 0.06288504904857398 4 0 0 0 0
6208 8 -0.000911296759102476 -0.008961462169060127 0.09403626268486268 4 0 0 0 0
6209 8 -0.0008407065351902265 -0.008595324228543514 0.04503431023274251 4 0 0 0 0
6210 8 -0.0007034747444536221 -0.009644491240218591 0.07710408062533768 4 0 0 0 0
6211 8 0.0001851321791461369 -0.009846044449757204 0.08219427218080438 4 0 0 0 0
6212 8 -2.698856601430206e-06 -0.008905778701713133 0.07323521377154416 4 0 0 0 0
6213 8 7.174106556160713e-05 -0.008919166638380414 0.09061281144454833 4 0 0 0 0
6214 8 -0.0009234904563743064 -0.009490612032163412 0.0139593226922191 3.999999991548564 -1.717438180852212e-07 4.280881610455718e-08 1.114271995793938e-07 2.091519892156644e-07
6215 8 6.894194412101474e-05 -0.008254670291691872 0.0639750335870355 4 0 0 0 0
6216 8 0.000576878354942204 -0.008451012689171922 0.09576720152473298 4 0 0 0 0
6217 8 0.00014860468420506 -0.009861943606611559 0.05826666739731973 4 0 0 0 0
6218 8 -0.0006723587430070536 -0.009650749383438847 0.06247432158898727 4 0 0 0 0
6219 8 -0.0007025127352445358 -0.009436104192590986 0.008758187315048866 3.996695997561516 -0.1614825681855942 -0.04481534022962862 -0.5173608862474723 0.5438265543042952
6220 8 -0.0005412955427623293 -0.008311798147230343 0.09575700030024983 4 0 0 0 0
6221 8 0.0006690679177257383 -0.009001348441945296 0.06497543429528285 4 0 0 0 0
6222 8 0.0001575371094751692 -0.009868347299915394 0.07629815902919565 4 0 0 0 0
6223 8 0.0005828331872635502 -0.009547566651810708 0.004251805066994186 1.550170942917985 0.001404197726231495 -0.0007087656257011401 -34.39387164080802 34.39387167677547
6224 8 -0.0008584508919896735 -0.008701339295413639 0.08870409665332384 4 0 0 0 0
6225 8 -0.0005453101613810088 -0.009900492982193625 0.07954039668912802 4 0 0 0 0
6226 8 0.0007495951617447078 -0.008987847268603235 0.07904906165965186 4 0 0 0 0
6227 8 0.000636194562782292 -0.008999343191252118 0.04484450221628677 4 0 0 0 0
6228 8 -6.656820258286311e-05 -0.008315268167157509 0.09043859714905918 4 0 0 0 0
6229 8 0.0005869701951918317 -0.008453493327770361 0.004237587369528321 1.547359099007575 0.001400896336416564 0.000996330972624104 -36.08849947069222 36.08849951163582
6230 8 -0.0001481041545766027 -0.01002998968257176 0.07135065506808996 4 0 0 0 0
6231 8 -0.0007543135584321863 -0.009616334671979155 0.08160463958478661 4 0 0 0 0
6232 8 -0.0006928285620369153 -0.009716847029146844 0.05653367815572743 4 0 0 0 0
6233 8 -0.0004647247927614517 -0.008187202915388476 0.05536210324214863 4 0 0 0 0
6234 8 -0.0002519554941217565 -0.008915336204421306 0.02704649984428596 3.999999999999996 -4.973533602836344e-14 -8.321581613514218e-14 -2.372763643155117e-13 2.563172814456323e-13
6235 8 0.0008117642302889988 -0.009020230098118498 0.006976313495040822 3.890839250181906 5.750650674288924 -0.9662961432949853 -9.085893930972555 10.79616505705291
6236 8 -0.0005760104000578474 -0.008206710207613748 0.006777900160246564 3.833501918984079 -8.144503608916848 9.617736243415267 -14.69257350740531 19.3573114288651
6237 8 5.616719859453363e-05 -0.009237851737045839 0.05620751727518563 4 0 0 0 0
6238 8 0.0007570955693440204 -0.009015650320119847 0.06121949474034018 4 0 0 0 0
6239 8 0.0001341245740234466 -0.008283285060531781 0.06220976432821852 4 0 0 0 0
6240 8 8.045513850432468e-05 -0.008913391429450794 0.08163168103104827 4 0 0 0 0
6241 8 -0.0006320211665051745 -0.008484057326231177 0.05075945671760432 4 0 0 0 0
6242 8 -0.0005512080709124418 -0.009680272875800429 0.004275119991315387 1.607599736469586 -0.001424589291780905 -0.00122426986607995 -38.15053249935574 38.15053254559744
6243 8 3.660001796501481e-05 -0.008291147068549493 0.0339344969929946 4 0 0 0 0
6244 8 -0.0008343708581417234 -0.008770071920885471 0.03141938021347196 4 0 0 0 0
6245 8 0.0006706447172211848 -0.00899420078097117 0.08297850302358373 4 0 0 0 0
6246 8 0.0002136169986310872 -0.008106987913048841 0.0779655563615204 4 0 0 0 0
6247 8 -0.0002412156957979571 -0.01005849364625351 0.08070989773989973 4 0 0 0 0
6248 8 0.0001709265782439836 -0.009225666782529202 0.07421116124928111 4 0 0 0 0
6249 8 0.0003490108053786921 -0.008713530983538595 0.09540704679236749 4 0 0 0 0
6250 8 4.427646102632082e-05 -0.008941443258805644 0.02330885549681696 3.999999999999384 -1.37864715707187e-11 -4.813518352544856e-13 -1.65961903650152e-11 2.158082557714975e-11
6251 8 -0.0006957804760368307 -0.009743054329845194 0.01141481128496162 3.999999435075506 -3.545451366120985e-09 -1.696625164674121e-05 -5.872637691590632e-05 6.112807091001537e-05
6252 8 0.0006842178834025916 -0.009003261729644036 0.0589999999999999 4 0 0 0 0
6253 8 -0.0005749923596290174 -0.008464710852551021 0.008120249482460519 3.994434654934913 -0.2497093507058354 -0.1643800295664445 -0.3635946888966958 0.4707192918758271
6254 8 -6.289793453217877e-05 -0.008292575499128747 0.01254817375491868 3.99999976380444 1.046154466108058e-05 3.621385730024939e-06 -1.517828576462829e-05 1.878666308991912e-05
6255 8 -0.0007988037297705816 -0.008801953446512349 0.03674531510812193 4 0 0 0 0
6256 8 -0.0001626669696924977 -0.01001179761105301 0.04653362971554949 4 0 0 0 0
6257 8 -0.0007418198741185167 -0.008745526029833202 0.07541019663413667 4 0 0 0 0
6258 8 0.0006885730972472062 -0.008996048314050856 0.04890834239717314 4 0 0 0 0
6259 8 3.997292382082186e-05 -0.008289749952907878 0.08200285139958986 4 0 0 0 0
6260 8 -0.0001532445574759674 -0.00923215057042126 0.009346041999270908 4 0 0 0 0
6261 8 -0.0003156665301811786 -0.008874005326901951 0.02979418021806577 4 0 0 0 0
6262 8 7.104057160730847e-05 -0.008924011726266367 0.01732285034136553 3.9999999957366 2.268767679289029e-07 -1.253290303576022e-07 -5.532333003849262e-07 6.109398647420547e-07
6263 8 0.000687488559117003 -0.008996619376612639 0.01707909773111876 3.99999999391751 -2.40832308684684e-08 -4.730442743389649e-08 -2.172131531482754e-07 2.236051537074423e-07
6264 8 -0.0005465514583352523 -0.009684079989948375 0.09576485630546122 4 0 0 0 0
6265 8 0.0007421908835514706 -0.009015559494901355 0.09288603332776926 4 0 0 0 0
6266 8 -0.0001597244213329979 -0.01002188428593765 0.04105599505722229 4 0 0 0 0
6267 8 4.961128017626313e-05 -0.008310682245434535 0.03597926789887726 4 0 0 0 0
6268 8 -0.0007096955984705747 -0.008541368535584643 0.0939651423567774 4 0 0 0 0
6269 8 1.607673384113529e-05 -0.008264656071082762 0.08615027799454628 4 0 0 0 0
6270 8 -0.0008194301079433811 -0.008737805566705763 0.03283247928576734 4 0 0 0 0
6271 8 0.0006313403145327427 -0.008999810612577597 0.01893919724674894 3.99999999924822 7.163141160818984e-08 -3.856808061360169e-09 -8.688980147992945e-08 1.126755150803653e-07
6272 8 -0.0006916551304348213 -0.009698437732959003 0.03056076123216491 4 0 0 0 0
6273 8 0.0002431586696698577 -0.008763438877075178 0.06828196212414317 4 0 0 0 0
6274 8 -0.0003300936193911154 -0.008985879577701656 0.008454630680416745 3.996634356486977 -0.3120763220999426 -0.1086339881991643 -0.426702349200646 0.5396923836972626
6275 8 -0.0007201041872097523 -0.008370812418671018 0.06149887527835222 4 0 0 0 0
6276 8 2.25785146408591e-05 -0.008915764632089578 0.04443837730760975 4 0 0 0 0
6277 8 0.0003501404806008687 -0.00932260088229734 0.09540650615500433 4 0 0 0 0
6278 8 0.0006499999999989098 -0.009000000000000043 0.08699999999999994 4 0 0 0 0
6279 8 0.0006570571848101581 -0.009000362473879319 0.01511358067967051 3.999999990579327 2.114891284290946e-07 6.130571031487995e-08 -1.3189918148546e-07 2.566776882345725e-07
6280 8 -0.0007811652361846224 -0.009583971322374535 0.09060524632277586 4 0 0 0 0
6281 8 -0.0008307101775827192 -0.008733212017715493 0.06706542434905272 4 0 0 0 0
6282 8 -6.545340760419474e-07 -0.008273668666338538 0.08787078605647544 4 0 0 0 0
6283 8 5.071392053553437e-05 -0.008275129961272826 0.01597730341879895 3.999999991553735 -2.076276933976438e-08 -1.341641249673543e-07 -8.005944970725864e-08 1.576090749491957e-07
6284 8 -0.0007755576608159478 -0.008622093453969682 0.06874523404040765 4 0 0 0 0
6285 8 0.0001110151667847602 -0.008176307735078709 0.04187281436061097 4 0 0 0 0
6286 8 0.0002249243506554537 -0.008704334897920777 0.08947800774313885 4 0 0 0 0
6287 8 0.0002630489298207518 -0.008109523921516912 0.03789908488664875 4 0 0 0 0
6288 8 -9.035467130627146e-08 -0.00824258593604809 0.06974523659173883 4 0 0 0 0
6289 8 0.0005780080301643792 -0.009548727264473186 0.09576666088736979 4 0 0 0 0
6290 8 0.0006467758965887406 -0.008997077941223262 0.08901702426221142 4 0 0 0 0
6291 8 -0.0008194440614228992 -0.008728451005650799 0.0225826112361333 3.999999999997117 -1.429892355122214e-10 -6.651389237912233e-12 -2.767682435889671e-10 3.115940036497583e-10
6292 8 0.0006804354724262837 -0.008993487648398489 0.0430404443837982 4 0 0 0 0
6293 8 0.00011083617276299 -0.008211151184009577 0.04572645051440058 4 0 0 0 0
6294 8 0.0007464862179412561 -0.009019370651254518 0.05094755629075633 4 0 0 0 0
6295 8 -0.0006633570114482886 -0.009626331936635049 0.04862215595715799 4 0 0 0 0
6296 8 0.0007173013063697221 -0.008999832087202949 0.0528649650706688 4 0 0 0 0
6297 8 0.000599780414561798 -0.009002034679670453 0.02491422031384755 3.999999999999908 8.478942482799217e-13 -1.946328514703254e-12 -5.145105193483769e-12 5.56589856136696e-12
6298 8 0.000295320969794528 -0.00817626798198174 0.05411670535509733 4 0 0 0 0
6299 8 0.0007822324166059478 -0.008943716982630275 0.07107733366958323 4 0 0 0 0
6300 8 -0.0005954542316984549 -0.0084405125427102 0.009780421187624247 3.999999635363706 -4.582117508059937e-05 1.559046551326075e-05 5.699102894589778e-05 7.4770449249682e-05
6301 8 0.0006073746731502679 -0.009001205345744638 0.07291805320528727 4 0 0 0 0
6302 8 0.0006648883486362981 -0.00899362864673576 0.0229957717481909 3.999999999998686 6.840551647157089e-11 -1.199166191467705e-11 -1.121180615239121e-10 1.318847010046958e-10
6303 8 -0.0001847487228312225 -0.008148828355213538 0.004470385844795369 1.914467426837697 1.095272234611258 0.2533025783565067 -47.73275160784749 47.7459878892518
6304 8 9.530695518395351e-06 -0.008282008819686529 0.07358561927731515 4 0 0 0 0
6305 8 -0.0008374258295858056 -0.008632602776311997 0.01344006848760755 3.999999993498638 1.678998885699271e-07 -1.769001386339755e-07 4.669432151545155e-07 5.268016683813271e-07
6306 8 -0.0008756055424390121 -0.008999999999999994 0.004176658051456217 1.491453949330112 -0.002255068180439698 0.0008877556758883566 -39.16357783639408 39.16357791138012
6307 8 0.0001245679412432695 -0.00883544760836461 0.07589822536323777 4 0 0 0 0
6308 8 0.0008253595770097657 -0.008921292196900991 0.06877769913694985 4 0 0 0 0
6309 8 0.0003597164692599878 -0.008141935846359255 0.005913656889658085 3.462019415235861 6.387215473861075 18.66452553820279 -41.73894843939339 46.16601403524128
6310 8 0.0008456389224928932 -0.008949588978817473 0.04084736042372285 4 0 0 0 0
6311 8 0.0006860238077504923 -0.00900030495557369 0.09098995003899366 4 0 0 0 0
6312 8 -0.0008325230935052601 -0.008650073927255544 0.0870235564030214 4 0 0 0 0
6313 8 -0.0006068869850005671 -0.008553666134546681 0.02707878241435745 3.999999999999996 1.904778050310988e-13 -1.617749369466433e-13 -2.352787094504702e-13 3.432331504301916e-13
6314 8 -0.0006745996535338651 -0.009700123058997246 0.01734365576685845 3.999999996759781 2.109358438003878e-07 1.074534238768435e-09 -1.406077645588387e-07 2.535066631823426e-07
6315 8 -1.197960914963913e-05 -0.008232669782566059 0.02180957372323917 3.999999999991346 3.434840805377129e-11 2.861497099952964e-10 -7.318616096073202e-10 7.865639740562991e-10
6316 8 -6.25749405109636e-05 -0.008326470689173559 0.02364575943872236 3.999999999999512 -1.205145640280589e-11 -6.50705412194121e-12 -2.403922776570411e-11 2.766701693977872e-11
6317 8 -0.0008742685139679729 -0.00862024717482731 0.07267084310745925 4 0 0 0 0
6318 8 0.0001697972475907464 -0.009844317932443137 0.01200872344924772 3.999999656095167 1.827924959777433e-05 -8.755395478817107e-06 -3.254579215279962e-05 3.834079423670639e-05
6319 8 0.0001869986833797696 -0.009845715268803307 0.04396168264927591 4 0 0 0 0
6320 8 0.000180699956794344 -0.009845268265320872 0.02408333243484847 3.999999999999737 6.651530404946507e-12 -1.675602097201693e-11 -1.667804175602502e-11 2.4559400895753e-11
6321 8 -2.11544339563414e-05 -0.008239858771730189 0.07184720462132678 4 0 0 0 0
6322 8 0.0001272534034424743 -0.008211200546559921 0.05822583747562385 4 0 0 0 0
6323 8 0.0001826799913885828 -0.00822068278751863 0.09204110917971925 4 0 0 0 0
6324 8 0.000632286666800272 -0.008998981276265052 0.02692044829019426 3.999999999999994 1.500891072356361e-13 -1.284725961850103e-13 -3.675075138202766e-13 4.172453963744451e-13
6325 8 -0.0005592002124001506 -0.008194767671514929 0.0929566547172698 4 0 0 0 0
6326 8 -9.916555617537303e-06 -0.008291798027702933 0.04402315510503841 4 0 0 0 0
6327 8 2.063570781803558e-05 -0.00821435452283102 0.01976148566191438 3.999999999885453 -6.534355863952378e-09 -2.612402256998531e-09 -5.497085762664398e-09 8.929748260238217e-09
6328 8 -0.0007749330152097825 -0.009721395082831387 0.01866653760033956 3.999999999348006 -3.016565113073317e-08 -1.293734723202988e-08 -5.306890146950482e-08 6.239911669826124e-08
6329 8 0.0001669320382535633 -0.009855929482488717 0.01812682145835835 3.999999997536996 1.176480363223903e-07 -1.631995239596198e-07 -2.306888401366611e-07 3.060922835269765e-07
6330 8 0.0002310592758369886 -0.008193139574213243 0.05181356056198606 4 0 0 0 0
6331 8 0.0001815489536901816 -0.009847388441250002 0.06197010837600334 4 0 0 0 0
6332 8 0.0008042024577516948 -0.008930434390840384 0.02083622639448426 3.999999999986484 -1.83655359774963e-09 -8.154410049692265e-10 1.176730789440699e-10 2.012888497532963e-09
6333 8 -0.0008240402433859625 -0.008748726837183403 0.03492977867532013 4 0 0 0 0
6334 8 -0.0008711779471361277 -0.00880494830914046 0.02817130527251572 4 0 0 0 0
6335 8 -0.0008085428599332949 -0.00857876862094452 0.09138053191483973 4 0 0 0 0
6336 8 0.0001634982163803054 -0.009830366566222428 0.08999912461268353 4 0 0 0 0
6337 8 -3.808490294906596e-05 -0.008634665219327917 0.009621885146937098 4 0 0 0 0
6338 8 0.0006615108053786923 -0.008713530983538595 0.09490704679236749 4 0 0 0 0
6339 8 4.174344749116421e-05 -0.008217285359132621 0.06785916945540403 4 0 0 0 0
6340 8 0.0001581268698762178 -0.009849523107829165 0.05585822573125756 4 0 0 0 0
6341 8 -0.0008202627948677584 -0.0085200622700642 0.08522080291475684 4 0 0 0 0
6342 8 0.000158697026124158 -0.009849436664555804 0.07386075574351014 4 0 0 0 0
6343 8 0.0001881278494759978 -0.008201972140544102 0.04997894547619074 4 0 0 0 0
6344 8 0.0001582810534357613 -0.009849499837719742 0.05185894900776223 4 0 0 0 0
6345 8 0.0006626404806008687 -0.00932260088229734 0.09490650615500432 4 0 0 0 0
6346 8 -0.0006905303459690122 -0.009710355927864588 0.02747843151709289 3.999999999999997 4.455673609666338e-14 -9.995884819874493e-14 -3.605771563346525e-13 3.76819532051076e-13
6347 8 -0.000912058315934381 -0.008706400287606835 0.03804473974212649 4 0 0 0 0
6348 8 -0.0006572703269773243 -0.009716818755689768 0.02328305315076055 3.999999999998791 -7.98279652668217e-11 -7.474484584876692e-11 -1.28597830520608e-10 1.688096502993945e-10
6349 8 0.0001806999567747183 -0.009845268265302437 0.03808333243485153 4 0 0 0 0
6350 8 0.0004027655484440859 -0.009867939710630328 0.03997692012180764 4 0 0 0 0
6351 8 -0.000194162675510238 -0.009847928520865641 0.004526925058309574 1.974706865297951 2.458665367580954 -0.5631691403335443 -47.81736114322027 47.88384092333778
6352 8 0.0001224200034005114 -0.008212579027126198 0.07619114663704793 4 0 0 0 0
6353 8 -0.0001902049796814751 -0.008142721843147762 0.09552420182498278 4 0 0 0 0
6354 8 -0.0007780581398194997 -0.009707927100708749 0.05529043238431192 4 0 0 0 0
6355 8 0.0001726356095481952 -0.009848248583747285 0.04799594580970905 4 0 0 0 0
6356 8 -0.0001578204146535269 -0.009566427231214657 0.09517136246046555 4 0 0 0 0
6357 8 -0.0006677150531710456 -0.009712039666540368 0.03734937964409619 4 0 0 0 0
6358 8 0.0004154563117442113 -0.009846680944287116 0.06606069407329335 4 0 0 0 0
6359 8 -8.535856813509965e-06 -0.008184180815205664 0.02551698315295597 3.99999999999997 1.849553367637524e-13 1.61552480840011e-13 -2.506258966046264e-12 2.518261639613772e-12
6360 8 -0.0001084174655521848 -0.01001078899776216 0.08506412124817886 4 0 0 0 0
6361 8 -0.0001943312200322196 -0.009852896247676065 0.09553151719283101 4 0 0 0 0
6362 8 0.0006642872119305835 -0.008996604386543448 0.03105806308002863 4 0 0 0 0
6363 8 3.72992997264445e-05 -0.00924413667657675 0.03011351065759908 4 0 0 0 0
6364 8 0.0007794011101633207 -0.009033825179512255 0.05496079788015203 4 0 0 0 0
6365 8 -0.0001536941743027853 -0.008465582771799996 0.09516404709261732 4 0 0 0 0
6366 8 -0.0009343997387597198 -0.008811735976787374 0.02995230755039095 4 0 0 0 0
6367 8 -0.0007704723622669978 -0.009688766280259902 0.06127898702691437 4 0 0 0 0
6368 8 0.0004590663145379673 -0.009860719597512869 0.01998981659771352 3.999999999950877 -2.557443600303173e-09 -1.270056777429749e-09 -1.094026549425675e-09 3.057851546016442e-09
6369 8 0.0008296645111881707 -0.008928809270791784 0.06690352643441122 4 0 0 0 0
6370 8 -0.0007841726628818332 -0.009592936551990386 0.08801899075044069 4 0 0 0 0
6371 8 0.0002049324033304848 -0.008148828355213539 0.004237587369528321 1.547344794163767 -0.000417766965637234 0.002446641218943193 -36.08930188898966 36.08930197434158
6372 8 0.0003343342129043545 -0.008184440604438585 0.009318328512304977 3.999938358925461 0.005440531658335354 0.00424872710238074 -0.007981142364691012 0.0105522367373614
6373 8 0.0002765296324819361 -0.008689489630203349 0.02737467521633796 3.999999999999997 2.735533338089458e-14 -7.205393363798378e-14 -2.365929426251419e-13 2.48829869824968e-13
6374 8 0.0001948405630808571 -0.008146347716615102 0.09576720152473298 4 0 0 0 0
6375 8 -0.0007176193704495873 -0.009683244111381033 0.0358183548202766 4 0 0 0 0
6376 8 0.0002620447678389633 -0.008413375759838193 0.09434435909252641 4 0 0 0 0
6377 8 -0.0006933530604268711 -0.009758610631409531 0.07457980574059889 4 0 0 0 0
6378 8 0.0001584772061075439 -0.009849470119690012 0.02814017019099063 3.999999999999999 1.135551646348889e-13 -1.730957284651578e-13 -1.647397242647602e-13 2.645677292849027e-13
6379 8 0.0002282361563642209 -0.009634851206463981 0.0939224925974395 4 0 0 0 0
6380 8 -0.00102928564200175 -0.009106569201036103 0.08395060666262691 4 0 0 0 0
6381 8 0.0001580673425627406 -0.009849532070920385 0.02985793996193533 4 0 0 0 0
6382 8 0.0002007953954022006 -0.009852231624367528 0.004251805066994186 1.550170449319833 0.0003412680511868995 -0.001556423001167523 -34.39455959335672 34.39455963026542
6383 8 -0.0008295508499703782 -0.009383586658682334 0.09467357898042812 4 0 0 0 0
6384 8 -0.0008150822299643229 -0.008631811856091 0.09471228963598775 4 0 0 0 0
6385 8 -0.0009134444484544758 -0.008999698477604678 0.09446372196398213 4 0 0 0 0
6386 8 -0.001005362019988179 -0.009276098433966507 0.06525513263182078 4 0 0 0 0
6387 8 0.00045778475288601 -0.009864479870205015 0.08604040230906834 4 0 0 0 0
6388 8 0.0008386858458435436 -0.009559852450408964 0.0451764394241994 4 0 0 0 0
6389 8 -0.0005895524974423568 -0.008330030688496078 0.09438915715705851 4 0 0 0 0
6390 8 0.0002806955604850517 -0.009627287037332496 0.09442955624461445 4 0 0 0 0
6391 8 0.0008272493941408996 -0.009560546934583589 0.01476753322614703 3.999999992527617 -1.267878179371551e-06 1.482635845205536e-06 -1.318991815350251e-07 1.955280420119954e-06
6392 8 -0.0006305934235478873 -0.008175263278430055 0.05723345409833248 4 0 0 0 0
6393 8 -0.0005024875759213432 -0.008206845506748814 0.0751851750891275 4 0 0 0 0
6394 8 0.0001959702383030296 -0.009853392237030006 0.09576666088736979 4 0 0 0 0
6395 8 8.510942322640428e-05 -0.0100756930187728 0.06848285653692754 4 0 0 0 0
6396 8 -0.0002406602118425141 -0.008165427548099595 0.09460135939277624 4 0 0 0 0
6397 8 -0.0005865000000244999 -0.009686646869822971 0.09443618429095009 4 0 0 0 0
6398 8 0.0007432477117977445 -0.009786487652653952 0.06771826435843045 4 0 0 0 0
6399 8 -0.000227265334769344 -0.009871113386249816 0.09469441255007567 4 0 0 0 0
6400 8 -0.0007074580709124376 -0.008995696896498111 0.004684576518038652 2.283128728846914 7.090178392616751 -0.2577220835024924 -53.01274846323283 53.48540501798083
6401 8 -0.001019821618052588 -0.008986463023095101 0.005078131877883847 2.807388624732671 -4.235434498952046 1.512366920653586 -46.44286191886656 46.66010696850689
6402 8 -3.971830678717889e-05 -0.008756737641309806 0.004722190911789556 2.281584522766754 1.619525616150119 -1.166009372484443 -56.594056437413 56.62922977684913
6403 8 -0.000319465446729741 -0.00929894121003756 0.004759723533576622 2.341826652190359 3.039238705784312 -0.5073054343657649 -57.80907381750043 57.89113357286838
6404 8 -0.0003520818539273296 -0.008747503767906796 0.005115746271634749 2.805844418652511 1.460386717328571 -0.8679217662154418 -45.73504921272976 45.76658982322402
6405 8 -0.0006318289938698916 -0.009289707336634551 0.005153278893421816 2.866086548076116 7.215835694514925 2.244266792981065 -37.93470374197348 38.68005643997446
6406 8 -0.0004052771424322363 -0.008927519412746894 0.06071074213808931 4 0 0 0 0
6407 8 -0.0002006469345926517 -0.009464917913806537 0.0605419404883548 4 0 0 0 0
6408 8 -0.0002606995951366371 -0.008404307559390938 0.02023618313599426 3.999999999922235 -3.440640965605867e-09 4.330252575826378e-09 -1.19690333056338e-08 1.318509976814842e-08
6409 8 -0.0008848428739011551 -0.009185530478118202 0.02021709039518044 3.999999999892303 3.091333533068787e-09 2.446425332317342e-09 -1.175907140131641e-08 1.240230221130484e-08
6410 8 -0.0003058357383530963 -0.009022342866143614 0.02013977333922352 3.999999999908282 -4.891669245025e-09 -1.506581806454659e-09 -1.291889755388764e-08 1.389590338013718e-08
6411 8 -0.0004303776285443175 -0.008954883929667888 0.0414583044061344 4 0 0 0 0
6412 8 0.0001531851481007302 -0.008799380807135004 0.0415787286473723 4 0 0 0 0
6413 8 -5.683454189689538e-05 -0.00888351113691432 0.08584535011760694 4 0 0 0 0
6414 8 0.0002042074693270332 -0.008807948140058088 0.02050012111531307 3.999999999977462 -7.328147228223803e-10 -4.297515090122285e-10 1.50130434830339e-09 1.724998122815847e-09
6415 8 0.0001590713261105738 -0.009425983446810764 0.02040371131854233 3.99999999996351 -2.052826630190481e-09 -2.140762038039818e-09 -2.052350469792616e-09 3.606813237192851e-09
6416 8 -5.840749925702874e-06 -0.009457079016845719 0.01972587861839471 3.999999999895649 -5.771209026398621e-09 2.463001589740016e-09 -1.900096444259292e-09 6.556187684541495e-09
6417 8 -0.0005875527100729704 -0.009615764777119496 0.01954048803876425 3.999999999824646 -1.219435220234965e-08 -9.051983445000758e-10 -3.307996055946754e-09 1.266745623967159e-08
6418 8 -0.0003909103028457193 -0.008967859388066671 0.07140078413210196 4 0 0 0 0
6419 8 0.000189076209390005 -0.008806282113142355 0.07158070185747711 4 0 0 0 0
6420 8 9.666858875567337e-05 -0.008879836135592633 0.05350815227668935 4 0 0 0 0
6421 8 -0.0006845963721998556 -0.008966309254635353 0.05895150648723497 4 0 0 0 0
6422 8 -0.0003960003825353685 -0.00942493966723181 0.0589023716116783 4 0 0 0 0
6423 8 0.0001019833646284997 -0.008820122187433763 0.06525359981620162 4 0 0 0 0
6424 8 -0.0001148569526662559 -0.00938267894131266 0.0653934455571336 4 0 0 0 0
6425 8 0.0001040310170045095 -0.009166145145662266 0.02904621621173072 4 1.517249492258327e-14 1.116712006650551e-14 -4.240471313310894e-14 4.640117313879927e-14
6426 8 0.0004229976450510348 -0.009539505240275491 0.02900159062642082 4 9.130346059410456e-15 2.51787893847143e-14 -4.240471313310894e-14 5.01547041656678e-14
6427 8 -0.0004219008422993113 -0.009394406161681459 0.02954020014882284 4 0 0 0 0
6428 8 -0.000102934214252786 -0.009767766256294684 0.02949557456351294 4 0 0 0 0
6429 8 -0.000746104277135325 -0.009028992083792192 0.03324768723841141 4 0 0 0 0
6430 8 -0.0004327042950995479 -0.00942559511532259 0.03306319024541682 4 0 0 0 0
6431 8 -0.0003018275313286294 -0.009574961752743721 0.06749416133815531 4 0 0 0 0
6432 8 0.0002660978770699361 -0.009394922560498183 0.0676304501255397 4 0 0 0 0
6433 8 -0.0003204618045503029 -0.008950995143211508 0.06727150063422016 4 0 0 0 0
6434 8 0.0002474636038482626 -0.00877095595096597 0.06740778942160455 4 0 0 0 0
6435 8 0.0003133274558242415 -0.008771660443166424 0.04605838772231321 4 0 0 0 0
6436 8 -0.0004421586278067778 -0.009533722711750823 0.04576845128842588 4 0 0 0 0
6437 8 -2.45992039875419e-05 -0.0092394120468629 0.04577237234933215 4 0 0 0 0
6438 8 0.0001473431866869642 -0.009072970831391938 0.08003342865545443 4 0 0 0 0
6439 8 0.0001048062285435164 -0.008806295731685607 0.04973815771040732 4 0 0 0 0
6440 8 -0.0004262048032987123 -0.009029699355119169 0.0495713728552833 4 0 0 0 0
6441 8 0.0002391918663487429 -0.009731781929678709 0.07233381158945879 4 0 0 0 0
6442 8 -0.0001561562431646225 -0.01003309976975802 0.07230880095782682 4 0 0 0 0
6443 8 -5.396434086992857e-05 -0.00928209716027098 0.07208717977735268 4 0 0 0 0
6444 8 -0.0004493124503832939 -0.009583415000350291 0.07206216914572072 4 0 0 0 0
6445 8 -0.0005743025863481732 -0.009221026944575141 0.01169188811816974 3.999999659295261 2.016478972591557e-05 1.880225420257064e-06 -3.493533858342446e-05 4.038108312390688e-05
6446 8 5.037292431543487e-05 -0.009235264238626879 0.01179511277512307 3.999999571889495 1.352487669427549e-05 2.136090112612139e-06 -4.612705510236194e-05 4.811642529304199e-05
6447 8 -0.000444322573330472 -0.008807651439338343 0.05410752208685757 4 0 0 0 0
6448 8 -0.000213548387744376 -0.009355209585248591 0.05390849438078449 4 0 0 0 0
6449 8 0.0003427922122217392 -0.009311290194831533 0.09146302880600343 4 0 0 0 0
6450 8 -0.0002476650763224778 -0.009454104745018644 0.09130602622314368 4 0 0 0 0
6451 8 -0.0003955132086319282 -0.009380693756668166 0.08419745695141331 4 0 0 0 0
6452 8 -0.0006656505189015442 -0.00886529102825258 0.08424426293251337 4 0 0 0 0
6453 8 -0.000422725170350723 -0.009201241364282367 0.0550072463273704 4 0 0 0 0
6454 8 -0.000639893704349126 -0.008652841001329825 0.0549131538023157 4 0 0 0 0
6455 8 -0.0001535067322962077 -0.009531471107820608 0.03130953313421676 4 0 0 0 0
6456 8 0.0003774825321200812 -0.009308046195747604 0.03151483919631237 4 0 0 0 0
6457 8 -0.0001818778969931918 -0.00927731740615223 0.03928940857540085 4 0 0 0 0
6458 8 0.0001534884591056424 -0.008808532643563389 0.0391677032955083 4 0 0 0 0
6459 8 -0.0004810550335905418 -0.008840679125136103 0.03962717335301708 4 0 0 0 0
6460 8 0.0004356468800805075 -0.009311665375033565 0.07550284008325901 4 0 0 0 0
6461 8 -9.145586599411179e-05 -0.009538825916011158 0.07532826713403917 4 0 0 0 0
6462 8 -0.0002123013060735944 -0.009235148438826656 0.01687208240714577 3.999999994281511 1.944794339540901e-07 -1.649811884858662e-08 -1.475814782916502e-07 2.446931361754845e-07
6463 8 -0.0004393326014166824 -0.009776365414329677 0.01689025310353135 3.999999994938885 2.164951344805416e-07 3.33365864553697e-09 -1.49004302167045e-07 2.628374756346606e-07
6464 8 -0.0001472415516967681 -0.009469350568015077 0.01556652277024737 3.999999991114141 -4.967839859632901e-08 -1.310721910688105e-09 2.597097497497681e-07 2.644216621120706e-07
6465 8 4.876632946636417e-05 -0.0088995457099212 0.01552239241693118 3.999999991514722 -5.326447765514121e-08 -9.642713358953242e-09 2.744196986191107e-07 2.797074498310718e-07
6466 8 -0.0001822358847236837 -0.009536205406064893 0.02663529886493217 3.999999999999991 3.23941862258235e-13 -3.496099354715821e-13 -8.04217278276153e-13 9.348426968114371e-13
6467 8 0.0003462492418800089 -0.009310358831846936 0.02646347423698417 3.999999999999989 -1.288968739855403e-13 -3.974743821594165e-13 -7.767357730017184e-13 8.819970236099616e-13
6468 8 -0.00053212311796601 -0.009031830063267229 0.01476440366222393 3.999999991446983 -2.075904860297419e-07 2.719356407436714e-08 8.158946906788518e-08 2.247001141074712e-07
6469 8 0.0005470108469626775 -0.008626532647168355 0.08525876990087375 4 0 0 0 0
6470 8 0.0008763299873870937 -0.008938579705342894 0.08490330880591773 4 0 0 0 0
6471 8 0.0005077903257773907 -0.008520611872208867 0.01068437918835333 3.999999499759483 -4.814850635878856e-05 -3.276576384540781e-05 1.726457202008117e-05 6.07448713225397e-05
6472 8 0.0004312870913547843 -0.009114131722407154 0.01100279572297411 3.999999317174804 -3.331458686976998e-05 9.819129503973983e-06 1.726457141208458e-05 3.878585345924762e-05
6473 8 9.946761069316498e-05 -0.008223165646356383 0.01112968804061421 3.999999401297534 -4.705393674115598e-05 -7.400870552999601e-05 -7.972371852876378e-06 8.806202456238958e-05
6474 8 2.296437627055872e-05 -0.00881668549655467 0.01144810457523499 3.999999218712855 2.209600454012145e-05 8.823603434761086e-06 -7.374780944466269e-05 7.749083037429186e-05
6475 8 0.0007382285921720033 -0.00901642900694747 0.008771473941661431 3.999938358925461 -0.007911292753881272 0.007600924217346395 0 0.01097098910743499
6476 8 0.0002191745583774531 -0.008781925955531927 0.009042485364638787 3.999938358925461 0.005019270880776775 0.002355471913676633 -0.008965108534173469 0.01054108624100207
6477 8 -0.0005834707933862651 -0.009154942591631269 0.02597146619137817 3.999999999999974 -3.171036296011182e-13 -4.399739743404219e-13 -2.851923379916599e-12 2.903032685816339e-12
6478 8 4.07585683820586e-05 -0.009176875557949431 0.02591995439060754 3.999999999999976 -3.767437188752841e-13 -4.454468648982476e-13 -2.771602454643761e-12 2.832338063463996e-12
6479 8 -0.0008874347675823624 -0.009516665245406942 0.0862273582780477 4 0 0 0 0
6480 8 -0.0005979273604114241 -0.009684266791130141 0.08650512961921542 4 0 0 0 0
6481 8 0.0007025492634709313 -0.008998052649852555 0.0570640233574192 4 0 0 0 0
6482 8 0.0003005895921881667 -0.008698631178989192 0.05666331490134727 4 0 0 0 0
6483 8 -0.0003097197982468448 -0.008630518127721459 0.01803224330785838 3.999999998459574 3.497524305317543e-08 -5.113299867437585e-08 -7.055713163211687e-08 9.389440880166552e-08
6484 8 1.683991808840227e-05 -0.008302787213583103 0.01763786085886347 3.999999997131156 1.043332093741492e-07 9.548608866926277e-08 -1.958653791079563e-07 2.415910976024733e-07
6485 8 0.0001023895995615033 -0.009212100511637594 0.03202641357618495 4 0 0 0 0
6486 8 -0.0005125467956521439 -0.009133433639002573 0.0320488654642419 4 0 0 0 0
6487 8 8.919427937006442e-05 -0.00858840880251344 0.03231963745990121 4 0 0 0 0
6488 8 -0.0005257421158435828 -0.008509741929878419 0.03234208934795817 4 0 0 0 0
6489 8 -0.000141429428205064 -0.009367658229334417 0.05774998834268752 4 0 0 0 0
6490 8 -0.0001362506395683662 -0.008745266505615797 0.05774296482131318 4 0 0 0 0
6491 8 5.509408222310015e-05 -0.008515490379915332 0.00741340623874603 3.961500552045258 0.9397587661031213 0.7039061731008223 -4.811471109530689 4.952664401798853
6492 8 0.0005999928224611239 -0.008724409205146041 0.007497787436702254 3.963700253597322 0.5261176766461158 0.7413599684350257 -4.84292774469347 4.927510888146191
6493 8 -0.0003071529006699019 -0.009005645538531922 0.007665047580779357 3.986007575389398 0.3294793551733119 -0.1548494885229719 -2.192036990824237 2.222062370574468
6494 8 0.00078293666097344 -0.008981371309260024 0.08089424770884765 4 0 0 0 0
6495 8 0.0004944612113721247 -0.009292946454254198 0.08127529628863367 4 0 0 0 0
6496 8 -0.0007704700657252373 -0.008646580954170991 0.08348687626779468 4 0 0 0 0
6497 8 -0.0004068349426250316 -0.008405302781387467 0.08378053253768111 4 0 0 0 0
6498 8 0.0005964416805181066 -0.009255783964583228 0.04696553149960252 4 0 0 0 0
6499 8 0.0008864473089126299 -0.008944094610825236 0.04662191202416051 4 0 0 0 0
6500 8 0.0002435191690970192 -0.008703458892119622 0.03056363377569237 4 0 0 0 0
6501 8 -0.0003752140394815221 -0.008641189542005046 0.03072176110801756 4 0 0 0 0
6502 8 -0.0001696657317669239 -0.008367408355130564 0.04000418166984405 4 0 0 0 0
6503 8 0.000186426381276947 -0.008187103757894311 0.03961250674382078 4 0 0 0 0
6504 8 -0.0009271151184323711 -0.009563234466305618 0.09355185583128232 4 0 0 0 0
6505 8 -0.0006203398572980458 -0.009755265151863946 0.09330302044323296 4 0 0 0 0
6506 8 -0.0007013871854797999 -0.009406210156255619 0.09400431348545757 4 0 0 0 0
6507 8 -0.0003946119243454746 -0.009598240841813949 0.09375547809740822 4 0 0 0 0
6508 8 0.0002752763376378706 -0.008629398159244883 0.02874885251145359 4 7.543190990871917e-15 -6.610778557933505e-14 -4.240471313310894e-14 7.890056235813134e-14
6509 8 -0.0001454917051956937 -0.008336252664821056 0.02925442320711733 4 0 0 0 0
6510 8 -0.0005178022536836554 -0.009175017707584929 0.02776083381528858 3.999999999999999 9.545259157509477e-14 -5.718855583740464e-14 -2.801682164057935e-13 3.014563942615471e-13
6511 8 0.0001027201717864763 -0.0092277285737085 0.02784439711713432 3.999999999999999 5.9391088377813e-14 -5.343553613453439e-14 -3.596938450720091e-13 3.68459387291697e-13
6512 8 0.0007213091512670215 -0.00900031992972862 0.07504576135706917 4 0 0 0 0
6513 8 0.0004335387033895759 -0.008688799947621825 0.07464616686284015 4 0 0 0 0
6514 8 -0.0006446077824582259 -0.00903143305223069 0.08556129946076679 4 0 0 0 0
6515 8 -0.0009047960492058345 -0.009488128464601992 0.08567806702464309 4 0 0 0 0
6516 8 -0.0001691184985042149 -0.009188825057373553 0.05312311734735824 4 0 0 0 0
6517 8 -0.0004318791685566041 -0.009722687148573057 0.05320365843154828 4 0 0 0 0
6518 8 -0.0002402928471367275 -0.008570732529438206 0.01455883912648998 3.999999991787109 -1.051122885140748e-07 4.428125801563653e-08 -1.86764847356091e-08 1.155778269833489e-07
6519 8 0.0003617342318999838 -0.008688334912511298 0.01454427304515229 3.999999990838508 3.262101988888482e-07 3.983608361394226e-08 -2.104945211111341e-08 3.293069796572447e-07
6520 8 -7.010063780598611e-05 -0.009130916990142478 0.01421279167296649 3.9999999937354 -1.265639150151132e-07 2.595278509171209e-07 4.0183731378429e-07 4.948195193552758e-07
6521 8 0.0005319264412307252 -0.00924851937321557 0.01419822559162881 3.999999992786798 6.676799956546952e-07 6.130742462244903e-07 1.104688539457462e-06 1.428983336918189e-06
6522 8 -0.000350924168906043 -0.008978850524626374 0.01378542917657855 3.999999993448571 -1.955296745149502e-07 1.65377607249931e-07 -6.859922894101763e-08 2.651178243855681e-07
6523 8 -0.0004590878384928655 -0.009589839094366037 0.01384059901715041 3.999999993968012 -3.697639708943279e-07 -6.035144059852058e-08 2.38858594862762e-07 4.443209638242058e-07
6524 8 -3.779548167824579e-05 -0.009408060375663239 0.01342978262162639 3.999999981668264 1.046890452650504e-06 9.018821414036128e-08 -3.02271347221037e-06 3.200142226355366e-06
6525 8 -0.0002690624116887308 -0.008929190470189308 0.04623468669159014 4 0 0 0 0
6526 8 -0.0004457811943863627 -0.009527674089636206 0.04612648593826018 4 0 0 0 0
6527 8 -0.0004216699204274115 -0.008894484765049131 0.08008975238308991 4 0 0 0 0
6528 8 -0.000388882375922026 -0.008965672478601265 0.08037514806621561 4 0 0 0 0
6529 8 -7.640019790390487e-05 -0.008675015594125741 0.01000940976464689 3.999999635363706 -2.25218517402662e-05 -2.326814262972124e-05 9.572952708949907e-05 0.0001010583129882283
6530 8 -0.0001499675271809086 -0.009690357244551695 0.01003635375021414 3.999999322176056 5.684865446481084e-06 -7.169822607319553e-05 4.429018667457555e-05 8.446640724487102e-05
6531 8 -0.0004213604572035677 -0.009184832204716727 0.01015179863603345 3.999999312682001 -2.103639081776748e-05 6.486948224082587e-06 6.45121357743818e-05 6.81646968604134e-05
6532 8 -0.0001782643073928086 -0.009741905559882141 0.01426796151353835 3.99999999425484 -3.604959304370414e-07 -4.902474556024885e-08 1.385862280184673e-07 3.893159181632597e-07
6533 8 -0.0006426669252742494 -0.009642678497679517 0.01438668518860704 3.999999991835392 -2.0773211543751e-07 2.764317152045922e-08 8.259204635451629e-08 2.252514657818658e-07
6534 8 -6.225416043199991e-05 -0.009526814263682555 0.007999428778735581 3.988207276941463 0.5335735648019531 -0.5143166081775407 -1.179644328259026 1.393119902842682
6535 8 0.0004870140173365686 -0.009322860641512828 0.008087283462957624 3.991511279379947 -0.6936237362555329 -0.3877313639853344 -1.316624801907922 1.537839512795171
6536 8 0.0008319264412318095 -0.008936269473295606 0.01344822559162881 3.999999858791751 2.55339442441335e-06 -1.585504128056749e-06 -1.682857109089218e-05 1.709486622901513e-05
6537 8 0.0005430280494228954 -0.009247876941259382 0.01310714511801433 3.999999847960045 1.673832958382557e-05 3.697520313988175e-06 -1.092949340529801e-05 2.032971125780144e-05
6538 8 -0.0007053444422484204 -0.009371731526928455 0.08028090684435438 4 0 0 0 0
6539 8 -0.0005632342981261662 -0.00984102373498533 0.08027316554000888 4 0 0 0 0
6540 9 -0.0004575250442297251 0.008693462676706426 0.03772336651879354 4 0 0 0 0
6541 9 -0.0005177475392772688 0.008211181233282844 0.03754573623012104 4 0 0 0 0
6542 9 -0.0004282301874373651 0.008449835406385104 0.0952098292807822 4 0 0 0 0
6543 9 3.910505226797619e-05 0.007947666040112995 0.03694725659179621 4 0 0 0 0
6544 9 -0.0002878071468208511 0.008508170694569703 0.0382404404735896 4 0 0 0 0
6545 9 -0.0007787954734623106 0.00880046315944282 0.03802163908966724 4 0 0 0 0
6546 9 -4.582499389708237e-05 0.008325072074510616 0.02567804479061431 3.999999999999984 7.642547600990523e-13 -5.153580293801188e-13 -1.84199140618645e-12 2.059760077592863e-12
6547 9 -0.0004446272090937723 0.009541288716583914 0.09519644891737197 4 0 0 0 0
6548 9 -0.0002922125959757062 0.009388833791938863 0.00605398894726513 3.613321779092914 1.139720342641147 -3.48163348560746 -32.74804238571608 32.95231424777614
6549 9 -0.0001690217119549242 0.009684517364513076 0.006580316459402135 3.822632031309403 2.661703817418686 -0.2004303783505339 -14.23686961933357 14.48493341738684
6550 9 0.0004116542837271754 0.009210717452976717 0.02530642606983502 3.999999999999965 1.742976101526753e-12 -2.098159395756663e-13 -3.841682150596409e-12 4.223802808513256e-12
6551 9 -0.0001652098314246217 0.008999899538209843 0.09521410665700725 4 0 0 0 0
6552 9 -0.0006889779233892591 0.009490695402867181 0.03860819761573712 4 0 0 0 0
6553 9 -0.0005192256336987565 0.008885701199887255 0.03163792992178285 4 0 0 0 0
6554 9 -0.0007212907386123711 0.00841678281987578 0.03150560865431405 4 0 0 0 0
6555 9 -7.906614221190404e-05 0.008876880166366631 0.02540858706269083 3.999999999999979 8.856237199709636e-13 -3.365505491635187e-13 -2.350379311034443e-12 2.534142567271268e-12
6556 9 -0.0003510929802987285 0.008359205114156741 0.01497797979769625 3.999999992089619 -3.547875684050527e-08 -4.12372215077006e-08 -1.757445921772946e-07 1.839712268377489e-07
6557 9 -0.0003843272579779026 0.008219542576470926 0.06452298027221695 4 0 0 0 0
6558 9 -0.0007014948638421168 0.008842765881128013 0.09420105267202605 4 0 0 0 0
6559 9 -0.0006643536220739484 0.008860257602242128 0.01468453364558085 3.999999991431443 -3.532933207979065e-08 -4.130434979020674e-08 -1.752491000741497e-07 1.834842175599723e-07
6560 9 0.0007880564579459664 0.008716085032942866 0.02527065273103719 3.999999999999955 5.214497599747142e-13 2.487902132070697e-13 -2.898092599257632e-12 2.955122186346474e-12
6561 9 -0.000473912944268395 0.008140692501358453 0.09471515606273403 4 0 0 0 0
6562 9 -0.0004513719906874475 0.008452511110959373 0.01450399350600249 3.999999990829651 -2.430917157337866e-08 -2.90592249142009e-08 -1.532527520888291e-07 1.578663371273248e-07
6563 9 -0.0008254396361321638 0.008292701749303273 0.09444100774305184 4 0 0 0 0
6564 9 -0.0007819154883920416 0.008286933987856749 0.0538094411032785 4 0 0 0 0
6565 9 -0.000774605539081257 0.008748587724243091 0.02344569301875762 3.999999999999434 -6.051279377364219e-12 -1.730578848967871e-12 -5.91338654791765e-11 5.946786469821117e-11
6566 9 -0.0003888229617786628 0.009279865839827742 0.0247031688935076 3.999999999999934 1.374911417143319e-12 1.182591187102666e-13 -8.607708939287152e-12 8.717626959650954e-12
6567 9 -0.0001487839133948645 0.008827546028878515 0.01511187207104281 3.999999992360716 3.704546436596374e-08 2.58775886493768e-08 -1.453705119033269e-07 1.522320654639867e-07
6568 9 -0.0005647388886229639 0.008835601078091768 0.06496643237710983 4 0 0 0 0
6569 9 -0.0008791421983979638 0.009284143544970194 0.03183116934301697 4 0 0 0 0
6570 9 -0.0006102334504152427 0.008337234174737085 0.06235311652954578 4 0 0 0 0
6571 9 -0.0004870452241032559 0.0091063958523871 0.02395115505566132 3.999999999999775 -3.055097043588217e-12 3.073389866629346e-12 -2.44308017395127e-11 2.481216267989186e-11
6572 9 4.069145635049901e-05 0.008485628305717282 0.06127360702399297 4 0 0 0 0
6573 9 -0.0008390179685098544 0.008318181716019238 0.03784400880099474 4 0 0 0 0
6574 9 -0.0002152494168682368 0.009127095208817175 0.03845607310651546 4 0 0 0 0
6575 9 0.0003026168063783322 0.009415572794047904 0.00651980111518736 3.804802630320089 0.1264989208298549 2.211183216639588 -14.52910492476264 14.69694604702901
6576 9 -0.0002875491991739158 0.008541061717248936 0.05395726448175084 4 0 0 0 0
6577 9 -0.0005332466415844418 0.008329294131055928 0.01539819570321572 3.999999993163109 -3.249723900036042e-08 -3.941563200193839e-08 -1.849071930508169e-07 1.918341279092196e-07
6578 9 0.0006072585007916726 0.008727812737040734 0.02456185202439856 3.999999999999916 -2.704714693889937e-13 2.257844648458844e-13 -4.011422042765786e-12 4.026864815896657e-12
6579 9 8.583146863903437e-05 0.00901272881376076 0.02445334651654434 3.99999999999991 2.491134987042807e-13 -1.957530700356002e-13 -3.252172881245166e-12 3.26756870611339e-12
6580 9 -0.0003875237946108851 0.0087796870222724 0.05912826750081367 4 0 0 0 0
6581 9 0.0001794259223575503 0.009119889221473691 0.005993473603050354 3.5954923781036 -4.970782133913799 1.914594230727846 -35.2806634893909 35.68052076894076
6582 9 -0.0006827246347999856 0.009271433693062221 0.02851514476894008 4 0 0 0 0
6583 9 -9.384359377978695e-05 0.00855026461567319 0.0652366053962489 4 0 0 0 0
6584 9 -0.0003695182924018336 0.008599334867914778 0.02418280172822867 3.999999999999859 -2.186369961793308e-12 -2.356061803740528e-12 -1.63763525544262e-11 1.668880354668179e-11
6585 9 -0.0008795433877177422 0.008946028553217657 0.02480532988636341 3.999999999999948 -2.441137842855526e-13 -6.320347785411438e-13 -5.889723583356822e-12 5.928566723021112e-12
6586 9 -0.0003309375746805779 0.008797635045777701 0.01553208797656228 3.999999993434207 3.673370009466229e-08 2.570724841255621e-08 -1.441888178858942e-07 1.509988163758942e-07
6587 9 0.000175791364015412 0.008212106492950271 0.06403814446581335 4 0 0 0 0
6588 9 -0.0006254118800188898 0.008250830575440496 0.05307777443059875 4 0 0 0 0
6589 9 -0.0004703713457317383 0.008852213642762972 0.05879676939233891 4 0 0 0 0
6590 9 -0.0001475269401870508 0.008748960391531901 0.06470390125823275 4 0 0 0 0
6591 9 -0.0005141650009551191 0.009845953689140735 0.09471941799485412 4 0 0 0 0
6592 9 -0.0004720428612711228 0.008317735946822004 0.06576113048940513 4 0 0 0 0
6593 9 -0.0005301304766094727 0.008275201587389208 0.05650764362160159 4 0 0 0 0
6594 9 -0.0001818600865361112 0.00856575347343343 0.06975278032248435 4 0 0 0 0
6595 9 -0.0005541507352434763 0.008780235705762428 0.07040925636576706 4 0 0 0 0
6596 9 -0.0004951000480837071 0.008885977626358607 0.04873759671222179 4 0 0 0 0
6597 9 -0.0005231256238653252 0.008293411170206846 0.06313093759620955 4 0 0 0 0
6598 9 -0.0003212907590809423 0.008169322313232133 0.02282943411315418 3.999999999998717 3.947647988302012e-11 3.4498188262747e-11 -8.122738937315401e-11 9.66768133615522e-11
6599 9 -0.0005266051558257995 0.008934780101944109 0.06922329293451304 4 0 0 0 0
6600 9 -6.218249143725638e-05 0.008531893706576735 0.06431306500795805 4 0 0 0 0
6601 9 -0.0001436342407103516 0.007948526363009644 0.03087658726566044 4 0 0 0 0
6602 9 -0.0009209765323077915 0.009182646668754417 0.07013574816020128 4 0 0 0 0
6603 9 -0.0002847448132262048 0.008572029958439347 0.06377168576523218 4 0 0 0 0
6604 9 -0.0006101284155662637 0.009111048730084823 0.02608301611767959 3.999999999999996 -8.617160018084063e-14 8.063566323322417e-14 -4.922831101657424e-13 5.062314840241025e-13
6605 9 -0.0005105820253746154 0.008899871988133249 0.05675746472649365 4 0 0 0 0
6606 9 -0.0008063485040547857 0.009294976976162404 0.04838580250547768 4 0 0 0 0
6607 9 0.0003233683546561262 0.008463623929113324 0.06497407427737181 4 0 0 0 0
6608 9 -0.0001381113489122277 0.007951458622873985 0.0147974396581179 3.999999991487827 -2.5898724148037e-08 -1.504323492290306e-08 -1.697761487873871e-07 1.7239774803204e-07
6609 9 -0.000296036960917828 0.009176501408006819 0.06998238610736554 4 0 0 0 0
6610 9 -0.0001774957681947668 0.007933805751740812 0.0654830417040384 4 0 0 0 0
6611 9 0.0004597417514786066 0.008175248415297156 0.02591921990566505 3.999999999999985 4.817648331433551e-13 -1.01119138021889e-13 -2.193285092817694e-12 2.247848289565881e-12
6612 9 -0.0006437928383935986 0.008272236252184484 0.05894603898094199 4 0 0 0 0
6613 9 -0.0005174010614828959 0.008890841856886073 0.04139948734657638 4 0 0 0 0
6614 9 -0.0007605265182842072 0.008402010746540033 0.06946822906751128 4 0 0 0 0
6615 9 -0.0004899279103829324 0.008881561345046573 0.01944683762887613 3.999999999788721 -5.24449327646615e-10 -2.349039703514889e-09 -1.69436188008074e-08 1.71137153386701e-08
6616 9 -0.000700370006414962 0.009192627721309483 0.01578560294908354 3.999999993967027 2.461503639458821e-08 3.029284486287724e-08 -1.233227041101575e-07 1.293524093924606e-07
6617 9 -0.0005519532780990732 0.008968995531634317 0.04904079586331321 4 0 0 0 0
6618 9 -0.0001227902377567515 0.00847930564406061 0.01911774620623598 3.999999999647333 5.870539243174247e-09 -5.029518733982618e-09 -2.515188007135665e-08 2.631304544945413e-08
6619 9 -0.0004886809310273324 0.008886473525774732 0.03527374806421248 4 0 0 0 0
6620 9 5.085140388622928e-05 0.008353931683928522 0.06764237451451297 4 0 0 0 0
6621 9 -4.86221675664162e-05 0.008582315869842408 0.06889976765999266 4 0 0 0 0
6622 9 -5.5222036369809e-05 0.008534324164482085 0.06215027617626194 4 0 0 0 0
6623 9 -3.22605333570932e-05 0.008230865096430021 0.02396631517147348 3.999999999999779 -5.417678450715746e-13 -6.7232640108783e-12 -2.098707411900634e-11 2.204434329787555e-11
6624 9 0.0003427990540157501 0.00870998374899809 0.0633510383891879 4 0 0 0 0
6625 9 -0.0005339858837276725 0.008293350605746526 0.04643034107480147 4 0 0 0 0
6626 9 7.937644216790322e-05 0.008169004569069615 0.03607992795136863 4 0 0 0 0
6627 9 -0.0002938805936063952 0.008332568243754123 0.03250614526653544 4 0 0 0 0
6628 9 -0.0002060905099613016 0.009206873522143945 0.05563433339105681 4 0 0 0 0
6629 9 -0.0002256389611966795 0.008582203121399925 0.05588451228616474 4 0 0 0 0
6630 9 -0.0002779732582881302 0.008788002397818909 0.05650017889510753 4 0 0 0 0
6631 9 -0.0007876643228073932 0.009385030845865739 0.004525800515121151 2.069167197517831 1.293377613387551 2.690618635573729 -56.67153294339939 56.75010925494075
6632 9 0.0001521395715568765 0.008812850193195236 0.05848740021695691 4 0 0 0 0
6633 9 0.0003408836033287848 0.00932279702656468 0.03831629094773015 4 0 0 0 0
6634 9 -0.0001808323986494565 0.007955192457866307 0.0300275397996699 4 0 0 0 0
6635 9 0.0005165505661835608 0.008752030353822302 0.06082283722797473 4 0 0 0 0
6636 9 -4.111048176682743e-05 0.008932569600662729 0.02593682281328998 3.999999999999992 4.892705204804837e-13 -3.997988224714528e-14 -1.11872210124858e-12 1.221688656335065e-12
6637 9 -0.0001402392914847728 0.008486335948917198 0.03493787532268319 4 0 0 0 0
6638 9 -0.0002825163469568082 0.008817169634686961 0.02834759882966564 4 0 0 0 0
6639 9 0.0002720033788256887 0.008774156728806975 0.06667722588136889 4 0 0 0 0
6640 9 -0.0004293623845246202 0.00828488909460841 0.04718499153141197 4 0 0 0 0
6641 9 7.40004420871914e-05 0.008467010631112932 0.0592844809238548 4 0 0 0 0
6642 9 0.0001472901685753784 0.008999899538209842 0.09471410665700725 4 0 0 0 0
6643 9 -9.254389044046783e-05 0.009556331626994138 0.02390840514303941 3.999999999999791 -6.278938548701311e-12 -1.065688381179727e-11 -3.588907035226207e-11 3.796076412068296e-11
6644 9 -0.0003612925588355517 0.008337041990063963 0.01782765124628483 3.999999998768725 3.422528501806733e-08 1.364764066989698e-08 -8.115950295405076e-08 8.913188627068959e-08
6645 9 -0.0001463891079589979 0.008485448957662109 0.04109644642219439 4 0 0 0 0
6646 9 2.202674171347051e-05 0.009100252297738894 0.05625017889510753 4 0 0 0 0
6647 9 -0.0002681142098202669 0.00880275105987178 0.0631780972429257 4 0 0 0 0
6648 9 -0.0005227186686788733 0.008891817172065811 0.06404660630737688 4 0 0 0 0
6649 9 -5.07465992604269e-05 0.008468728736585079 0.05271159830256633 4 0 0 0 0
6650 9 -0.0001449974529896365 0.009436336091870839 0.0308055281280542 4 0 0 0 0
6651 9 -0.0004549646854866829 0.008408661671629649 0.06846545730512421 4 0 0 0 0
6652 9 4.097175567517655e-05 0.00841876936870372 0.04446173027612155 4 0 0 0 0
6653 9 -0.0007645990714281709 0.008353821809777605 0.01688324751781694 3.999999996754812 3.952084682607784e-08 3.416154301785647e-08 -1.55241829640341e-07 1.637954029430979e-07
6654 9 -0.0002337840443058933 0.009246202287395656 0.05051860260208949 4 0 0 0 0
6655 9 -0.0004895283595063992 0.008267277078314393 0.01838673077153059 3.999999999275958 9.494971862887206e-10 -9.523661501153941e-09 -4.107755918263449e-08 4.21778086403048e-08
6656 9 -0.0005567530782318349 0.008470752625627197 0.06017603663534685 4 0 0 0 0
6657 9 3.206961988299894e-05 0.008386091660626371 0.09445223191422611 4 0 0 0 0
6658 9 2.54856670979703e-05 0.009101977370937608 0.04169996801272041 4 0 0 0 0
6659 9 5.206127592229647e-05 0.009098522828837507 0.06950784418948611 4 0 0 0 0
6660 9 -0.0008052897125921865 0.009299335347019167 0.03951183428020844 4 0 0 0 0
6661 9 7.407610642124576e-05 0.00883188069030766 0.05070201783630661 4 0 0 0 0
6662 9 0.0001023342970890591 0.008794200723580939 0.05538433339105712 4 0 0 0 0
6663 9 5.576606004950186e-05 0.009156604307909422 0.06063259467072153 4 0 0 0 0
6664 9 -0.0007518850026515125 0.008364220455462878 0.03278549001065578 4 0 0 0 0
6665 9 -0.0001618512985125613 0.009130066241853939 0.06641977304814781 4 0 0 0 0
6666 9 -0.0004860184679643728 0.008191502578426178 0.04444354899634246 4 0 0 0 0
6667 9 -0.0003639946333848442 0.008766038425917229 0.06803743760120229 4 0 0 0 0
6668 9 -0.0001217209506492385 0.00931914672565653 0.02278285496640414 3.999999999998626 1.000472893087324e-11 -1.077084564886309e-11 -8.461349232244537e-11 8.588101536412112e-11
6669 9 6.994706920889306e-09 0.00960723909770215 0.09447377599080381 4 0 0 0 0
6670 9 -0.0006158898292495908 0.008874392597654308 0.02742731624660719 4 0 0 0 0
6671 9 -0.000861438370958438 0.009383247843206552 0.04939818182927289 4 0 0 0 0
6672 9 -0.0007875283406639825 0.008616921324846358 0.09544652953709662 4 0 0 0 0
6673 9 8.718266283238107e-05 0.008779521337247652 0.03184481893156834 4 0 0 0 0
6674 9 -0.0004932722097008822 0.009810823943442456 0.02309215700532445 3.999999999999098 -9.118925975635715e-12 1.043957847049825e-11 -7.120637632911311e-11 7.254300544858956e-11
6675 9 -0.0004684463062448729 0.008897080707490313 0.03453249398917896 4 0 0 0 0
6676 9 -1.546991927170251e-05 0.008535161645946544 0.005983303295963321 3.589156305828754 -4.834434540323662 1.219597649916201 -35.4276483054049 35.77677235587099
6677 9 -0.0007903119598993874 0.008440959883831185 0.04883394884704627 4 0 0 0 0
6678 9 8.278584585368131e-05 0.008169530322836918 0.05563451228616505 4 0 0 0 0
6679 9 -7.435163008164913e-05 0.009484377692518746 0.02566736508536649 3.999999999999987 5.220165396535302e-13 3.170560685058001e-14 -1.267298377860719e-12 1.370967429119313e-12
6680 9 7.078883614648713e-05 0.008774090445014829 0.07025589431293131 4 0 0 0 0
6681 9 -0.0002039733392570399 0.008566908258492845 0.02144063010082321 3.999999999991986 4.467841649893065e-11 -1.191929996297651e-10 -7.776572457247623e-10 7.880062968592424e-10
6682 9 -0.0005565674563078021 0.009607526763471338 0.006927372108059032 3.897251018197742 -1.201005844693374 1.5810167080952 -10.74720721682119 10.92906637510987
6683 9 0.0005311401764892579 0.008156318340530287 0.03618872594391834 4 0 0 0 0
6684 9 0.0003250110663714099 0.009589760086454895 0.02423481192811951 3.999999999999881 -7.170398307572339e-14 2.765531236218331e-12 -6.746872313828927e-12 7.292022387431316e-12
6685 9 -0.0009243809468679149 0.009191071157614283 0.02197992549341947 3.999999999995365 -2.402934688311431e-11 -7.192573774843529e-11 -2.772452172925747e-10 2.874293509262627e-10
6686 9 -0.0005647315522308673 0.009846528105597425 0.01238222733165707 3.999999986537586 2.139313838187617e-06 -4.643765336259476e-06 -3.228480827059374e-07 5.123031434708654e-06
6687 9 0.000330451548762791 0.008687579499175847 0.05650017889510783 4 0 0 0 0
6688 9 -4.751916791902868e-05 0.009101431036898807 0.06347859086268189 4 0 0 0 0
6689 9 -0.0001152135539854585 0.00899343122011868 0.09421190124802267 4 0 0 0 0
6690 9 4.628889871387758e-05 0.008591602571524956 0.02669357407158364 3.999999999999998 8.187703303202523e-14 -7.875560759560279e-14 -3.585397626001449e-13 3.761077712986641e-13
6691 9 4.784883892039937e-05 0.009098140744397765 0.01970939372856229 3.999999999868451 -2.266873818115962e-10 -2.170692144431071e-09 -1.64222077259624e-08 1.65665988709097e-08
6692 9 -0.00021799779916059 0.009208974520911267 0.05823378820722172 4 0 0 0 0
6693 9 -0.0003469915351111731 0.008713188558989966 0.06703894980224084 4 0 0 0 0
6694 9 -0.0001928050674544793 0.008572344491182556 0.02003464051948409 3.999999999924874 -3.187141591176725e-10 -2.744200577110231e-09 -1.135364410509284e-08 1.16849240471534e-08
6695 9 -0.0006433695638810854 0.009662856821940837 0.0258135583897561 3.999999999999991 -2.65765718317115e-13 4.447668614571379e-13 -7.661556822422671e-13 9.249018907512077e-13
6696 9 -0.001018277314929911 0.008783429016786665 0.06001982321230571 4 0 0 0 0
6697 9 -0.0007381139141686399 0.009202688314267942 0.006010514295020091 3.603989885385966 7.133663114435136 -4.235203706878557 -28.05845053719033 29.25923352408546
6698 9 -0.0001737804570713835 0.008570725053393027 0.0478597984838683 4 0 0 0 0
6699 9 0.0004149865115465803 0.008695885043411802 0.01938030230592214 3.999999999727063 4.196319539076959e-09 -5.148398046380465e-09 -2.544896951015291e-08 2.630142865409987e-08
6700 9 0.0003964976206218685 0.008696584471713646 0.04139692708833842 4 0 0 0 0
6701 9 -0.0005133375584212059 0.008891352867645572 0.05717307562462021 4 0 0 0 0
6702 9 3.430674339174496e-05 0.008184594730145817 0.05440748443828355 4 0 0 0 0
6703 9 0.0006224601194937722 0.008787434506695248 0.03724080423195449 4 0 0 0 0
6704 9 -0.0001496433640462873 0.009856897112521877 0.02448463430508276 3.999999999999905 1.423635961243346e-12 -7.164292996077674e-13 -7.443425077113074e-12 7.612134205994894e-12
6705 9 0.000137467998899695 0.00816172570358923 0.04821159269061241 4 0 0 0 0
6706 9 0.0001128953989844472 0.008784298273675814 0.04850212432320461 4 0 0 0 0
6707 9 -0.0006217025869841873 0.009697714927275891 0.009845025048839875 3.999951721049812 -0.004520190258948906 0.01144247500369899 -0.007504242346475341 0.01441096830133238
6708 9 -0.0004390142108921669 0.008889706240121878 0.01865835247767348 3.999999999484741 4.043399260923096e-09 -3.982399313222725e-09 -3.465292155436515e-08 3.51145775159858e-08
6709 9 -0.0004313327257682278 0.008817219567123889 0.05297579536516704 4 0 0 0 0
6710 9 -3.790407086947709e-05 0.008549360352821818 0.03870604042437289 4 0 0 0 0
6711 9 -0.0002161211386321534 0.009217771723949872 0.04570899275713883 4 0 0 0 0
6712 9 -0.0008405087164492049 0.009248337970479002 0.05854315738260372 4 0 0 0 0
6713 9 -0.0003576481855886039 0.009021681269732459 0.06868026359432977 4 0 0 0 0
6714 9 -0.0002682256899046066 0.008724757820553708 0.07087713942765238 4 0 0 0 0
6715 9 -0.0005766588247373753 0.009832108783811454 0.02839629618853741 4 0 0 0 0
6716 9 -0.000453749553765708 0.008907454296673367 0.04697563689417996 4 0 0 0 0
6717 9 -0.0001373424231163545 0.009244640769471391 0.070623251818277 4 0 0 0 0
6718 9 -0.0002995628728451734 0.009180409514273536 0.02176890097356798 3.999999999995308 -1.16995389983369e-10 -8.207289438582132e-11 -1.891009545555445e-10 2.370296443148934e-10
6719 9 -0.0005916738826313499 0.008890387612259921 0.01140912200110768 3.999999990267181 -1.097051803989541e-06 -7.639580408567386e-07 2.964778640341691e-06 3.252240294789531e-06
6720 9 -0.0004658964844218682 0.008244379117829081 0.04355945744830104 4 0 0 0 0
6721 9 -0.0007886132824960417 0.008358862428015491 0.01813950976534493 3.999999999164454 1.287841835470178e-08 -2.295235642040075e-09 -3.506649057267465e-08 3.742700264587976e-08
6722 9 0.0001478671596975484 0.008966963176372515 0.06735737035618232 4 0 0 0 0
6723 9 -0.0001748709172373266 0.008794867039479497 0.04723387457665191 4 0 0 0 0
6724 9 -0.0005295906621679419 0.008848179622765177 0.04508595482813387 4 0 0 0 0
6725 9 -0.0005826753538743914 0.00922404312328799 0.0711091485718692 4 0 0 0 0
6726 9 -0.0005022388574545463 0.008877228288053802 0.02077301986572065 3.9999999999764 -6.319610261111207e-10 -3.245526216172368e-10 -2.45577892168507e-09 2.556473988702941e-09
6727 9 0.0001791140554995722 0.008827943824116892 0.006858001516447807 3.878609268890883 1.697019869211559 -0.7064035213810425 -11.36156671704337 11.50930409005453
6728 9 0.0001746178263535955 0.009061311521637711 0.06449398599397385 4 0 0 0 0
6729 9 0.0001165061943211851 0.008162322791225493 0.02028464051948388 3.999999999933846 9.837812051100047e-10 -4.526928286148552e-09 -7.05440155190826e-09 8.439519324169192e-09
6730 9 -0.0007306368223615762 0.008281034044632835 0.02319459814883891 3.999999999999227 1.715493227604321e-14 8.039472843551986e-12 -5.315001522737204e-11 5.375460479404337e-11
6731 9 -0.0001104618008220914 0.007930435838574345 0.03849040779144702 4 0 0 0 0
6732 9 7.225609997312294e-05 0.008407373288533537 0.07118433222184331 4 0 0 0 0
6733 9 0.0001237017462614132 0.008572404398523047 0.06825000856009728 4 0 0 0 0
6734 9 0.0004347525966009606 0.008698048304079839 0.04737646998357282 4 0 0 0 0
6735 9 -0.000452756978824544 0.008910448972336091 0.04670131936855073 4 0 0 0 0
6736 9 -0.0007446272456322971 0.00835336190519757 0.02101587689174502 3.99999999997993 -8.293833948215297e-10 -5.089089398466675e-10 -2.288034695767034e-09 2.486356348895968e-09
6737 9 0.0003660359710912078 0.008246375798591041 0.03206290584530132 4 0 0 0 0
6738 9 -0.0001983530569866314 0.009193297623479611 0.0481503301164605 4 0 0 0 0
6739 9 -5.933394389498062e-05 0.008864641791941515 0.03281223350095262 4 0 0 0 0
6740 9 -0.0007671986660296027 0.008375254560315999 0.04169203543438979 4 0 0 0 0
6741 9 -0.0001707620646655197 0.008000926859700677 0.04951940444891313 4 0 0 0 0
6742 9 -0.0005368325443358487 0.008924662839201347 0.05111651729025515 4 0 0 0 0
6743 9 0.0004493005377059743 0.008719958286974243 0.03138442951330933 4 0 0 0 0
6744 9 -0.001011737300702904 0.009215800138389732 0.03820565449740235 4 0 0 0 0
6745 9 0.0005385477835324866 0.008160297656534338 0.06785494547340794 4 0 0 0 0
6746 9 -0.0002435649565667674 0.008075682330678785 0.07461315155462102 4 0 0 0 0
6747 9 -0.0007837844454795048 0.00862028868544615 0.004459733666436885 1.987766751662455 -0.3869260511813996 0.7975024736995455 -56.14458181279412 56.15157868571615
6748 9 -0.0005173383529400979 0.00889629400365027 0.03309157824507296 4 0 0 0 0
6749 9 -0.0008284708582659989 0.009231788063424151 0.03655394409699145 4 0 0 0 0
6750 9 0.0004163687958574303 0.009818214979128831 0.02556520409251068 3.999999999999973 1.95245019776567e-12 1.503321123519082e-12 -2.409841332482561e-12 3.446646402362041e-12
6751 9 1.307779271478698e-05 0.008229725651255456 0.006542768841006479 3.800276539073433 1.963799114674682 -4.977733644225634 -14.50921610148378 15.46453009551888
6752 9 -0.0008870177813776607 0.009387593374514711 0.01125116580425493 3.999999990267181 -2.690344712015485e-06 4.965245118814637e-07 1.602190292397174e-06 3.170410855618015e-06
6753 9 -0.0002057114809524994 0.009194433427981685 0.03620648721532622 4 0 0 0 0
6754 9 -0.0008755985477320936 0.008997909152588515 0.09568360538858872 4 0 0 0 0
6755 9 -0.0002727339018668263 0.00917796368233059 0.03203805835280246 4 0 0 0 0
6756 9 0.0005300442641816798 0.008746058596735806 0.06918431891496572 4 0 0 0 0
6757 9 -0.000567198320858165 0.009823468653061121 0.02415822752000267 3.999999999999815 -1.217439045473873e-11 1.608158514854338e-11 -1.819182203082922e-11 2.716202408944606e-11
6758 9 -0.0004403489814042925 0.008891504695204482 0.04073299640766694 4 0 0 0 0
6759 9 -0.0008592859816993199 0.009219531273172961 0.06524452116247657 4 0 0 0 0
6760 9 -0.0008637264928260645 0.008575492349424346 0.03031839194995781 4 0 0 0 0
6761 9 -0.0008660799527163941 0.008584210389980567 0.01430189235593878 3.99999999137012 2.096070417827637e-07 7.882432934313941e-08 5.599926483340416e-08 2.308339327811201e-07
6762 9 -0.0008356311738479872 0.00937414550183416 0.06900378886885014 4 0 0 0 0
6763 9 0.0005479832159860924 0.008716641895193698 0.02921671895172871 4 0 0 0 0
6764 9 -0.0009033115069069554 0.009363839906502469 0.02725619114185363 4 -9.137658858797507e-14 6.947875367297697e-14 -7.338071709537793e-14 1.362413586080165e-13
6765 9 0.0005489259321329522 0.008717144969135351 0.01321333078544873 3.9999999889912 2.437194499895545e-07 -2.101947790240411e-08 -2.446000216181379e-07 3.459337499147693e-07
6766 9 -0.0007866271048037705 0.008356374182402376 0.04021873207022926 4 0 0 0 0
6767 9 6.119406392000442e-06 0.008644818143673979 0.03225614526653544 4 0 0 0 0
6768 9 -0.0004842992022280723 0.00826834140925858 0.04045875763864104 4 0 0 0 0
6769 9 -0.0001861067887426613 0.008571337040646996 0.03586186854883004 4 0 0 0 0
6770 9 -7.355606651277474e-05 0.008613932685929289 0.04927731723822303 4 0 0 0 0
6771 9 1.277217488043222e-05 0.009469629354616867 0.009342975845431261 3.999951874446086 -0.004966650426494561 0.01421283584032881 0.01484891733235593 0.02114622105782198
6772 9 -0.0005447298941349426 0.009685529117728027 0.004283236053006635 1.648468834645863 -0.001309933486766593 0.0009954187082035939 -41.94330570477405 41.94330573704123
6773 9 -6.211559845942032e-05 0.009709270763410896 0.06973744997436729 4 0 0 0 0
6774 9 -0.0008384952824339096 0.008388742269168263 0.05770043119287344 4 0 0 0 0
6775 9 9.876253841116483e-05 0.009106285639473074 0.01842090857735964 3.999999999155418 2.370102357504954e-08 1.587994793594004e-09 -6.371701463604008e-08 6.800086911282003e-08
6776 9 4.612221761351892e-06 0.009668518202048679 0.01213883169542759 3.999999987719155 -1.14733423415864e-06 -1.159677222469982e-06 9.231518016903988e-07 1.874416270243169e-06
6777 9 -0.0002147921907963378 0.009216434932681487 0.03375708115825985 4 0 0 0 0
6778 9 3.841504892071105e-05 0.009090774641349077 0.02119777307479884 3.999999999988456 1.186481813550764e-10 -2.230602179294712e-11 -9.874327600842385e-10 9.947856076736694e-10
6779 9 -0.000511568955677846 0.009243232399319274 0.004841458755348326 2.558844605188706 6.11762234611287 0.201904100337701 -65.70176782412649 65.98627405491854
6780 9 -0.0004849988395832224 0.009526803257466033 0.008405897010620887 3.997179700593901 -0.09474874109276712 0.2799098749667531 -0.4243999971350056 0.5171481602121005
6781 9 0.0002107704325044878 0.00908453180263623 0.01230623941455588 3.999999984036999 -1.01838907179826e-06 -2.428834379202757e-07 -7.065309077983404e-08 1.049333371817955e-06
6782 9 -5.80963033355232e-06 0.009656290855968769 0.02814245999847751 4 0 0 0 0
6783 9 -3.408803711371193e-05 0.008241864510367684 0.01049063371581781 4 0 0 0 0
6784 9 6.476365540309061e-05 0.009098753333174532 0.04756675923031106 4 0 0 0 0
6785 9 2.766095320682919e-05 0.009042480669523654 0.04470993612706724 4 0 0 0 0
6786 9 8.704898756152299e-05 0.009052313101948661 0.05338110580528141 4 0 0 0 0
6787 9 -0.0004187469936618468 0.008876751497374505 0.09290892050988597 4 0 0 0 0
6788 9 -0.0008755777629728095 0.009004166700694538 0.004242564462114517 1.603756215014069 -0.00196613906561194 -0.0004950522681925459 -42.74906173590816 42.74906178398851
6789 9 -0.0005715936140177724 0.009153230588958752 0.01001968872539253 3.99999984415586 2.191550423040622e-05 1.010355734405463e-05 -1.215315598051861e-05 2.701981489507965e-05
6790 9 0.0002334774530457838 0.008845737943425639 0.04557060766438672 4 0 0 0 0
6791 9 -0.0004205601801447001 0.008241164970793387 0.05179477199470067 4 0 0 0 0
6792 9 -0.0008014334416205302 0.0092141669635433 0.05255916661339732 4 0 0 0 0
6793 9 -0.0007305818167578111 0.008355765091831363 0.01977208441979794 3.999999999845144 -2.751963807945627e-09 -4.233341555482232e-09 -1.529449167993292e-08 1.610639504275096e-08
6794 9 9.782153318505059e-05 0.008476258505618159 0.05170008243481504 4 0 0 0 0
6795 9 0.0001092872965858701 0.008786455994925352 0.02044672837872999 3.99999999996436 -8.536752597012733e-11 -4.997722709572233e-10 -3.307463778401962e-09 3.346098710849545e-09
6796 9 -0.0007282719243585321 0.008372997008441855 0.04756091543862837 4 0 0 0 0
6797 9 0.0003469187317979341 0.009296246837576077 0.02733226903540671 4 3.590425610578495e-14 2.14993930593811e-14 -9.194211161956262e-14 1.010182725921191e-13
6798 9 0.0002082883103904067 0.009073808874025556 0.02830789978917393 4 0 0 0 0
6799 9 -0.0009603693801171376 0.009221916767115453 0.09407114056879665 4 0 0 0 0
6800 9 -0.0002825785728564086 0.009449638022361187 0.04429340938775223 4 0 0 0 0
6801 9 -0.0008382216010645047 0.009260242933747501 0.04541904189558373 4 0 0 0 0
6802 9 -0.0008015392064138158 0.00830618326303079 0.06478551139109404 4 0 0 0 0
6803 9 -0.0001775527984271292 0.008595655125047248 0.03395909124969539 4 0 0 0 0
6804 9 -0.0005028628816335082 0.008903674974287894 0.05507984201086336 4 0 0 0 0
6805 9 9.38101317553848e-05 0.008804286761603289 0.03350708115826027 4 0 0 0 0
6806 9 4.123211536374013e-05 0.009723905989454001 0.06199999999999987 4 0 0 0 0
6807 9 4.218396674268515e-05 0.009726699068433072 0.04199999999999997 4 0 0 0 0
6808 9 0.0001258527507329501 0.009086002443971813 0.09319493676906998 4 0 0 0 0
6809 9 -0.0008178531638678198 0.00930601922478059 0.04262602134849837 4 0 0 0 0
6810 9 -0.0002669788775735252 0.009379069918361222 0.06775243344287166 4 0 0 0 0
6811 9 -5.963629500754549e-05 0.009509638038985409 0.009703866559313422 3.999951721049812 0.003794096444483365 0.006785325356750451 -0.01547997035961638 0.01732239274354452
6812 9 -6.652254695477667e-05 0.008533488043505694 0.04532060766438672 4 0 0 0 0
6813 9 -0.000374338630078014 0.009026936420242852 0.007241980549114591 3.952365514868465 -0.470990617448729 -0.1983991056833378 -8.388911353908179 8.404464770024932
6814 9 -0.0007777961795183974 0.008381652210890158 0.0561419770126588 4 0 0 0 0
6815 9 7.856885990271098e-05 0.009103620986483953 0.03433011782230337 4 0 0 0 0
6816 9 6.109373921768123e-05 0.008471645908106623 0.04357763872808014 4 0 0 0 0
6817 9 0.0001849657105282039 0.00816334251044144 0.07002628852805012 4 0 0 0 0
6818 9 -0.0002859183508880214 0.009421234987126787 0.06422752729339266 4 0 0 0 0
6819 9 5.858752635279401e-05 0.008479476923310116 0.04025923830478507 4 0 0 0 0
6820 9 0.0001025377471765739 0.009102640209256019 0.04053347707381097 4 0 0 0 0
6821 9 0.0006455131211967724 0.008775975059219135 0.0647641590131129 4 0 0 0 0
6822 9 0.0001017344884626045 0.009108177017287264 0.04650020241379067 4 0 0 0 0
6823 9 0.0006499999999995845 0.008999999999999973 0.0549999999999999 4 0 0 0 0
6824 9 0.000143728974485526 0.008812430331368743 0.02202818221194985 3.9999999999966 -1.115573966309954e-10 -6.056608980378284e-11 -2.44392797291919e-10 2.75392707502167e-10
6825 9 -0.000811287688683869 0.0093163477728509 0.05532984201086305 4 0 0 0 0
6826 9 -0.0005017760834368237 0.008892010352550347 0.04286850567821688 4 0 0 0 0
6827 9 0.0004644562636088614 0.008782745941449271 0.0261779979283407 3.999999999999993 3.921411993619533e-13 7.006607044381038e-14 -1.717643831855506e-12 1.763231212171488e-12
6828 9 -0.0007092848222215008 0.00832964593114084 0.01153022922400555 3.999999985460357 3.460943791461214e-07 1.42361197833046e-06 1.283584575919668e-06 1.947830009949888e-06
6829 9 5.83342351202515e-05 0.009093013804768372 0.03557137189733688 4 0 0 0 0
6830 9 0.0002100372748532547 0.008257706001819432 0.02990306077985 4 0 0 0 0
6831 9 -3.790543839380299e-05 0.009039238853941587 0.0277097784076207 4 0 0 0 0
6832 9 -8.261317297885554e-05 0.008844619351535916 0.05735773171116883 4 0 0 0 0
6833 9 4.15751929488483e-05 0.009724922698482914 0.05599999999999959 4 0 0 0 0
6834 9 0.0004084797666026706 0.009287994024120507 0.01129456340094433 3.999999846603725 1.040887793408304e-05 6.388500160212901e-06 -2.365106044156605e-05 2.661823311480857e-05
6835 9 -0.0004517920870861394 0.009743926072205674 0.07085526096249381 4 0 0 0 0
6836 9 -0.0007331219548902452 0.008364796761653356 0.03556424471570564 4 0 0 0 0
6837 9 0.0006242732895696653 0.008756448827812235 0.02697603623259715 3.999999999999998 2.212431140887387e-13 -5.101126793063503e-14 -2.542037831408847e-13 3.40837539526842e-13
6838 9 0.0006059734426707298 0.008628097408850753 0.0713408147923878 4 0 0 0 0
6839 9 0.0004470675804343513 0.008168864860838794 0.02422962744858163 3.999999999999832 6.025341349763059e-12 -1.427465931934718e-11 -1.653288151888988e-11 2.265848204055692e-11
6840 9 -0.0004440072909224923 0.00810015706654597 0.06732395396057149 4 0 0 0 0
6841 9 -0.000721955639312201 0.008313717506905077 0.02754616482700986 4 0 0 0 0
6842 9 0.0005518145408005021 0.008772634549894534 0.03322773641413993 4 0 0 0 0
6843 9 0.0002755605056082256 0.008691704036217241 0.01573995467107187 3.999999994297299 -7.691050782233982e-08 6.132913627432189e-09 -2.088119786962822e-07 2.226101554065051e-07
6844 9 -0.0005219849292389333 0.008877431564895198 0.01714874551659852 3.999999997175039 2.246753385017191e-08 1.61331912993675e-08 -1.677616525030877e-07 1.700265920065957e-07
6845 9 -0.0008516029264620264 0.008402935852683082 0.04613924442952724 4 0 0 0 0
6846 9 -0.0001459386674644952 0.007969296271739597 0.0686849613707871 4 0 0 0 0
6847 9 -0.0003854736630669209 0.008704362324597002 0.07375163990334198 4 0 0 0 0
6848 9 0.000707826410849054 0.009007765998971073 0.01892090857736006 3.999999999340163 3.27268183699304e-08 9.417797187320612e-10 -5.207893851557305e-08 6.151542429802356e-08
6849 9 0.000166989414695171 0.009125537929171326 0.09145459976211068 4 0 0 0 0
6850 9 0.0005285671671186561 0.00875271557338053 0.05694212081304258 4 0 0 0 0
6851 9 -0.0002000239651897944 0.009196477694882415 0.0201967283787302 3.999999999955388 2.587137202732922e-11 -5.967526965347947e-10 -2.783429091511044e-09 2.84679830971253e-09
6852 9 3.288169700128298e-06 0.009268433024336876 0.008110217277035817 3.997227823699949 -0.1147207326921976 0.2885614879678799 -0.4001773597584127 0.506527884830525
6853 9 0.0004676351140693238 0.008703822271409851 0.05261690874268071 4 0 0 0 0
6854 9 -0.000339305056147682 0.008880385011442945 0.09118180012044565 4 0 0 0 0
6855 9 -0.0008115501192302105 0.009287249988010865 0.02052301986572086 3.999999999967429 -2.894043780021527e-10 -5.095196081342001e-10 -2.134853350116311e-09 2.213812085878763e-09
6856 9 -0.0007808462124494232 0.009069098072036928 0.06678149696901975 4 0 0 0 0
6857 9 0.0004790205244449384 0.00929901816609929 0.01364708604259199 3.999999990238586 9.332480776325309e-08 3.154280153991416e-08 -3.007244488422321e-08 1.029991262795428e-07
6858 9 -1.248627506490465e-05 0.009053280122739947 0.0116879463818068 3.999999990267181 -1.189797289720604e-06 -7.302439536841937e-07 2.703458316121801e-06 3.042623980962312e-06
6859 9 0.0007131959202664384 0.009009056269289193 0.04094695907561798 4 0 0 0 0
6860 9 0.0008187014657093179 0.00905764770270873 0.06882429487976678 4 0 0 0 0
6861 9 0.0006582610471735363 0.009000440296282913 0.04299248432971848 4 0 0 0 0
6862 9 0.000313884767820925 0.008212098865822776 0.09232206899474495 4 0 0 0 0
6863 9 0.0005182289493275446 0.008745062170569322 0.03906625826558757 4 0 0 0 0
6864 9 -0.0001583782186136082 0.008003752340144416 0.02661875401029591 3.999999999999997 1.697496175949177e-13 1.968610668774806e-13 -2.159343728964183e-13 3.37930267546324e-13
6865 9 0.0002909156294285393 0.008760445743049555 0.008373854856305134 3.999858015510489 -0.01846151432723664 0.006926059385000839 -0.01874735261961003 0.02720773860693536
6866 9 -0.0007957177721746266 0.009372212412501333 0.095429247392639 4 0 0 0 0
6867 9 6.694168581471181e-05 0.009781363299766536 0.0601554649127045 4 0 0 0 0
6868 9 -0.00031098463985577 0.009235941059663966 0.07299751448892491 4 0 0 0 0
6869 9 0.0008182289493281051 0.009057312070489265 0.03881625826558757 4 0 0 0 0
6870 9 0.0001726546540009684 0.009889984755915246 0.03800003268214257 4 0 0 0 0
6871 9 -1.949017064908158e-05 0.009094696847166713 0.08148997486492879 4 0 0 0 0
6872 9 0.000503097123373503 0.009308485082315783 0.02257183044655266 3.999999999998569 -5.265404824366055e-11 -3.490378557731611e-11 -4.545871585612351e-11 7.7828130462968e-11
6873 9 5.201603636325889e-05 0.009752287988098154 0.0681407095219997 4 0 0 0 0
6874 9 0.0004547529356501581 0.008671995481563017 0.07225134396518461 4 0 0 0 0
6875 9 0.0007668620736344101 0.009027931346189524 0.06699564643531036 4 0 0 0 0
6876 9 0.000240666056103415 0.009176891691861372 0.03256223350095262 4 0 0 0 0
6877 9 -0.0008168879457874324 0.009297218284347847 0.03486836673070824 4 0 0 0 0
6878 9 -0.0009513666416466617 0.008643023308206035 0.02620645379049161 3.999999999999996 -2.72976861525477e-13 5.284139922499185e-15 -4.051223383533505e-13 4.885369976735709e-13
6879 9 3.934182691042537e-05 0.009718083739806656 0.04008651799819297 4 0 0 0 0
6880 9 0.0002210182461594921 0.009185423996625856 0.06846481484930284 4 0 0 0 0
6881 9 -0.0008593942557721571 0.008903508772180581 0.07394046069217186 4 0 0 0 0
6882 9 1.927358290127669e-05 0.009090330116142964 0.01672505794542412 3.999999996515154 -4.195407304683579e-08 4.073877883594959e-09 -9.079503588947848e-08 1.001023439705653e-07
6883 9 -5.717448466742251e-05 0.009704275897129768 0.02152604394754361 3.999999999991778 8.200292401345048e-11 3.082646088260786e-10 -6.856848114084425e-10 7.56250758146848e-10
6884 9 -0.0008113609349281905 0.009296897594428446 0.04103603733204893 4 0 0 0 0
6885 9 0.000487597148273609 0.009238495508723795 0.07046988976544125 4 0 0 0 0
6886 9 -0.0002579757985797698 0.008101541020090959 0.07361507362615005 4 0 0 0 0
6887 9 -8.362120461333797e-05 0.008604335708318037 0.09204282787491772 4 0 0 0 0
6888 9 -4.387758614534282e-05 0.009686670294762997 0.09348061682659078 4 0 0 0 0
6889 9 0.0004315462478550287 0.008187196664205537 0.06199578073173612 4 0 0 0 0
6890 9 0.0007294049580983864 0.009013569922892909 0.06294950638024369 4 0 0 0 0
6891 9 3.909134924361602e-05 0.009092782148893705 0.05141449945394847 4 0 0 0 0
6892 9 -0.0007552142576657445 0.00837731940445666 0.05146120685014078 4 0 0 0 0
6893 9 0.0008280003995889531 0.009064528589257517 0.06109550455547405 4 0 0 0 0
6894 9 4.802152110973792e-05 0.009095347749200506 0.04332595759040345 4 0 0 0 0
6895 9 4.195441859955652e-05 0.009726578865029555 0.050066471035607 4 0 0 0 0
6896 9 3.258206877946047e-05 0.009696107495757941 0.06596220949065539 4 0 0 0 0
6897 9 -7.127975104300136e-05 0.007926091023424502 0.01759199460797758 3.999999998228611 3.255872499370009e-08 -1.830305069738439e-08 -1.321791072621571e-07 1.373549730976904e-07
6898 9 -9.087810915280567e-05 0.00891775892617943 0.07660402324947019 4 0 0 0 0
6899 9 0.0007103654273597278 0.009008363606224881 0.04691711534634081 4 0 0 0 0
6900 9 -0.0007603393298893948 0.008397407575672625 0.0549614980299375 4 0 0 0 0
6901 9 0.0005917879127888949 0.009003111330532642 0.0809899748649279 4 0 0 0 0
6902 9 -0.0008217623654705263 0.00930402566620862 0.0569230756246199 4 0 0 0 0
6903 9 0.000585085945087964 0.008453003074793254 0.09576329974368558 4 0 0 0 0
6904 9 -0.000147512867497501 0.007916380217190079 0.04554974238201508 4 0 0 0 0
6905 9 -6.990199685487838e-05 0.009120921223281916 0.08347063253647452 4 0 0 0 0
6906 9 -0.0005445731272322507 0.008314347199701028 0.09576292414850793 4 0 0 0 0
6907 9 4.132946753350233e-05 0.009724400794118192 0.03412810773086783 4 0 0 0 0
6908 9 -0.0008259406754918206 0.009308442174728468 0.03334157824507254 4 0 0 0 0
6909 9 4.136344741802197e-05 0.008313464018839178 0.0761644473884362 4 0 0 0 0
6910 9 -2.78355791518366e-05 0.009060829704540679 0.08053351717471249 4 0 0 0 0
6911 9 -0.0003108477418003922 0.008959473919646476 0.01772738114099671 3.999999998442358 3.448097068165784e-08 1.697379729480406e-08 -9.450580628200647e-08 1.020215396608313e-07
6912 9 4.113047674276265e-05 0.009724322670628267 0.04608297405607219 4 0 0 0 0
6913 9 -2.083493400784195e-05 0.008548522953007013 0.01749172450268947 3.999999997902245 3.44423559776203e-08 1.229110035300963e-08 -1.486626928478691e-07 1.530945566568477e-07
6914 9 0.0006500000000007106 0.009000000000000018 0.05099999999999993 4 0 0 0 0
6915 9 0.0006499412029611273 0.009000002348220628 0.02087148158780818 3.999999999976415 8.931457418397168e-10 -1.744025996459065e-10 -1.72686126781611e-09 1.951967064582066e-09
6916 9 -0.000724567964574713 0.008389114846053605 0.03416146741657099 4 0 0 0 0
6917 9 -0.0002854188050924969 0.008001401746767278 0.06024810730962651 4 0 0 0 0
6918 9 0.0009058695457117369 0.009067417007238305 0.02665871782345396 3.999999999999994 9.502028099351641e-13 1.394377777472062e-13 -5.371263663527118e-13 1.10037857453834e-12
6919 9 -0.0008119977370314837 0.009288382531534661 0.01738440215490576 3.999999997715153 4.45584590449579e-09 2.544703368690341e-08 -1.557616781021069e-07 1.578895387648319e-07
6920 9 -0.0005076890783499555 0.008749667575848158 0.00477539190666406 2.477449606005098 6.005106895936026 3.340786160278278 -63.45038077384773 63.82141475513207
6921 9 0.0002173868270227452 0.009156869251455901 0.05760773171116883 4 0 0 0 0
6922 9 3.866140864690806e-05 0.009717283847315078 0.06380107474230377 4 0 0 0 0
6923 9 0.0007958902077911723 0.009043131213834521 0.06517064145879391 4 0 0 0 0
6924 9 -9.387192612615841e-05 0.009086696711749023 0.01599346964359312 3.999999994830119 -6.880107444954671e-08 -9.434404665990489e-09 -2.747658964513541e-07 2.83405881536587e-07
6925 9 0.0008285671671202569 0.009064965473300513 0.05719212081304258 4 0 0 0 0
6926 9 0.0001493727802094525 0.009137350901483092 0.08979567214375879 4 0 0 0 0
6927 9 -6.896917377516147e-05 0.009102766244498246 0.08539468305181289 4 0 0 0 0
6928 9 -9.527322041130598e-06 0.008965153700668273 0.009878530235866073 3.99999984415586 -1.215097905368373e-05 1.444438841347819e-05 4.017821606242679e-05 4.439116685289467e-05
6929 9 -0.0005307313140801439 0.009908781201134429 0.03072758847721545 4 0 0 0 0
6930 9 3.85454522619304e-05 0.009716414434497221 0.05791581381260978 4 0 0 0 0
6931 9 3.952188957608759e-05 0.009719416712483473 0.04383336024930732 4 0 0 0 0
6932 9 4.01910554878428e-05 0.009721325903261116 0.04785729086290325 4 0 0 0 0
6933 9 -7.420407291136563e-05 0.009107911658403245 0.08247077391549321 4 0 0 0 0
6934 9 0.0008306374366969619 0.009028124580281786 0.01283463035971315 3.999999991125615 -6.981788629932203e-07 -3.144050921599454e-07 3.366491370452384e-07 8.36443021478399e-07
6935 9 0.0001983102794442043 0.008806743516413714 0.09253350583116354 4 0 0 0 0
6936 9 0.000765823787827356 0.008977828021738674 0.007217109537634512 3.914918500927519 4.511676234577296 -1.049071887462527 -9.563807744128331 10.62648544145066
6937 9 0.0007843766442447703 0.008981992249770695 0.01087734076035945 3.999999846603725 -2.169561789010644e-05 1.871940026840744e-05 0 2.865511790313136e-05
6938 9 3.872954291041345e-05 0.009716110192103061 0.03591599056383306 4 0 0 0 0
6939 9 -0.0008061518835183477 0.009291961941107842 0.01898744390031364 3.99999999962613 -8.58631293165138e-09 1.435540547183467e-09 -2.36712812907532e-08 2.522132241514735e-08
6940 9 3.037650805971365e-05 0.009057718374008029 0.0795435423097845 4 0 0 0 0
6941 9 0.0003752883017163171 0.009739578829994407 0.007943300145129058 3.992117287033186 0.1632978506448456 0.8064445972050156 -0.8367359907088082 1.173518723554864
6942 9 0.000776802842112488 0.009029303964910428 0.09099655186197657 4 0 0 0 0
6943 9 0.0001310495241245935 0.008183506953969048 0.03370909124969581 4 0 0 0 0
6944 9 0.000381603715147011 0.008714459664450461 0.08946040726915636 4 0 0 0 0
6945 9 0.0008298586453575334 0.009027637692068538 0.02883629025078546 4 0 0 0 0
6946 9 -0.000822745920022414 0.009311154001430786 0.04689160861528895 4 0 0 0 0
6947 9 -0.0008132170913877164 0.008333096752126387 0.06599608436523569 4 0 0 0 0
6948 9 0.0005370740105266108 0.009016326141769174 0.08297077391549232 4 0 0 0 0
6949 9 0.0005018831589908957 0.008749467883656515 0.004315658240227175 1.672739319202853 0.001302338563600898 -0.001187857410221369 -40.33419921104552 40.33419924956235
6950 9 0.0002304107703398177 0.00917237247089424 0.01780369356982231 3.999999998285034 2.519348341321279e-08 1.08146156605407e-08 -1.288494045110371e-07 1.317339613054505e-07
6951 9 0.000520423578132368 0.008761421504254779 0.01706803693151506 3.99999999724236 -2.1268912779773e-08 -1.847379840376228e-10 -7.086225843242129e-08 7.398554216263877e-08
6952 9 4.086679598228079e-05 0.009723022208116897 0.01812810818856857 3.999999998705579 2.797782972175126e-08 2.802788131095055e-08 -9.160825492792364e-08 9.980177081424701e-08
6953 9 3.872191656316898e-05 0.009716085316473866 0.08200000000000079 4 0 0 0 0
6954 9 -0.0001596290297664189 0.0087056748122071 0.007768005702208055 3.993785283571864 -0.01352972038805256 -0.08183395740301667 -1.51720892839704 1.519474508613327
6955 9 -0.0009265728156224934 0.008500443354602791 0.05010681448725248 4 0 0 0 0
6956 9 0.0005768783549422041 0.00954898731082808 0.09576720152473298 4 0 0 0 0
6957 9 4.062994118508428e-05 0.009722273948097625 0.01987148158780839 3.999999999898966 6.207393724852279e-10 3.110448887302236e-09 -1.084297679671497e-08 1.12973605529421e-08
6958 9 0.0005277878312763113 0.008980358182733756 0.07705625674444934 4 0 0 0 0
6959 9 0.0002123711022497698 0.009176820617864633 0.007601088570301296 3.988674746905101 0.1886095972629613 0.03598194491463046 -2.2779734235519 2.286051442760705
6960 9 -0.0001324161601236162 0.008486523189096092 0.08196074878042119 4 0 0 0 0
6961 9 -3.818725215541172e-05 0.009710037230517983 0.03234414658721964 4 0 0 0 0
6962 9 -2.783557915155441e-05 0.008436329904700834 0.08003351717471249 4 0 0 0 0
6963 9 0.0008986866569627203 0.009007233726455054 0.02299355957380789 3.999999999998994 -4.575723134139722e-11 -3.756194651777226e-11 -4.051063594648903e-11 7.173378333130838e-11
6964 9 -3.874217088341501e-05 0.009708518496095744 0.01634218310159753 3.999999995454568 -3.900208540830931e-08 7.639007261506707e-08 -1.481731208308502e-07 1.71207124843232e-07
6965 9 -0.0001991956929900587 0.009198980358908976 0.09225426471133633 4 0 0 0 0
6966 9 -0.0001852749740056332 0.008147261281239774 0.09552622389219351 4 0 0 0 0
6967 9 0.000839474642777707 0.00907385283039224 0.01730369356982273 3.999999997558166 -6.79992020054796e-09 5.390613125370626e-09 -6.39838496806204e-08 6.456957986973018e-08
6968 9 0.0002393185080736595 0.00819892907558805 0.02169991133920509 3.999999999993279 6.214625599250044e-11 -2.764430950415041e-10 -6.0221334689846e-10 6.655402745985073e-10
6969 9 0.0004924219674217252 0.008130577694462768 0.06369455594350688 4 0 0 0 0
6970 9 -8.726748107126238e-05 0.00890214991609741 0.07755625674445039 4 0 0 0 0
6971 9 3.494468765287139e-05 0.008921791733363646 0.07850000000000097 4 0 0 0 0
6972 9 0.000742910023839001 0.009015994463011025 0.09281952209034761 4 0 0 0 0
6973 9 -0.0005408500168070569 0.008311457012194797 0.00421716920432237 1.567059115864086 -0.001353781092672018 -0.001632420670496865 -42.30625935632367 42.30625940947799
6974 9 -0.0006896833428406339 0.008857416999385762 0.07548689653341256 4 0 0 0 0
6975 9 -0.0001936393310540884 0.009854605421810608 0.004516034528273677 2.037749077130675 -0.8842497362705471 -0.2001497552097576 -54.68801897035821 54.69553342296668
6976 9 -0.0005846788042878601 0.008979510107371681 0.07904354230978557 4 0 0 0 0
6977 9 -0.0006391136625898132 0.009152415221174747 0.08103351717471338 4 0 0 0 0
6978 9 -0.0008446926950629878 0.009338984436289343 0.05093310205603803 4 0 0 0 0
6979 9 3.037650805943143e-05 0.009682218173847871 0.0800435423097845 4 0 0 0 0
6980 9 -7.136730447388134e-05 0.008921703861789095 0.07578534039478199 4 0 0 0 0
6981 9 5.141492631845023e-05 0.009720182579762267 0.09166603659852929 4 0 0 0 0
6982 9 0.0004363195355548294 0.009800603796230621 0.009591241167663418 3.999951723497677 -0.008822174599751325 -0.00569527978649482 -0.001111623811770632 0.01055948313194587
6983 9 0.0002589209508522429 0.008444802911099695 0.00454845671549422 2.04966204987744 3.170985153942417 2.52592960633383 -51.4658344232088 51.62526106568199
6984 9 -0.0006811800802928549 0.009212506739915987 0.08297063253647541 4 0 0 0 0
6985 9 -0.0008397562272716385 0.008374939968694347 0.06347452611851602 4 0 0 0 0
6986 9 -0.0006390330809969687 0.009196365513064856 0.08910465134938245 4 0 0 0 0
6987 9 -0.0002211397078418441 0.008830282828850821 0.08948525735474563 4 0 0 0 0
6988 9 0.0008518145407988976 0.009084884449814389 0.03297773641413993 4 0 0 0 0
6989 9 -0.0001463534025252342 0.007899755362844461 0.06424805973007226 4 0 0 0 0
6990 9 0.0008573227104582083 0.009090136807179147 0.03689929464404287 4 0 0 0 0
6991 9 -0.000286944763710414 0.009338819371231872 0.08769137409389305 4 0 0 0 0
6992 9 0.0005794875119499986 0.009005181827287595 0.0889395852109868 4 0 0 0 0
6993 9 -6.218184712291123e-05 0.009124315232985035 0.08442079051372157 4 0 0 0 0
6994 9 5.759139142737457e-05 0.009705956752559964 0.08594614065291588 4 0 0 0 0
6995 9 -0.0001964625620575317 0.008517730715220204 0.08391917493537154 4 0 0 0 0
6996 9 -7.317283782508003e-05 0.008964050998783106 0.08713081157364408 4 0 0 0 0
6997 9 -0.0008605281670543102 0.00879815507532733 0.005847760298125812 3.497947927330253 4.231884560933153 -6.421765461500558 -30.62125886161117 31.57228868563992
6998 9 -0.0006759451811566507 0.00920736132601099 0.08489454167279509 4 0 0 0 0
6999 9 0.0007089049301277441 0.009008096014765482 0.05308132576181414 4 0 0 0 0
7000 9 0.0006500000000004451 0.008999999999999994 0.0789999999999999 4 0 0 0 0
7001 9 3.880421427558677e-05 0.009717293311104807 0.05191469701004441 4 0 0 0 0
7002 9 0.000544794160258578 0.009019720151472291 0.08492093189273937 4 0 0 0 0
7003 9 -0.0009426610651329403 0.00860229569902383 0.06825288634622925 4 0 0 0 0
7004 9 6.437871807974204e-05 0.009727505741046747 0.08397224811482457 4 0 0 0 0
7005 9 5.326745192615217e-05 0.009740024338576207 0.08990060571359818 4 0 0 0 0
7006 9 -0.0007059334215003795 0.008839550659543083 0.07710402324947124 4 0 0 0 0
7007 9 3.494468765095203e-05 0.008297291933523753 0.07800000000000097 4 0 0 0 0
7008 9 3.422283004436259e-05 0.009699860321216641 0.08814021605280634 4 0 0 0 0
7009 9 -0.0007463387620942027 0.008555790614585321 0.00740889768102135 3.957476051535227 -2.93591008382054 -1.511446016901515 -6.17600490096539 7.003361594194256
7010 9 -0.0006850340020317285 0.008260352756844745 0.07066314397514244 4 0 0 0 0
7011 9 -0.0004680836279570207 0.008032481418047877 0.02530456622747451 3.999999999999966 -1.041906178619631e-12 -3.676285524469762e-12 -3.467596020406247e-12 5.159928866099698e-12
7012 9 -8.726748106934303e-05 0.009526649715937301 0.07805625674445041 4 0 0 0 0
7013 9 0.000571420950852243 0.008444802911099693 0.00454845671549422 2.049646397658123 -3.859560704042269 1.857949603624546 -55.42266341096065 55.58794658127274
7014 9 -0.0009518802590593188 0.008699216954743724 0.01016263827071316 3.999999997552135 -6.474270582630719e-07 -4.621936769171562e-08 -3.412567628105505e-07 7.333172600484277e-07
7015 9 0.000501883158990897 0.009238112560199033 0.004315658240227175 1.672748278283334 0.001302347349993736 0.0002344082527280677 -40.33444335121293 40.33444337291964
7016 9 -0.0003574572517628903 0.008719501398679729 0.08813095930487991 4 0 0 0 0
7017 9 -0.000203608861044709 0.009525998769129346 0.07622491625581598 4 0 0 0 0
7018 9 0.0001279984299619921 0.008197687530919779 0.008031643281477372 3.996415475382404 0.1317309166432543 -0.5003852656319282 -0.8102000538874387 0.9613337483831595
7019 9 -0.0006869361718588196 0.009047097091809061 0.08660456273271758 4 0 0 0 0
7020 9 -0.0001436853258775563 0.008344733026230962 0.08757039678463091 4 0 0 0 0
7021 9 -6.576857810533804e-05 0.009095888141873962 0.08630340469163086 4 0 0 0 0
7022 9 -0.0001295589432826993 0.009543730671181562 0.004831692768500852 2.527422198014116 0.5392721703491165 -3.939045148800057 -65.03765513289007 65.15906288723572
7023 9 0.0005479947559284015 0.009012842048848007 0.08682965353255734 4 0 0 0 0
7024 9 -0.000589915675456191 0.008359182790589656 0.09177002823325267 4 0 0 0 0
7025 9 -0.0001923291433078741 0.008492697633812244 0.08575194709052786 4 0 0 0 0
7026 9 -0.0001897594537262029 0.008142380708112212 0.004449967679589415 1.943991377192114 3.850066720488936 -0.8812880955669553 -52.89156582391943 53.03882934007505
7027 9 0.0008576822815139038 0.008942117754205097 0.008864951972034194 4 0 0 0 0
7028 9 0.0002589209508522462 0.009542777532755854 0.004548456715494217 2.062024436786472 5.446057070925049 -4.341446620999403 -51.92142331510571 52.38646672041514
7029 9 -0.0007563423014472322 0.008308653472841668 0.04481788655973241 4 0 0 0 0
7030 9 0.0002030481532266143 0.008148338102236434 0.09576329974368558 4 0 0 0 0
7031 9 -0.000552762558742892 0.009678968232469644 0.09574564200405031 4 0 0 0 0
7032 9 -0.0006095226904906292 0.008399572977471103 0.005881064643283818 3.500943748762356 -0.3925568641592427 3.923614578039269 -29.89537136240449 30.15430452099128
7033 9 -0.0005678900293100553 0.009742927334216733 0.07265085199299483 4 0 0 0 0
7034 9 -0.0008162529660961097 0.009268988339869767 0.09262967939005873 4 0 0 0 0
7035 9 -3.628965800811366e-05 0.009080542348664497 0.08857980126379317 4 0 0 0 0
7036 9 -0.001081207303311578 0.008815225164958718 0.03169884807554817 4 0 0 0 0
7037 9 0.0006890803877713894 0.008689125249370953 0.00504845671549422 2.677501325389772 13.00352068452317 1.971371452368973 -55.80986428818691 57.33863276589247
7038 9 0.0006890803877713915 0.009298455194484594 0.005048456715494217 2.689854753218323 13.17523402870792 -3.702624001317271 -56.07046520839401 57.71649058018061
7039 9 -0.001018814497739645 0.008813435644576269 0.02867614676965477 4 0 0 0 0
7040 9 0.0006555638855933981 0.008166467512310633 0.06053841982639786 4 0 0 0 0
7041 9 0.001029517134851611 0.009020403393503473 0.02493533058753837 3.999999999999934 1.320905611114761e-12 2.938382006908826e-13 -3.208623293738519e-12 3.482297512100473e-12
7042 9 -0.001020471982982372 0.00883171836460417 0.01266041222953632 3.999999982517343 -3.157349917510735e-06 -5.274337424946938e-07 -1.179963230383273e-06 3.411650345416941e-06
7043 9 0.0001948405630808509 0.008146347716615102 0.004232798475267046 1.559979656067596 0.0001039187141512797 -0.001953806767899581 -38.5117638899883 38.51176393968948
7044 9 0.0008204017645187097 0.008434366607057868 0.05072199376392692 4 0 0 0 0
7045 9 -0.0007628404463353129 0.009278855485188857 0.09083585397206727 4 0 0 0 0
7046 9 -0.0009736091956562684 0.009407890688466126 0.0065788350874597 3.815922466948189 -11.25971547603299 3.933303757627676 -12.60338700109147 17.35215937427576
7047 9 0.0001553836551218695 0.009137052275819206 0.09017142777176773 4 0 0 0 0
7048 9 -0.0002886974616159557 0.009812675241646734 0.005392208112715625 3.173085606057957 7.056153984033843 5.767865244139648 -35.40996235631223 36.56395783550244
7049 9 -0.0009809546701455975 0.009235837500220823 0.008518522402270893 3.997179698146036 -0.8135599994220249 0.3395655092082684 -0.3192274502755212 0.9375984069487566
7050 9 0.0008904312241829638 0.008939336680123328 0.07088025994536112 4 0 0 0 0
7051 9 5.153492821342679e-05 0.009843382962117463 0.005645895443718877 3.334671072570723 -0.05539081122717091 6.454578192212317 -42.16995386497378 42.66110238560847
7052 9 0.0005714209508522462 0.009542777532755852 0.004548456715494217 2.062008784567156 -6.706113753035574 -3.229999855722285 -58.74987904076016 59.21953350070033
7053 9 -0.0003509108157209835 0.008891899358090824 0.0903986281301027 4 0 0 0 0
7054 9 -0.0007287663070765181 0.008352493662352892 0.04310032439843779 4 0 0 0 0
7055 9 -0.0002016719956620377 0.009848044536552225 0.09551284352878325 4 0 0 0 0
7056 9 0.0004300528737592039 0.009855294336745198 0.07004856140558817 4 0 0 0 0
7057 9 -0.0001256790659548109 0.008440835902596804 0.00476562591981659 2.433673771001956 5.611556040326994 3.49233490513876 -62.26154881251944 62.61139213287883
7058 9 0.0005231734465466832 0.009574438391652292 0.005585380099504103 3.316841671581408 0.6476235781862104 6.201387930160559 -42.16904215552692 42.62751159608042
7059 9 -0.000810877215095488 0.009333070118816051 0.005334907487113173 3.176483977625527 -2.214658876185762 -1.80871607670098 -40.40788553704976 40.50892964963774
7060 9 0.0008029027773825757 0.008232424087119321 0.02561398883894373 3.99999999999997 1.269921722103539e-12 -5.496627899567981e-13 -2.520037142320396e-12 2.874963923531539e-12
7061 9 0.0006816037151457159 0.008402209764530594 0.08921040726915636 4 0 0 0 0
7062 9 -0.0006575435128949469 0.00959784798858669 0.005652858369213431 3.401464472210957 2.90106477142686 2.80059192697563 -36.82163023450633 37.04175947597746
7063 9 -0.0007892418495688822 0.008614078907372719 0.005173153253984556 3.017071055993227 -1.489701505426097 -3.817707155995874 -41.42724776439393 41.62944818078535
7064 9 -0.0004274341786859921 0.008272880011202573 0.0899624577130806 4 0 0 0 0
7065 9 0.0003282776049174284 0.008380380871011504 0.005575209792417073 3.298152171478013 2.200880285412373 -7.664014870984214 -44.17619838169813 44.89006016294178
7066 9 0.0001948405630808572 0.0098536522833849 0.09576720152473298 4 0 0 0 0
7067 9 -0.000898790655260324 0.008952205973643644 0.005449432781427035 3.250719627982652 -2.169976835627809 -1.061204414962216 -41.5368819739313 41.60706091991833
7068 9 -0.0005250724118890458 0.008301167828318735 0.005457341868792892 3.21702333640374 0.08021775808106273 -6.206737329682338 -41.7731831573042 42.23184644627875
7069 9 6.603597109281216e-05 0.007934125898671185 0.03231290584530132 4 0 0 0 0
7070 9 0.0001948405630808571 0.0098536522833849 0.004232798475267042 1.572351315903031 -4.102627173338501e-05 0.00120914646908949 -40.18065091131842 40.18065092953264
7071 9 -0.0009824693272903957 0.008513396368775033 0.02450624427045742 3.999999999999885 -1.369383478678725e-11 -8.503732293024692e-12 -1.065333850174975e-11 1.932170270219784e-11
7072 9 -0.001111863298125997 0.009117057495727847 0.02366217957551281 3.999999999999514 -5.82208639255587e-11 5.781735369798495e-12 -4.333276737257231e-11 7.2806772956163e-11
7073 9 -0.0008882600659225195 0.009611296697544704 0.09432763114884356 4 0 0 0 0
7074 9 -0.0002564983409680203 0.007945845723987379 0.02184369123357923 3.999999999993313 -9.283909504934479e-11 -7.785419950826575e-10 -4.889240173348874e-10 9.240094319885222e-10
7075 9 -0.0006432182374507715 0.008183365880616363 0.008956823658092859 3.999858013062624 -0.0382576118456063 -0.03870918694845962 -0.01768715305795598 0.05722657950319444
7076 9 -3.764179853261147e-05 0.01003326546421364 0.07124268802781614 4 0 0 0 0
7077 9 -0.0001739818488087719 0.008132091524237356 0.005292378996739442 3.054308964870882 2.311059278020898 -7.10790863660492 -41.07478582710231 41.74926814825829
7078 9 -0.0007327964189937587 0.009439862821122951 0.03059526720974666 4 0 0 0 0
7079 9 -0.0005172577959653324 0.009031169414530226 0.03042663523935205 4 0 0 0 0
7080 9 -0.0003470625579032512 0.008967417711859363 0.03067320686058541 4 0 0 0 0
7081 9 -0.0001315239348748249 0.008558724305266637 0.0305045748901908 4 0 0 0 0
7082 9 -0.0005013247762718424 0.008584289509903892 0.02503510849955102 3.999999999999961 7.040089694610113e-13 -7.796621642382439e-13 -4.816667845979445e-12 4.929887509661705e-12
7083 9 -0.0001571077588251632 0.008826138149613846 0.03117754050352383 4 0 0 0 0
7084 9 -0.0003591728637387779 0.00835721976960237 0.03104521923605504 4 0 0 0 0
7085 9 0.000365797823886028 0.008423494376480127 0.02489717416789738 3.999999999999937 -3.029867851773349e-13 2.222735205243644e-13 -3.888446942622601e-12 3.906561932890536e-12
7086 9 -1.060435033276296e-05 0.008918126796513978 0.02493294750669521 3.999999999999947 1.585727058469036e-12 -5.320066956751828e-13 -5.566226608230085e-12 5.812094294002179e-12
7087 9 3.346328241173448e-05 0.008401170211833309 0.0379421679027159 4 0 0 0 0
7088 9 0.0004060210123642039 0.008707844826160866 0.03790780053564177 4 0 0 0 0
7089 9 -0.0003849673142771121 0.0093123871909539 0.03743899915171942 4 0 0 0 0
7090 9 0.0002377920630363874 0.009275032555511431 0.03759154227005418 4 0 0 0 0
7091 9 -0.0002378670988667349 0.008295742754869634 0.03716066350708979 4 0 0 0 0
7092 9 -2.992578197272526e-07 0.008824789142137714 0.03708826111361972 4 0 0 0 0
7093 9 -0.0003487917340810872 0.008287722976039361 0.03695320388554982 4 0 0 0 0
7094 9 -0.0008005554684024419 0.008300409204578689 0.03684440589300011 4 0 0 0 0
7095 9 2.91193141770337e-05 0.008430913968418569 0.05365673666839495 4 0 0 0 0
7096 9 -0.0004652469750410921 0.00817678623902638 0.05350891328992261 4 0 0 0 0
7097 9 -0.00013852676365971 0.008218858281235844 0.04617392609473915 4 0 0 0 0
7098 9 0.0002427021412432735 0.008523706747905497 0.04619490438848841 4 0 0 0 0
7099 9 -0.0004561438063940638 0.008328443528172403 0.04588282944946492 4 0 0 0 0
7100 9 -7.491490149108033e-05 0.008633291994842054 0.0459038077432142 4 0 0 0 0
7101 9 0.0001206370734628774 0.009112976112507042 0.06244950638024369 4 0 0 0 0
7102 9 -0.0003585733414877314 0.009262541706184976 0.01254963505078536 3.99999998285543 1.060904181798288e-07 5.307838422065731e-07 -2.260081466718459e-06 2.323995460447675e-06
7103 9 -0.0006024572623159077 0.008701692594071284 0.0123379649142681 3.999999980596633 1.475616448277479e-07 5.770122239211658e-07 -2.288474168145641e-06 2.364705386268785e-06
7104 9 -0.0001346269944689463 0.009145254041429046 0.06170076979601812 4 0 0 0 0
7105 9 0.0003521412897558914 0.008798126541152498 0.06154627435149231 4 0 0 0 0
7106 9 -0.0001497874650585155 0.008737926080902344 0.02373466849890614 3.999999999999695 -9.816997587958543e-13 5.42988172597452e-13 -4.023943224155754e-11 4.025506772687013e-11
7107 9 5.717855863887741e-05 0.008460002655855102 0.02875641799222042 4 0 0 0 0
7108 9 -0.0004802471575248845 0.008415179171272913 0.04987679041487279 4 0 0 0 0
7109 9 -0.000460773708614654 0.008379820336166435 0.05023256984653079 4 0 0 0 0
7110 9 -6.338227978789414e-05 0.008680568894453506 0.05024059636601648 4 0 0 0 0
7111 9 -0.000152913557887515 0.00796549873907844 0.05041598508074792 4 0 0 0 0
7112 9 0.0002444778709392449 0.00826624729736551 0.05042401160023361 4 0 0 0 0
7113 9 -0.0008388644667987113 0.008406998709604614 0.01597218756003396 3.999999994460343 1.764747628813842e-09 2.312566447553722e-08 -1.795423712039257e-07 1.810341784005351e-07
7114 9 -0.0009026790733188258 0.008724286806587709 0.01565171067573697 3.999999993695929 -1.123176114087913e-07 -5.653287282185918e-08 -1.303405330234861e-07 1.811073330677564e-07
7115 9 -0.0007292649317755702 0.009240760215257745 0.05961430659117321 4 0 0 0 0
7116 9 -0.0002310656590578537 0.009131400581288798 0.0270498068743932 4 4.100493600750673e-14 2.196612622374377e-14 -8.963312071230214e-14 1.00985205881274e-13
7117 9 -0.0005184873367152184 0.009620847890136959 0.02687868176963963 3.999999999999999 -1.903094028287457e-14 5.854155054167607e-14 -1.169206371810032e-13 1.321352535347238e-13
7118 9 -0.0006467446108543396 0.009073348285220361 0.0289545372312663 4 0 0 0 0
7119 9 -0.0003577708458219577 0.008586534560502837 0.02908112974214966 4 0 0 0 0
7120 9 -0.0004452650025068419 0.008589137324765541 0.03909671566599153 4 0 0 0 0
7121 9 -0.0007507645596993436 0.009010049589304838 0.03906509844080077 4 0 0 0 0
7122 9 -0.0001860267665682218 0.007959587919050572 0.01400655009167412 3.999999991411817 -7.430718124073939e-09 -1.723304263304014e-07 7.318586733297712e-08 1.873743914955762e-07
7123 9 -0.000459749492918981 0.008467136117336077 0.01416349493646468 3.999999991138659 -2.598672529277964e-08 3.088484779754023e-08 2.436877620149074e-07 2.470079129719406e-07
7124 9 -0.000388390686856143 0.008934194810754383 0.06551469418161562 4 0 0 0 0
7125 9 0.0001791983481741702 0.009114710278809904 0.06565864550841954 4 0 0 0 0
7126 9 -0.0007093796405777078 0.008432881917835285 0.06098908400235591 4 0 0 0 0
7127 9 -0.0004200930497835599 0.008890202259804402 0.06108336446673979 4 0 0 0 0
7128 9 -0.001006697691807825 0.008844786342884632 0.06126175132985524 4 0 0 0 0
7129 9 -0.0007174111010136765 0.009302106684853749 0.06135603179423911 4 0 0 0 0
7130 9 -0.0004810890995372156 0.00882309197470949 0.02223920673180134 3.999999999996658 -7.29749195208585e-11 -4.6171687529089e-11 -3.053865166722265e-10 3.173611321090781e-10
7131 9 -0.0005813164149896781 0.008268757267248088 0.02230471575343072 3.999999999996798 -8.899504387189405e-12 8.565664420014305e-11 -3.746835249804663e-10 3.844528654669584e-10
7132 9 -6.220763584590903e-05 0.008245456640362865 0.01807487225247048 3.999999998880229 3.790481579504544e-08 1.499341550099802e-08 -6.25982956608001e-08 7.470022883819593e-08
7133 9 0.0002883065127687017 0.008555635902250417 0.01809649395861338 3.999999998734873 2.271178073893059e-08 -4.527659590900898e-09 -7.601415514874034e-08 7.946368018586291e-08
7134 9 -0.0001135281272469264 0.008617899685161991 0.0263955357673272 3.999999999999997 1.855297087721762e-13 -7.113231082086187e-14 -4.309188514007779e-14 2.033174587799333e-13
7135 9 -0.0005751617715334893 0.009032140972937287 0.02647711141443733 3.999999999999998 -2.985269477124569e-14 3.056236990470922e-14 -2.529225865347835e-13 2.565055099188758e-13
7136 9 0.0003415627475289663 0.008687968498707366 0.04244245234243892 4 0 0 0 0
7137 9 -0.0002082348570175955 0.008484631102057209 0.04248500043025234 4 0 0 0 0
7138 9 2.548566709797029e-05 0.009101977370937608 0.0421999680127204 4 0 0 0 0
7139 9 -0.0005243119374485915 0.008898639974287449 0.04224251610053383 4 0 0 0 0
7140 9 0.0007722831738684599 0.009001990385621333 0.09503050126841853 4 0 0 0 0
7141 9 0.0004597831738684598 0.009001990385621333 0.09553050126841853 4 0 0 0 0
7142 9 -0.0004902761903731396 0.00920574342338073 0.06277656523398151 4 0 0 0 0
7143 9 -0.0007452876044181979 0.008696403533715796 0.06272940558726534 4 0 0 0 0
7144 9 6.245251507986489e-05 0.008464862197699777 0.09361803048063556 4 0 0 0 0
7145 9 -0.0006935591316550862 0.008914864709500293 0.09389286196215976 4 0 0 0 0
7146 9 -0.000107277821798428 0.009065530048490958 0.09390371053815637 4 0 0 0 0
7147 9 -0.0002998358815540194 0.00821455381655823 0.01189368396441783 3.999999981778202 -2.572496543930092e-07 1.073026682735642e-06 7.913011766503236e-07 1.357836955866265e-06
7148 9 0.0001936719356782313 0.0084692937233275 0.01185535410093509 3.999999986585026 -1.039460004453895e-06 1.441360788849139e-07 1.158325773535986e-06 1.563000610279264e-06
7149 9 0.0001761925023301561 0.008456756871998374 0.02787521819831711 4 0 0 0 0
7150 9 -0.0003146121550170589 0.008200117632659779 0.02791491723880882 4 0 0 0 0
7151 9 0.0002059550052245491 0.009195800458254867 0.05987104751112764 4 0 0 0 0
7152 9 -0.0002677406950774937 0.008928083824098276 0.05977052001421433 4 0 0 0 0
7153 9 3.454215628871893e-05 0.007888567284448011 0.06634411409548865 4 0 0 0 0
7154 9 0.0004186196582203984 0.008192759511858936 0.06637366189913305 4 0 0 0 0
7155 9 -0.0003993125210495311 0.008244476797494975 0.06608666126226757 4 0 0 0 0
7156 9 -1.523501911785162e-05 0.0085486690249059 0.06611620906591197 4 0 0 0 0
7157 9 0.0003309809463176913 0.008253305010153918 0.05817931811551595 4 0 0 0 0
7158 9 -3.763352627409264e-05 0.007945884425342577 0.05813869928915724 4 0 0 0 0
7159 9 -3.915642439977529e-05 0.008649429337869947 0.05792570610578077 4 0 0 0 0
7160 9 -0.0004077708969915592 0.008342008753058607 0.05788508727942206 4 0 0 0 0
7161 9 -0.0005819520310126143 0.0082716823829143 0.0573824567982615 4 0 0 0 0
7162 9 -0.000151227645570264 0.008224948866804643 0.05756711288481012 4 0 0 0 0
7163 9 -0.0002330822031334552 0.008473925756487061 0.03943269473818031 4 0 0 0 0
7164 9 0.0003060497791759496 0.008689086613973985 0.03947576123097409 4 0 0 0 0
7165 9 -0.0005437403762227592 0.008879759596373826 0.03976921273637329 4 0 0 0 0
7166 9 -4.608393913354484e-06 0.009094920453860754 0.03981227922916707 4 0 0 0 0
7167 9 -0.0004208473151127293 0.008865676133004491 0.05229496955079662 4 0 0 0 0
7168 9 9.753439821702135e-05 0.009100769667829262 0.05220027999091099 4 0 0 0 0
7169 9 -0.0007962579940276106 0.008598659931263712 0.04402702225702744 4 0 0 0 0
7170 9 -0.0002692677703880612 0.008825926721541253 0.04404520353680653 4 0 0 0 0
7171 9 -0.0002296195257894265 0.00916246085077903 0.05368163361863729 4 0 0 0 0
7172 9 -0.0008348167045119938 0.009271935101485985 0.05387714223844353 4 0 0 0 0
7173 9 -3.585617234146669e-05 0.008468508331796245 0.0163763444874197 3.999999995890705 -4.973877675836277e-08 -1.710697397703029e-08 -1.252248002041508e-07 1.358228443901781e-07
7174 9 -0.0005785396461101558 0.008257151244373609 0.01648895467720711 3.999999995792027 2.612996598079764e-08 3.298808731013028e-08 -1.362873138369956e-07 1.426366745947274e-07
7175 9 0.0002051890366783251 0.008819099739290667 0.01059851637966034 3.999999846603725 4.801369518201719e-06 2.791912887429513e-05 3.313525577640235e-05 4.359445012518706e-05
7176 9 -0.0005283328983849216 0.009030191396357475 0.01041090359294531 3.999999846603725 2.894586928032627e-05 2.066425488939199e-06 1.525727650902064e-05 3.278594133417229e-05
7177 9 3.373339359172018e-05 0.008842114508066996 0.01026974510341886 3.999999846603725 -1.688856169832964e-05 2.828906587282708e-05 -2.339122504771245e-05 4.040599180107038e-05
7178 9 0.0001947793794593391 0.008571041466397753 0.06034817726914467 4 0 0 0 0
7179 9 -0.0003945072113351844 0.008425971024348573 0.0605038968047608 4 0 0 0 0
7180 9 -0.0003830411593721396 0.009028184997501524 0.04963470320418269 4 0 0 0 0
7181 9 0.0002123561831175557 0.009160945472087404 0.04978846479953401 4 0 0 0 0
7182 9 4.480282127701732e-05 0.00910947425070693 0.05469550861980615 4 0 0 0 0
7183 9 -0.0002126736269788692 0.00860320685209166 0.05457716463888029 4 0 0 0 0
7184 9 4.451568631011403e-05 0.009733985412918077 0.0541957061759021 4 0 0 0 0
7185 9 -0.0002129607619457725 0.009227718014302807 0.05407736219497625 4 0 0 0 0
7186 9 -0.0002421935639966619 0.008906658591267816 0.07141634136606012 4 0 0 0 0
7187 9 0.000457714166893939 0.008721615019318054 0.0153197387655524 3.999999993223808 -8.707642805815591e-08 2.0205430717031e-09 -1.870806642846692e-07 2.063626949496079e-07
7188 9 -0.0005539944772049323 0.009287957343461325 0.008851878729702202 3.999809889956576 -0.0161767839096439 0.01331426489200368 -0.03683733527687686 0.04237861792903105
7189 9 -0.0003315326937707567 0.008720592425170804 0.008703815608053233 3.999858013062624 -0.01170067636144757 0.00705522140650849 -0.03329653239958164 0.03599084670088471
7190 9 -7.645158536540692e-05 0.008365037891771907 0.009447920773821918 3.999999997552135 -2.329863129158702e-07 3.724481225171073e-07 -1.508324538154686e-07 4.64489671679194e-07
7191 9 0.0002352339583146079 0.008902264436326348 0.009194912723782292 3.999999997552135 -3.036549140106144e-07 5.278616045525372e-08 1.827795953158148e-07 3.583309448013309e-07
7192 9 0.0001330338115252573 0.00884317379984143 0.02954143070165795 4 0 0 0 0
7193 9 0.0001757876267359497 0.009457932435937309 0.02968024729082363 4 0 0 0 0
7194 9 -0.0003810922089038346 0.008677940559951376 0.07413303694839748 4 0 0 0 0
7195 9 -0.0004620445551700844 0.009328598516963901 0.01481842591892741 3.999999991702541 3.713145685848071e-08 2.259246904506923e-08 -1.382431645522926e-07 1.449149312231761e-07
7196 9 -9.519054946825856e-05 0.009526556079304744 0.01454467823029342 3.999999991056387 3.456519475878513e-10 -2.778371817226998e-09 -1.112594608054288e-07 1.11294682909555e-07
7197 9 -0.0005238124445292717 0.009042396203225774 0.03008841673799683 4 0 0 0 0
7198 9 0.0008202163338441291 0.009058873774919308 0.04922188003375114 4 0 0 0 0
7199 9 0.0005218412759769206 0.00874669316051517 0.04893107883357434 4 0 0 0 0
7200 9 0.0007907290684205548 0.009040038990184115 0.04519458896332008 4 0 0 0 0
7201 9 0.0004907290684199944 0.008727789090264173 0.04494458896332008 4 0 0 0 0
7202 9 0.0005555989953125313 0.008713250827203922 0.0140062648676371 3.999999990484697 8.712054110281866e-08 2.472014787389882e-08 1.828075003643233e-09 9.057823276689762e-08
7203 9 -0.0004403921648229041 0.009140106029710687 0.07251428571580291 4 0 0 0 0
7204 9 -0.0001021524538052994 0.008866731856195817 0.07215468146925451 4 0 0 0 0
7205 9 -0.0007633202246840754 0.008623897256637911 0.07231701402710036 4 0 0 0 0
7206 9 -0.0004250805136664707 0.00835052308312304 0.07195740978055196 4 0 0 0 0
7207 9 8.073449586450934e-05 0.009422867364340594 0.07161361305476269 4 0 0 0 0
7208 9 0.0006376398853199668 0.009228130989707794 0.07171027555069279 4 0 0 0 0
7209 9 0.0006871711824528292 0.009003722715325612 0.03483011782230378 4 0 0 0 0
7210 9 0.000406775874662811 0.008692876227910838 0.0352354991558076 4 0 0 0 0
7211 9 -0.0007121552888764905 0.009532728841502486 0.01343611858173699 3.999999992101387 2.670519217091666e-07 -5.92858867563399e-10 2.543760836840794e-07 3.688146856087016e-07
7212 9 -0.0003824555894712488 0.009658607509855043 0.01371110856236394 3.999999990848186 -4.07914786534687e-08 1.322609594000025e-07 -2.425203331249918e-08 1.40517142128411e-07
7213 9 -0.0001087328631204896 0.009151059311569539 0.01355416371757338 3.999999991121344 9.165209828803092e-08 3.164292475870862e-08 -3.000941737010693e-08 1.014985070765942e-07
7214 9 7.262457446664735e-05 0.008493428884344912 0.09074457427848108 4 0 0 0 0
7215 9 0.0005789190453095003 0.008738581802073294 0.09051737392014612 4 0 0 0 0
7216 9 -0.0002445908026808508 0.008677023096921494 0.07346946072056754 4 0 0 0 0
7217 9 0.0005476961423892342 0.008734727265269523 0.0588850084207681 4 0 0 0 0
7218 9 0.0007887391117692793 0.009038947814830164 0.05921578551290665 4 0 0 0 0
7219 9 0.000461410843541501 0.009330156229231236 0.0310124171378397 4 0 0 0 0
7220 9 0.0008383814010854279 0.009024378863800151 0.03063087536830099 4 0 0 0 0
7221 9 0.0004602436814465103 0.009329987492165674 0.01500903295976728 3.999999992538436 -1.173305154884071e-07 -2.312192828605282e-08 -1.556938591573573e-07 1.963202771283489e-07
7222 9 0.0008373104998765409 0.009024230438350357 0.01462756444190152 3.999999991693589 1.642926457951905e-08 -1.767724197564103e-08 -2.188152313845151e-07 2.201420248483875e-07
7223 9 -0.0002154128480730332 0.008656582945953178 0.07495186537819239 4 0 0 0 0
7224 9 0.0004029031902937193 0.008720869808356509 0.0752503092395618 4 0 0 0 0
7225 9 0.0006928738024449754 0.009032556633043023 0.07488362835614636 4 0 0 0 0
7226 9 0.000894815271502048 0.00903205134276865 0.07305352446795861 4 0 0 0 0
7227 9 0.0005948152715008757 0.008719801442848684 0.07280352446795862 4 0 0 0 0
7228 9 0.0004673174070137247 0.009322622747354726 0.07344009074515054 4 0 0 0 0
7229 9 0.0001673174070125524 0.00901037284743476 0.07319009074515052 4 0 0 0 0
7230 9 -0.0003824432191083813 0.00965099356978001 0.02971393771817693 4 0 0 0 0
7231 9 -0.0007141707993514557 0.009523048658401659 0.02944852861812789 4 0 0 0 0
7232 9 -0.0008561210841885362 0.008400948790346164 0.09358387662549356 4 0 0 0 0
7233 9 -0.0004821472293149319 0.008255611251102466 0.09333201422145153 4 0 0 0 0
7234 9 -0.0002629876273555781 0.008517205691926856 0.03652200349953003 4 0 0 0 0
7235 9 -0.0002172004011766459 0.009140177671160942 0.03663795353315839 4 0 0 0 0
7236 9 0.0001887761069657766 0.008504519463387527 0.03663080149207974 4 0 0 0 0
7237 9 0.0002345633331447088 0.009127491442621613 0.0367467515257081 4 0 0 0 0
7238 9 -0.0001970251690909063 0.008914082882618732 0.02349495625770035 3.999999999999473 6.966797158621688e-12 4.791495600348735e-12 -7.238494993013015e-11 7.287712720137223e-11
7239 9 -9.76826761116649e-05 0.009509572587581729 0.02351388613257968 3.999999999999522 -5.339156333489376e-12 -1.346862887738194e-11 -4.645091835913567e-11 4.865797335069735e-11
7240 9 0.0001745260899607375 0.008422405664832806 0.02318565421878003 3.999999999999001 1.661216213820326e-11 3.489428983541172e-12 -9.32880401734855e-11 9.481982116069918e-11
7241 9 0.0002738685829399789 0.009017895369795803 0.02320458409365937 3.999999999999051 9.461297218933485e-12 -1.430439167828467e-11 -7.848305300055861e-11 8.033505694676061e-11
7242 9 0.0002527910900639471 0.008872464637915307 0.03004187736901568 4 0 0 0 0
7243 9 -0.0001380785834387642 0.008569951093962186 0.03016635638883558 4 0 0 0 0
7244 9 -0.0001707078409637746 0.009125101513640479 0.01101573902024521 3.999999846603725 9.018432416365993e-06 6.280199289906598e-06 -2.437228187417657e-05 2.673539134039036e-05
7245 9 -0.0004660517397100855 0.009622307275895269 0.01085778282339247 3.999999846603725 2.55875928368769e-05 -4.722393746351569e-06 -1.523826767103875e-05 3.015345272925804e-05
7246 9 -3.21543922528967e-05 0.00856529197267417 0.01391334254261849 3.999999991367456 9.083141681452639e-08 2.486830893979111e-08 5.833460167009616e-11 9.417421341845587e-08
7247 9 -0.0003058771186036559 0.009072840170959676 0.01407028738740905 3.999999991094298 8.754234275459068e-10 4.540374421822337e-08 1.980283545443284e-07 2.031686382263404e-07
7248 9 -3.882745543247579e-05 0.008569186114605599 0.01312040846043012 3.999999989873958 3.30530902314693e-08 -2.693330666596137e-08 -3.25478831008403e-07 3.282596216661576e-07
7249 9 -0.0003264597248606854 0.00905817562930078 0.01298510367092402 3.999999990826804 3.104445891014575e-07 -9.903930344257309e-08 6.32028597651261e-08 3.319325654575836e-07
7250 9 -0.0002827113762606521 0.008008337002491907 0.01290873832391286 3.99999998761516 -1.862934403776421e-07 -4.165681346731042e-07 -4.527167020889893e-07 6.427959778211888e-07
7251 9 -0.0005703436456888617 0.008497326517187088 0.01277343353440676 3.999999988568006 -1.779870483148752e-07 -3.405115643170416e-07 -4.726179998371338e-07 6.090938257539092e-07
7252 9 -0.0003529401004101005 0.009258841175225768 0.07447175077196883 4 0 0 0 0
7253 9 0.0002653759379566521 0.009323128037629099 0.07427019463333825 4 0 0 0 0
7254 10 0.006943549036592193 -0.000386217453957853 0.005549348423721408 1.182949245304987 -0.554728743267705 0.07180409532925351 -0.2982264038510715 0.6338917846662492
7255 10 0.003185868791443879 -0.0003862174539578529 0.008580069404314666 1.182946502784219 -0.2477486583101548 -0.05186968395477298 -0.3629805460933255 0.4425208906371073
7256 10 0.006580069404314664 0.0003868232814870903 0.00518586879144388 1.182947612324815 -0.5547457248869067 -0.09353954704248557 -0.2982082448202268 0.6367264902766125
7257 10 0.003549348423721408 0.0003868232814870904 0.008943549036592193 1.182948072342277 -0.2477412547890424 -0.1239071775571527 -0.3629887599190297 0.4566065678482779
7258 10 0.003650980685903567 -0.001331663943113175 0.007560541789070981 1.182942778183412 -0.520990975992756 -0.210131122461978 -1.244904768053122 1.365787160290509
7259 10 0.005560541789070982 -0.001331663943113175 0.005650980685903566 1.182943473712036 -1.284595767538018 -0.082572327244381 -0.5542388539373166 1.40149391094535
7260 10 0.005592204861136168 0.001439729763712498 0.005732172732050089 1.182945005296665 -0.9540771241483231 0.02849965737018643 -0.3980732353769336 1.034184553170667
7261 10 0.00658774964946298 -0.001522858987186172 0.005541668178573093 1.182948444668458 -0.5794652498563561 0.1063059097177218 -0.3653625989510317 0.6932321046693193
7262 10 0.003541668178573093 -0.001522858987186172 0.00858774964946298 1.182946938816429 -0.2808742218769993 0.02998672497466269 -0.3484801505947508 0.4485843817480231
7263 10 0.00658774964946298 0.001523222483703715 0.005541668178573093 1.182948586612447 -0.4982421056980137 -0.09363851928345686 -0.2759361775589711 0.5771950643152148
7264 10 0.006580069404314666 -0.0007727984044332483 0.005178188546295565 1.182947523985677 -0.6210442778605538 -0.01589656807488333 -0.3237828356135561 0.7005597908657414
7265 10 0.003549348423721408 -0.0007727984044332485 0.008951229281740509 1.182947647740914 -0.2590575536347353 -0.03413310043537294 -0.3702971959897806 0.4532062422324289
7266 10 0.006951229281740507 0.0007732830664566381 0.005549348423721408 1.182949354485859 -0.5237852870690873 -0.01849730020832959 -0.250393498706423 0.5808528912379508
7267 10 0.003178188546295565 0.0007732830664566382 0.008580069404314666 1.182946692976777 -0.3080824136573869 0.08307131814329335 -0.5194058952604772 0.6095884689972106
7268 10 0.003682643757968752 0.001076250131434969 0.008005213467495033 1.18294495735627 -0.1271145949547549 0.6154360383550224 -0.7003724999068929 0.9409788925275989
7269 10 0.00404612339024628 0.001439729763712498 0.008005213467495033 1.182945531603509 -0.8943094981478431 -0.2064987251072154 -0.7421587621632233 1.180351994196646
7270 10 0.003319164125691223 0.0006897903464654213 0.007634053590069189 1.18294348126021 -0.460030470278281 0.09090279849078249 -0.9134855739458464 1.026814124447597
7271 10 0.003231414476228245 0.001826068383176198 0.008327024921199468 1.182944903939859 -0.1827639896407817 -0.10906331501004 -0.6447230678564051 0.6789442663551771
7272 10 0.00517402142134851 -0.001695143575390704 0.006093768245348342 1.182942112817517 -1.229208007540586 0.004421783889661153 -0.6593674378871323 1.394896876518298
7273 10 0.005495832875052945 -0.001639058131927171 0.00483627177188553 1.18293962889026 -1.773300506277869 -0.5710903758138949 -1.042755369533467 2.134965494710273
7274 10 0.003791956265299225 0.0001079446550934745 0.006970325361954718 1.182940617787 -0.5634591214791788 -0.2461081423342089 -1.181861617110259 1.332235820453632
7275 10 0.006580069404314666 0.001807757685331539 0.006678127963542642 1.182950057472796 -0.3626593250377823 -0.1628402521795172 -0.2942339678924183 0.4945830179337593
7276 10 0.005205684493413696 0.0009973057007852651 0.005368693099772561 1.182940804655911 -1.437886794536964 -1.087131040311328 -1.118215860997932 2.121268263209422
7277 10 0.005830069404314665 0.0006943386358069342 0.004814708914018037 1.182942643810649 -1.645250843818156 -0.07186713326061135 -0.7186823828300269 1.796808167645533
7278 10 0.00658774964946298 -0.001522858987186172 0.00858774964946298 1.182952191291562 -0.310839165721311 0.1448002474138341 -0.2731653960784611 0.438414680653067
7279 10 0.00658774964946298 0.001523222483703715 0.00858774964946298 1.182952311111078 -0.3086265435952686 -0.1515545365354627 -0.2844135771219711 0.4462176641588235
7280 10 0.006943549036592193 -0.0003862174539578529 0.008580069404314666 1.182952270669059 -0.3490111489047924 0.04998964550209922 -0.3058073806778527 0.4667182241934826
7281 10 0.006943549036592193 0.0003868232814870904 0.008580069404314666 1.182952295898161 -0.3490247412253407 -0.06206393807049711 -0.305820972077011 0.4681844394662882
7282 10 0.004291668178573093 -0.001886338619463701 0.008508805218813276 1.182948340561591 -0.4645254762573959 0.1072901177268172 -0.4257839207379625 0.639208130903375
7283 10 0.006951229281740507 0.001444278053054011 0.006291668178573094 1.182950253128239 -0.4114426816923779 -0.006838525296500301 -0.06979393078721421 0.4173763751354126
7284 10 0.004291668178573093 0.001444278053054011 0.008951229281740509 1.182949051304029 -0.1230308073515978 0.1182627761296247 -0.4173988546666408 0.4509373212016224
7285 10 0.004432643757968752 0.001803209395990026 0.007562425908050257 1.182945284011664 -0.5601484619532697 0.04158200032837547 -0.8516396807216016 1.020188956987633
7286 10 0.006580069404314666 -0.0007727984044332483 0.008951229281740509 1.182952313870377 -0.3452186744349314 0.05526452762230662 -0.3075449008883976 0.4656328674550178
7287 10 0.006580069404314666 0.0007732830664566382 0.008951229281740509 1.182952390816104 -0.3360052142694959 -0.08018423469811307 -0.3117922461648234 0.465342261436588
7288 10 0.005830069404314665 -0.002249818251741229 0.006371036688493264 1.182946613017897 -1.143711897298628 -0.2095438761399584 -0.2426676498990268 1.187801805166881
7289 10 0.005109312507330473 -0.0020025377642047 0.005279059331330306 1.182938267995741 -1.275384159642578 -0.006482766908803716 -0.8844319194421714 1.55205238347878
7290 10 0.005166341176200196 0.0001124929444349875 0.005287501053626039 1.1829393058344 -1.396909243804683 0.234069024119684 -0.622973387202305 1.547333055499567
7291 10 0.007314708914018036 -0.0006934904772660012 0.006299348423721408 1.182951108239702 -0.3739656010604933 0.06625562123334806 -0.01894176461086561 0.3802615791374752
7292 10 0.004299348423721407 -0.0006934904772660013 0.009314708914018036 1.182949402191714 -0.2395281609218133 -0.03452115122703037 -0.3576573257897443 0.4318381785434179
7293 10 0.007314708914018036 0.0006943386358069341 0.006299348423721408 1.182951021001651 -0.4079647274994315 -0.0149410926319872 -0.07144887520586224 0.4144434785358625
7294 10 0.004299348423721407 0.0006943386358069342 0.009314708914018036 1.18294985642229 -0.1721860026962273 -0.1224058220892615 -0.314086282611344 0.3785252933827093
7295 10 0.005527495947118131 0.002189548015453726 0.005359887880959284 1.182943798980039 -0.9265781134195735 0.001235030304024717 -0.370808231446467 0.9980216781595902
7296 10 0.006580069404314664 -0.001807030692296453 0.007451289864493432 1.182950901041366 -0.3766794416637326 0.1146544575005482 -0.2775976280392217 0.481760821871028
7297 10 0.004678188546295564 -0.001443551060018925 0.008872284851090805 1.18294948331249 -0.2746744568602528 0.1367700825629907 -0.2841416515984915 0.4181968327341573
7298 10 0.004678188546295564 0.001807757685331539 0.008508441722295732 1.182948803712185 -0.4561918698562647 -0.1133077984757607 -0.3449843581219019 0.5830642217347584
7299 10 0.004541956265299225 0.0004154600094133183 0.005841485239380562 1.182937466679662 -0.8674965169154371 -0.2794286098859509 -0.8587666460199154 1.252242271766731
7300 10 0.002504455211673187 0.0009971845352794173 0.007569344676051152 1.182940734986593 -0.5959478613370011 0.09324836985067614 -1.031520122766666 1.194940532237698
7301 10 0.006951229281740507 -0.001443551060018925 0.00783774964946298 1.182951824205222 -0.3402758040224854 0.1742369372376663 -0.1751079575957691 0.4204865395163953
7302 10 0.00583774964946298 -0.0018863386194637 0.008508805218813276 1.182951091886812 -0.3136440606253559 0.1439579990426043 -0.2723230284115077 0.4396092970549272
7303 10 0.00583774964946298 0.001886702115981243 0.008508441722295732 1.182951106698278 -0.3735216321297262 -0.1320662290130825 -0.2649251343342383 0.4765975506825488
7304 10 0.002977247351281189 0.0004153388439074705 0.006905616447936682 1.182937871513383 -0.6977572439970445 -0.2205672296225193 -1.286250533273174 1.479849826394297
7305 10 0.005830069404314665 -0.002249818251741229 0.007758865801566199 1.182950242855585 -0.3123052277177108 0.1417206215197606 -0.2788767998073455 0.4420311745731795
7306 10 0.005830069404314665 0.002250181748258772 0.00775838113954281 1.182950371466198 -0.3829888522521146 -0.1478060050481021 -0.2187837671213114 0.4651810538204064
7307 10 0.003239094721376558 0.002189548015453726 0.007576964338446543 1.182942246963154 -0.308919183341669 0.01709253413619477 -0.7720492070820072 0.8317350507917991
7308 10 0.005140975579395659 0.001747123952526494 0.004996408248681756 1.182939598339285 -1.70382077884195 0.2149184495935195 -1.225396428552386 2.109689928282878
7309 10 0.005198004248265381 0.001803209395990026 0.007175844957574861 1.182946512007368 -0.7648019902804265 -0.02850990576389851 -0.68952600308804 1.0301364026177
7310 10 0.005451229281740508 -0.001443551060018925 0.008872284851090805 1.18295067191108 -0.2931098287820698 0.137971243960492 -0.2853439478307711 0.4317066184949099
7311 10 0.005451229281740508 0.001444278053054011 0.008871921354573261 1.182950766939969 -0.2666914361379212 -0.1009482085818181 -0.3326352991908583 0.4381336613329053
7312 10 0.007314708914018036 -0.000693490477266001 0.007830069404314665 1.182952033594656 -0.3974334473139856 0.05208832399867485 -0.2001709777030521 0.4480345509617146
7313 10 0.005830069404314665 -0.000693490477266001 0.009314708914018036 1.182951567171266 -0.3099363777749222 0.05596544557706526 -0.3237175672287259 0.4516478193231573
7314 10 0.005830069404314665 0.0006943386358069342 0.009314708914018036 1.182951741979102 -0.2706673911231874 -0.08148266756812135 -0.3417424848547849 0.4434954201411468
7315 10 0.007314708914018036 0.0006943386358069342 0.007830069404314665 1.182952081170532 -0.397932616695762 -0.06418429266743478 -0.1991269088364135 0.4495792662904958
7316 10 0.005443549036592193 -0.002249818251741229 0.007065132993288504 1.18294689708405 -0.7134822515707507 0.01632184627171253 -0.7731026744785299 1.05214593629308
7317 10 0.004787501053626038 -0.001695143575390704 0.006787864550143581 1.18294239688367 -1.143489452596112 0.0534134285648547 -0.7730997335050375 1.381341493076628
7318 10 0.00287561508909903 0.001747123952526494 0.007190443970724071 1.182939554105947 -0.592322134584835 0.04171589272556046 -1.020993917537777 1.181107237499696
7319 10 0.004343952017033844 -0.002445325323649476 0.006723216218878468 1.182940385187179 -0.7593959748874685 0.2453694457768141 -0.7730984188200108 1.111111865105449
7320 10 0.005101632262182158 -0.0001949012443790085 0.004472792139608002 1.182935461012623 -1.640133910821268 -0.0655752547837026 -1.084307609132213 1.967247404544693
7321 10 0.002472792139608002 -0.0001949012443790085 0.007101632262182158 1.182937073048731 -0.4799535850676271 -0.07910125408242884 -1.171417810660555 1.268397468993631
7322 10 0.003989094721376558 0.002553027647731255 0.007497656411279295 1.182943627670481 -0.5447788497137233 -0.05119070678678349 -0.7767359502673181 0.9501174769439891
7323 10 0.004685868791443878 6.058275292381985e-07 0.009314708914018036 1.182950041315033 -0.2415256220579599 -0.03698370104420898 -0.3589507110006104 0.4342211800237934
7324 10 0.007314708914018036 6.058275292380901e-07 0.006685868791443879 1.182951141775322 -0.412285563680866 -0.006714266507107551 -0.07812683361746747 0.4196763866665235
7325 10 0.007314708914018036 6.058275292381985e-07 0.007443549036592194 1.182951614722462 -0.4193062531249299 -0.006714269191411573 -0.1524767903798399 0.4462196621900252
7326 10 0.005443549036592193 6.058275292381985e-07 0.009314708914018036 1.182951017695993 -0.2345462078220803 -0.03698373156885243 -0.3582919541613981 0.4298288548030121
7327 10 0.005133295334247345 0.002553027647731255 0.006803560106484056 1.182945305690743 -0.6830249677493356 -0.1869460834883025 -0.5887025155427392 0.9208922827925889
7328 10 0.003239094721376558 0.0006896691809595732 0.004925144063180367 1.182918281921671 -1.160618032362656 0.015315191294114 -2.120679078498959 2.417550108294125
7329 10 0.004098407228707032 0.0004153388439074705 0.005026776325362525 1.182928082914005 -2.792054836527862 -0.01852046272112353 -1.709651053135627 3.273960894880358
7330 10 0.002977247351281189 0.0004153388439074704 0.006147936202788367 1.182930892342982 -1.076700309979672 -0.03690870280464909 -2.265741502696633 2.508830477910981
7331 10 0.002867934843950716 0.001076128965929121 0.005288623695457895 1.182920572686592 -0.9932801357843297 -0.2165314421862573 -2.198209553955543 2.42190349450601
7332 10 0.003348407228707032 0.0001078234895876266 0.005397936202788368 1.182924254850942 -1.126089242149285 -0.06302644133105807 -2.086155135796662 2.371516933146799
7333 10 0.003207431649311373 -0.002081845691371947 0.005949811986915982 1.182927304203016 -1.433527418462132 -0.1092951236972303 -1.72969461159912 2.249175345085778
7334 10 0.002472792139608002 -0.0001949012443790086 0.006343952017033843 1.18293009387833 -1.101498007932972 -0.0791007874092293 -2.231491432293944 2.489800957596881
7335 10 0.004343952017033844 -0.0001949012443790085 0.004472792139608002 1.182926449173274 -2.753855645783327 -0.0655747552328444 -1.737304881208407 3.256723693623257
7336 10 0.003949751404163058 -0.001639058131927172 0.004836271771885529 1.182923729543494 -3.010706888971128 0.2473003152244657 -1.961944239724527 3.602046448478501
7337 10 0.002843952017033845 -0.0005817245258660996 0.005207431649311372 1.182918168809803 -1.226792592352566 -0.3591057610439396 -2.186853546689518 2.533042725051159
7338 10 0.003981414476228243 0.002189548015453726 0.005359887880959284 1.182928754735671 -1.467604180299541 -0.1240473235542204 -2.063583705088799 2.535276607477312
7339 10 0.002843952017033845 -0.001639058131927171 0.006336332354638452 1.182929985964211 -1.109814106910654 -0.5143497681249702 -2.42135088154589 2.712781437460666
7340 10 0.00437561508909903 0.002553027647731255 0.006803560106484056 1.182942474770265 -0.6972906816787516 -0.1791078514453242 -0.5887011067528429 0.9299800590858928
7341 10 0.002371159877425843 -0.0006363992022166245 0.004734639509703371 1.182902321575591 -4.759329789242403 -0.2889193289878483 -5.719377882277983 7.446205596256627
7342 10 0.007628840122574157 -0.0006363992022166245 0.004734639509703371 1.18295161131691 -1.324539315180288 0.056510351898586 0.4715824621191911 1.40712040561864
7343 10 0.007628840122574157 -0.0006363992022166244 0.009265360490296628 1.182954244293162 -0.0849873746153705 0.05523512907222083 -0.04178353430985849 0.1096341054009259
7344 10 0.002371159877425843 -0.0006363992022166244 0.009265360490296628 1.182946708115084 -0.2368234770277793 -0.0520867455588466 -0.3739058333804084 0.4456500427132672
7345 10 0.002734639509703371 0.0006366415332283189 0.009628840122574157 1.182948423796956 -0.2831062291636102 -0.1246100329238348 -0.3276239669874732 0.4505710388397447
7346 10 0.007265360490296628 0.0006366415332283188 0.004371159877425843 1.182949925593712 -1.283118792477292 -0.07906454882426554 0.4301631548566236 1.355612547258756
7347 10 0.002734639509703371 0.0006366415332283188 0.004371159877425843 1.182901561286248 -4.789861208242134 -0.05681052017844893 -5.749908684241944 7.483812377829008
7348 10 0.007628840122574157 0.0006366415332283189 0.009265360490296628 1.182954289959502 -0.08707235863288468 -0.06726992208761663 -0.04386851665959582 0.1184537243377385
7349 10 0.003239094721376558 0.002189548015453726 0.006030882867556656 1.18293067577651 -1.138131041155051 0.1554361689025887 -1.651662616688125 2.011837982743356
7350 10 0.003207431649311373 -0.0009683054763414951 0.004836271771885529 1.182915584784322 -1.264305047492045 -0.2877957327693316 -2.149315215819489 2.510149305094675
7351 10 0.006023040735444943 0.002636520367722472 0.009193732808277696 1.182952728225815 -0.3998646003015386 -0.003682070486652598 -0.1365411579185383 0.4225502857922511
7352 10 0.003976959264555057 -0.002193732808277696 0.004363479632277528 1.182920739625024 -3.092578859439231 0.6463534355461935 -1.562885535552993 3.524830203390453
7353 10 0.003976959264555057 -0.002636520367722472 0.00919409630479524 1.182949131342098 -0.4227694378437473 -0.09715335661582253 -0.2213406592967118 0.4869953385139763
7354 10 0.006023040735444943 -0.002636520367722472 0.00919409630479524 1.18295270141393 -0.3425680295318378 0.002345441925232119 -0.130710645942919 0.3666655545834186
7355 10 0.003976959264555057 0.002194096304795239 0.009636520367722471 1.182949788693532 -0.1113218525442831 0.1755915191688234 -0.3600704455215699 0.4157831913341474
7356 10 0.007265360490296628 -0.00102298015269202 0.004363479632277528 1.1829498899976 -1.383525688738761 -0.03104487504786725 0.4386966855721986 1.451744432604731
7357 10 0.007265360490296628 -0.00102298015269202 0.009636520367722471 1.182954287494479 -0.08143677810712215 0.06050521445164895 -0.04376294170792923 0.1104899310853269
7358 10 0.002734639509703371 -0.00102298015269202 0.009636520367722473 1.182947853071779 -0.2487820608097496 -0.03433725156971675 -0.3805727980522172 0.4559684366745155
7359 10 0.002734639509703371 -0.00102298015269202 0.004363479632277528 1.18289973755011 -4.807504566777903 -0.2173984165124978 -5.692502879183798 7.454123104739307
7360 10 0.002363479632277528 0.001023101318197867 0.00926536049029663 1.182947044431457 -0.3607166178934492 0.08202532741746525 -0.4667719368648715 0.5955843129289207
7361 10 0.002363479632277528 0.001023101318197867 0.004734639509703371 1.182903852051169 -4.702197117271522 -0.2902372138925844 -5.907109504208035 7.555715589188734
7362 10 0.007636520367722471 0.001023101318197867 0.004734639509703371 1.182951667754756 -1.25491467404388 -0.003967376783898999 0.4807343743984306 1.343849737856675
7363 10 0.007265360490296629 0.001023101318197867 0.009636520367722471 1.182954384877445 -0.07488120981597714 -0.0853737861858706 -0.0506682008975444 0.1243508967937468
7364 10 0.003976959264555057 0.002636520367722472 0.00480590369520476 1.182924558987089 -1.634218263561574 -0.9398327238367378 -1.247790545689741 2.2607379608582
7365 10 0.007265360490296628 0.002636520367722471 0.008022980152692019 1.182953328765162 -0.1371191079376985 0.01995303424193019 -0.2236690536161625 0.2631114191414725
7366 10 0.002734639509703371 0.002636520367722472 0.008022980152692019 1.182943618835728 -0.1108336269247121 -0.1809933607058201 -0.7681147083279293 0.796895786553407
7367 10 0.002734639509703371 0.002636520367722472 0.005976898681802133 1.182927982382049 -0.4956664720424353 -0.4870261627942759 -1.664426718892916 1.803661841176929
7368 10 0.002734639509703371 -0.002636520367722472 0.00597701984730798 1.182925103257283 -0.6558569108000898 0.66837292017993 -1.745141403716926 1.980502251157814
7369 10 0.007265360490296628 -0.002636520367722472 0.00597701984730798 1.182951162069929 -0.3115619423266101 -0.1615984846948781 -0.2261360833962796 0.4175193916165089
7370 10 0.002734639509703371 -0.002636520367722472 0.008023101318197867 1.182943321376094 -0.1277526557417455 0.1831073405278661 -0.9845192683029086 1.009518315269194
7371 10 0.006023040735444943 -0.002193732808277696 0.004363479632277529 1.182942629095322 -1.548427646496058 0.5248853609573412 0.05321917102251825 1.63583773606827
7372 10 0.006023040735444943 0.002636520367722472 0.00480590369520476 1.182945561012539 -0.8888527573798281 -0.1834790992558866 -0.1860946523615629 0.9264745133046273
7373 10 0.00433627177188553 -0.0020025377642047 0.005279059331330305 1.182932027932376 -1.668460541791327 -0.1928511160182609 -1.070795637457432 1.991872342712244
7374 10 0.003989094721376558 0.0009971845352794173 0.004553984185754523 1.182922109984733 -2.793170200125922 -0.01712894223554735 -1.710131612938897 3.275155462127956
7375 10 0.003957431649311373 -0.002445325323649476 0.006029119914083229 1.182933861057661 -1.533673955239646 -0.08995299108946268 -1.727714734738927 2.311978707994596
7376 10 0.004367934843950715 0.001747123952526494 0.004996408248681756 1.182930287433764 -2.659943428234057 0.6352579859232831 -1.645728011652263 3.19175068550502
7377 10 0.003231414476228244 0.001826068383176198 0.00528094345030958 1.182922868051561 -0.968921772146618 -0.01376661419112508 -2.173853528321051 2.380050016869375
7378 10 0.00287561508909903 0.001747123952526494 0.006417403235279127 1.182933088768861 -0.9713553432574661 0.3595636059105118 -2.003830337726882 2.255693510201426
7379 10 0.003199751404163059 -0.001718366059094419 0.005199751404163058 1.182919277243086 -1.35027903952657 -0.02605573030921448 -2.235291970323528 2.611601535123531
7380 10 0.004363479632277528 -0.002557212440555225 0.004806267191722304 1.182929038013905 -1.676608882335171 -0.1531177841035732 -1.031060086559816 1.974220682251788
7381 10 0.005636520367722471 0.002194096304795239 0.009557212440555225 1.182952388467506 -0.2946306067408296 0.03584302783542129 -0.1959566761606237 0.3556556424475784
7382 10 0.005636520367722471 -0.002193732808277696 0.009557575937072767 1.182952281438198 -0.3224861718358785 -0.005197116318290471 -0.1420581604893096 0.3524271016891182
7383 10 0.004363479632277528 -0.002193732808277696 0.009557575937072769 1.182950274092998 -0.2407079201396046 -0.0287722843923661 -0.1184633731321665 0.2698179348022299
7384 10 0.004363479632277528 0.002557575937072768 0.009193732808277696 1.182949541101687 -0.4343900210011531 -0.006964247947025036 -0.238728252415281 0.4957160170865008
7385 10 0.004363479632277528 0.002194096304795239 0.004442424062927232 1.182926091685183 -2.885637084985599 -0.469810717556436 -0.5406557242297184 2.973202332287099
7386 10 0.007628840122574157 0.002194096304795239 0.007636459784969548 1.182953193742559 -0.1417228010002192 0.02251953031868932 -0.2168358361352818 0.2600197327158246
7387 10 0.002371159877425843 0.002194096304795239 0.007636459784969548 1.182940925978521 -0.2406060187098899 -0.2533392456169873 -0.9607318769824056 1.02229045239567
7388 10 0.007628840122574157 -0.002193732808277696 0.006363540215030452 1.182952104321862 -0.1527132153852185 -0.07304269934430983 0.009640065080914717 0.1695567543200791
7389 10 0.002371159877425843 -0.002193732808277696 0.006363540215030452 1.182927785018479 -0.08108122171407565 0.3479448061430351 -2.598275524674738 2.622722908498026
7390 10 0.002371159877425843 0.002194096304795239 0.006363419049524604 1.182930395374401 -0.1752591392723421 -0.3083177317368038 -2.140236303045704 2.169420895648549
7391 10 0.002371159877425843 -0.002193732808277696 0.007636580950475395 1.182940269053032 -0.2179560342865053 0.2334184566601555 -1.118469177950674 1.163169080923821
7392 10 0.005636520367722471 -0.002557212440555225 0.004806267191722304 1.182941268200803 -1.116297903760756 0.7688662964767675 -0.1090850826737715 1.359844089247184
7393 10 0.005636520367722471 0.002194096304795239 0.004442424062927232 1.182941360371786 -1.570186047994967 -0.4393835769563233 -0.5710959071031482 1.727626316113225
7394 10 0.002726959264555057 0.002273040735444943 0.009273040735444944 1.182947489399171 -0.305043483516952 0.01321554106329488 -0.5224453824936366 0.6051242476142191
7395 10 0.002726959264555057 -0.002273040735444944 0.009273040735444944 1.182947253887983 -0.2454883983870085 0.06537263125837955 -0.3838661417050039 0.4603165752042271
7396 10 0.007273040735444943 0.002273040735444943 0.004726959264555057 1.182951840163109 -1.067937505890345 -0.6633328066971913 0.2937570934158931 1.291043825305794
7397 10 0.007273040735444943 -0.002273040735444943 0.004726959264555056 1.182951201705744 -1.033532279582299 0.5603718367076185 0.08870222877732144 1.179013847969445
7398 10 0.007273040735444943 0.002273040735444943 0.009273040735444944 1.182954414297448 -0.1276722590345116 0.02940002727752195 -0.1034592495139204 0.1669382629623241
7399 10 0.007273040735444943 -0.002273040735444943 0.009273040735444944 1.182954256856301 -0.1357372166601555 -0.0303019915610925 -0.0980633812366757 0.1701741150080825
7400 10 0.002504455211673187 0.0009971845352794171 0.006038623695457894 1.182927290479107 -1.02212999811918 -0.2150014218699708 -2.121171563045984 2.36439086115984
7401 10 0.002726959264555057 0.002273040735444943 0.004726959264555057 1.182908493506129 -2.300839124203593 1.318162678869989 -3.505756238813838 4.395650160034783
7402 10 0.002726959264555057 -0.002273040735444944 0.004726959264555056 1.182905042494742 -2.615328283980727 -1.291120909439682 -3.500330565218441 4.556231919205208
7403 10 0.004999999999999999 0.002557575937072768 0.009557212440555223 1.182951216045635 -0.326632560348201 0.0539264603515985 -0.1778878591324704 0.3758204132726259
7404 10 0.004999999999999999 -0.002557212440555225 0.009557575937072769 1.182951214123958 -0.3024746028170019 0.00610135285919909 -0.1533657796517535 0.3391889948453601
7405 10 0.002371159877425843 1.211655058473704e-07 0.009628840122574157 1.1829476284923 -0.2355459567405302 -0.05398325715041221 -0.3751838288242662 0.4462723329992747
7406 10 0.007628840122574157 1.21165505847262e-07 0.004371159877425843 1.182952444766246 -1.349485134225574 0.01948520093989228 0.4965276802306958 1.438064510996207
7407 10 0.007628840122574157 1.211655058473704e-07 0.009628840122574157 1.182954306127128 -0.1272876283419368 -0.007550274547430148 -0.0840837857781913 0.1527390912813395
7408 10 0.002371159877425843 1.21165505847262e-07 0.004371159877425843 1.182891686981308 -4.852727184671111 -0.1502253551734023 -5.812766646880617 7.573624289418555
7409 10 0.002371159877425843 -0.002557212440555225 0.007000060582752923 1.182935145892976 -0.6479143168699351 -0.1270766372840449 -1.756953515093039 1.876919574181654
7410 10 0.007628840122574157 -0.002557212440555225 0.007000060582752923 1.182952345078636 -0.2566799084112272 0.01408463121030762 -0.1446755515148365 0.2949813001267173
7411 10 0.007628840122574157 0.002557575937072768 0.006999939417247076 1.182952460202742 -0.1561506088204901 0.01041855018696871 -0.1954206672115629 0.2503613308728417
7412 10 0.002371159877425843 0.002557575937072768 0.006999939417247076 1.182936649166665 -0.6051656148565574 0.05242586191501012 -1.501838147490125 1.62002830643752
7413 10 0.002363479632277528 -0.001773040735444944 0.009636520367722473 1.182947416441483 -0.2206578405270505 0.04054204864871756 -0.4086967860445564 0.4662259143568128
7414 10 0.007636520367722471 -0.001773040735444944 0.009636520367722471 1.182954624976408 -0.07146896460538113 0.03396629330280698 -0.03379511745863165 0.08604436034128117
7415 10 0.007636520367722471 0.001773040735444943 0.009636520367722471 1.182954759981005 -0.05795740799155154 -0.04031485248176324 -0.03374439139562844 0.07824980781054262
7416 10 0.007636520367722471 0.001773040735444943 0.004363479632277529 1.182953579359128 -1.383898079815183 -0.3473747780413181 0.6097165291606546 1.551643444115664
7417 10 0.007636520367722471 -0.001773040735444944 0.004363479632277528 1.182953018961194 -1.449447436019755 0.1444591287620746 0.5046159338045492 1.541558805338407
7418 10 0.002363479632277528 0.001773040735444943 0.009636520367722473 1.18294789427026 -0.3267279116980378 -0.00846877819485007 -0.5007612375174684 0.5979838338004638
7419 10 0.002363479632277528 0.002636520367722472 0.008773040735444944 1.182945649555178 -0.2309391530514084 -0.06088833553406739 -0.4483407139117234 0.5079859029216114
7420 10 0.007636520367722471 0.002636520367722472 0.005226959264555056 1.182953217240379 -0.6118747250485553 -0.2072695548677734 0.7498214593636184 0.9897391416178895
7421 10 0.007636520367722471 0.002636520367722472 0.008773040735444944 1.182954257372238 -0.1017175819813591 0.05535468349480593 -0.1294138959071402 0.1736622121326593
7422 10 0.007636520367722471 -0.002636520367722472 0.008773040735444944 1.182954119337889 -0.1063490671347546 -0.05969012178500126 -0.1274515035835538 0.1763998879955695
7423 10 0.006773040735444944 -0.002636520367722472 0.009636520367722471 1.182953934156043 -0.1684771744666257 -0.06304197812859182 -0.06532335965317279 0.1913791802652562
7424 10 0.003226959264555057 -0.002636520367722472 0.009636520367722471 1.182948613591027 -0.1757437020512371 -0.004372272099989346 -0.3141216044187166 0.359968537425952
7425 10 0.003226959264555057 0.002636520367722472 0.009636520367722471 1.182948854452323 -0.1341092090728856 0.184150182749201 -0.3515113589115009 0.4188756440860808
7426 10 0.007636520367722471 -0.002636520367722472 0.005226959264555056 1.182952910043695 -0.594653806872255 0.1214926807112639 0.5275823220951077 0.8041869982046093
7427 10 0.006773040735444944 0.002636520367722471 0.009636520367722471 1.182954078368509 -0.1779426198808055 0.07967041602981387 -0.05318882303407658 0.2020890943523642
7428 10 0.002363479632277528 -0.002636520367722472 0.008773040735444944 1.182945648144139 -0.3239028436089674 -0.01304223591698694 -0.4622803990971781 0.5646116536214389
7429 10 0.004999999999999999 -0.002557212440555225 0.004442787559444775 1.182934238389 -2.212936473190235 0.149690536026598 -0.7282556259139983 2.334491667928364
7430 10 0.004999999999999999 0.002557575937072768 0.004442424062927232 1.18293510670277 -2.200989789869694 -0.08292909927797572 -0.9275450429952232 2.389889766788985
7431 10 0.002472792139608002 -0.0008889975491742478 0.005957431649311371 1.182924543029763 -1.167119128479748 -0.3537948884630968 -2.454282602366233 2.740591355062536
7432 10 0.003957431649311373 -0.0008889975491742481 0.004472792139608002 1.18292003708473 -2.907602848710863 -0.2551493370670959 -1.78258614511895 3.420068548261473
7433 10 0.006773040735444944 -0.002636520367722472 0.004363479632277529 1.182949230954385 -1.199915211256704 0.3939862497275054 -0.07768257244222466 1.265328519097237
7434 10 0.002363479632277528 0.001773040735444943 0.004363479632277529 1.18289472105563 -4.485648752701445 -0.86668908396861 -5.690551839026808 7.297573222211187
7435 10 0.002363479632277528 -0.001773040735444944 0.004363479632277528 1.182891395430563 -4.502084588946602 0.5956804625485963 -5.387076660294044 7.045863737213304
7436 10 0.006773040735444944 0.002636520367722472 0.004363479632277529 1.182950020879828 -1.367872649301155 -0.3633950008117531 -0.006180144108872319 1.415333778831813
7437 10 0.002363479632277528 0.002636520367722472 0.005226959264555056 1.182913053096754 -1.491317405797878 0.5086371727903727 -4.315300338431406 4.593969567731822
7438 10 0.002363479632277528 -0.002636520367722472 0.005226959264555056 1.18290938906857 -1.670116686885462 -0.3459044466983675 -4.445564633591162 4.761510741927975
7439 10 0.003226959264555057 -0.002636520367722472 0.004363479632277528 1.182906858561596 -4.154090994798985 0.2476358041381113 -1.961577243253055 4.600606564987861
7440 10 0.003226959264555057 0.002636520367722472 0.004363479632277528 1.182909179677237 -3.760281994145493 -0.1412780918545426 -2.046316737012242 4.283350600045401
7441 10 0.003989094721376558 0.002553027647731255 0.00610982729820636 1.182936562460619 -1.553433033968821 0.02796967368106988 -1.643417512228584 2.261582988344887
7442 10 0.002472792139608002 -0.0008889975491742478 0.00748815262990463 1.182939250399812 -0.487784141684839 -0.068107911690353 -1.180336662967687 1.278970951374476
7443 10 0.003287501053626038 -0.0005816033603602518 0.007552861543922667 1.182942259945509 -0.5915669663340252 -0.06958524474920573 -1.254691698083141 1.388900586501138
7444 10 0.005552861543922667 -0.0005816033603602518 0.005287501053626039 1.182942553029255 -1.288314814567116 -0.02915328834463239 -0.5810631986721326 1.413590965062206
7445 10 0.00548815262990463 -0.0008889975491742478 0.004472792139608002 1.182938708207479 -1.663632161372096 -0.03660974670783473 -1.104940241234174 1.9974747003665
7446 10 0.005584524615987851 0.001803209395990026 0.006482112149297165 1.182946333036569 -0.9704359277690586 0.09074122360043398 -0.3063116128601248 1.021668568440112
7447 10 0.005519815701969815 0.002553027647731254 0.006109827298206361 1.182945126719944 -0.913173538645336 0.01025260458441446 -0.3051733254744617 0.9628716353512294
7448 10 0.007636520367722471 -0.002193732808277696 0.008023040735444943 1.182953544781557 -0.1397056905598913 -0.02633341771761239 -0.2162621605024579 0.2588058170302538
7449 10 0.007265360490296628 -0.002557212440555225 0.007636580950475395 1.182952621617702 -0.1643280178338068 -0.06334673501397693 -0.2818181738658542 0.3323221169335616
7450 10 0.002843952017033845 -0.001639058131927171 0.007109373090083396 1.182937714163859 -0.495770253676444 0.0005375136481174247 -1.166250181902021 1.267252113881774
7451 10 0.003207431649311373 -0.002081845691371947 0.007495893457805869 1.182940766486921 -0.2634008682030118 0.0474584566991235 -0.9872129300108462 1.022849789393811
7452 10 0.007636520367722471 0.002194096304795239 0.005976959264555057 1.182951477044899 -0.3116851802219839 0.09291939477756857 -0.04941905404318413 0.3289740238960568
7453 10 0.007265360490296628 0.002557575937072768 0.006363419049524604 1.182951281389456 -0.2207932006074257 -0.04382491532043715 -0.2914149116958965 0.3682294276616707
7454 10 0.006580069404314664 -0.0018863386194637 0.006291728761326018 1.182949833104998 -0.5226266980885471 0.04946680261501461 -0.2303290824179491 0.5732687993632521
7455 10 0.006943549036592194 -0.001443551060018925 0.006678249129048489 1.182950775356932 -0.359396354897823 0.100201633212919 -0.02590695322429291 0.3740017078005714
7456 10 0.006580069404314664 0.001886702115981243 0.007837689066710056 1.182951575878998 -0.3280068974354589 -0.1709349879966718 -0.2198763299999592 0.4302939639141001
7457 10 0.006943549036592194 0.001444278053054011 0.007451168698987585 1.182951440856395 -0.3548493078371869 -0.1562724820889831 -0.1803183422179484 0.4276141069597814
7458 10 0.003957431649311373 -0.002445325323649475 0.007416949027156164 1.182942168232083 -0.5804792227095088 0.1024063609135591 -0.9935154982584056 1.155212636717865
7459 10 0.004400980685903567 -0.001695143575390704 0.007481597358421277 1.182944179928574 -0.6210574228862433 -0.127327292207704 -1.192187558561798 1.350272467560747
